       N       E                     dE             d eps       ncg     rms          rms(c)
DAV:   1     0.132557078082E+04    0.13256E+04   -0.52795E+04 57736   0.176E+03
DAV:   2     0.199567226729E+03   -0.11260E+04   -0.10804E+04 57640   0.489E+02
DAV:   3    -0.286760867579E+02   -0.22824E+03   -0.21633E+03 65328   0.203E+02
DAV:   4    -0.495186419918E+02   -0.20843E+02   -0.20424E+02 70744   0.596E+01
DAV:   5    -0.504597550360E+02   -0.94111E+00   -0.93676E+00 75680   0.136E+01
DAV:   6    -0.505018611831E+02   -0.42106E-01   -0.42084E-01 85856   0.256E+00
DAV:   7    -0.505029619685E+02   -0.11008E-02   -0.11007E-02 88192   0.395E-01
DAV:   8    -0.505029923171E+02   -0.30349E-04   -0.30348E-04 87160   0.682E-02
DAV:   9    -0.505029933159E+02   -0.99883E-06   -0.99839E-06 88344   0.128E-02
DAV:  10    -0.505029933526E+02   -0.36689E-07   -0.36722E-07 61112   0.264E-03
   1 F= -.54707800E+02 E0= -.54707799E+02  d E =-.221275E-05
