  56  56   0   0
  0.2137364E+02  0.1061750E-08  0.1061750E-08  0.1061750E-08  0.5000000E-15
  1.000000000000000E-004
  CAR 
 ZnIn2S4 bulk k-point convergence        
     13.37792910    -11.95238170  301      4.21680003      1.00000000
    -11.952  0.0000E+00  0.0000E+00
    -11.868  0.0000E+00  0.0000E+00
    -11.784  0.0000E+00  0.0000E+00
    -11.699  0.0000E+00  0.0000E+00
    -11.615  0.0000E+00  0.0000E+00
    -11.530  0.0000E+00  0.0000E+00
    -11.446  0.0000E+00  0.0000E+00
    -11.361  0.0000E+00  0.0000E+00
    -11.277  0.0000E+00  0.0000E+00
    -11.192  0.0000E+00  0.0000E+00
    -11.108  0.0000E+00  0.0000E+00
    -11.024  0.0000E+00  0.0000E+00
    -10.939  0.0000E+00  0.0000E+00
    -10.855  0.0000E+00  0.0000E+00
    -10.770  0.0000E+00  0.0000E+00
    -10.686  0.0000E+00  0.0000E+00
    -10.601  0.0000E+00  0.0000E+00
    -10.517  0.0000E+00  0.0000E+00
    -10.433  0.0000E+00  0.0000E+00
    -10.348  0.0000E+00  0.0000E+00
    -10.264  0.0000E+00  0.0000E+00
    -10.179  0.0000E+00  0.0000E+00
    -10.095  0.0000E+00  0.0000E+00
    -10.010  0.0000E+00  0.0000E+00
     -9.926  0.1341E+03  0.3326E+01
     -9.842  0.2021E+03  0.1348E+02
     -9.757  0.7251E+02  0.2304E+02
     -9.673  0.5837E+02  0.2760E+02
     -9.588  0.9202E+02  0.3507E+02
     -9.504  0.1308E+03  0.4369E+02
     -9.419  0.5854E+03  0.6502E+02
     -9.335  0.8060E+03  0.9692E+02
     -9.250  0.7713E+03  0.1554E+03
     -9.166  0.0000E+00  0.1600E+03
     -9.082  0.0000E+00  0.1600E+03
     -8.997  0.0000E+00  0.1600E+03
     -8.913  0.0000E+00  0.1600E+03
     -8.828  0.4580E+01  0.1601E+03
     -8.744  0.1363E+02  0.1607E+03
     -8.659  0.1243E+02  0.1616E+03
     -8.575  0.1205E+02  0.1624E+03
     -8.491  0.1831E+02  0.1639E+03
     -8.406  0.2321E+02  0.1655E+03
     -8.322  0.1187E+02  0.1670E+03
     -8.237  0.6638E+01  0.1678E+03
     -8.153  0.1575E+02  0.1684E+03
     -8.068  0.3838E+02  0.1711E+03
     -7.984  0.1756E+02  0.1731E+03
     -7.900  0.1310E+02  0.1745E+03
     -7.815  0.9674E+01  0.1753E+03
     -7.731  0.7241E+01  0.1760E+03
     -7.646  0.4673E+02  0.1786E+03
     -7.562  0.2271E+02  0.1833E+03
     -7.477  0.1202E+02  0.1841E+03
     -7.393  0.4534E+02  0.1869E+03
     -7.308  0.4373E+02  0.1910E+03
     -7.224  0.2848E+02  0.1938E+03
     -7.140  0.2181E+02  0.1963E+03
     -7.055  0.2132E+02  0.2001E+03
     -6.971  0.5960E+02  0.2022E+03
     -6.886  0.9969E+01  0.2059E+03
     -6.802  0.3659E+02  0.2078E+03
     -6.717  0.1174E+03  0.2127E+03
     -6.633  0.8124E+02  0.2193E+03
     -6.549  0.1691E+02  0.2238E+03
     -6.464  0.0000E+00  0.2240E+03
     -6.380  0.0000E+00  0.2240E+03
     -6.295  0.0000E+00  0.2240E+03
     -6.211  0.0000E+00  0.2240E+03
     -6.126  0.0000E+00  0.2240E+03
     -6.042  0.0000E+00  0.2240E+03
     -5.958  0.0000E+00  0.2240E+03
     -5.873  0.0000E+00  0.2240E+03
     -5.789  0.0000E+00  0.2240E+03
     -5.704  0.0000E+00  0.2240E+03
     -5.620  0.0000E+00  0.2240E+03
     -5.535  0.0000E+00  0.2240E+03
     -5.451  0.0000E+00  0.2240E+03
     -5.367  0.0000E+00  0.2240E+03
     -5.282  0.0000E+00  0.2240E+03
     -5.198  0.0000E+00  0.2240E+03
     -5.113  0.0000E+00  0.2240E+03
     -5.029  0.0000E+00  0.2240E+03
     -4.944  0.0000E+00  0.2240E+03
     -4.860  0.0000E+00  0.2240E+03
     -4.775  0.0000E+00  0.2240E+03
     -4.691  0.0000E+00  0.2240E+03
     -4.607  0.0000E+00  0.2240E+03
     -4.522  0.0000E+00  0.2240E+03
     -4.438  0.0000E+00  0.2240E+03
     -4.353  0.0000E+00  0.2240E+03
     -4.269  0.0000E+00  0.2240E+03
     -4.184  0.0000E+00  0.2240E+03
     -4.100  0.0000E+00  0.2240E+03
     -4.016  0.0000E+00  0.2240E+03
     -3.931  0.0000E+00  0.2240E+03
     -3.847  0.0000E+00  0.2240E+03
     -3.762  0.0000E+00  0.2240E+03
     -3.678  0.0000E+00  0.2240E+03
     -3.593  0.0000E+00  0.2240E+03
     -3.509  0.0000E+00  0.2240E+03
     -3.425  0.0000E+00  0.2240E+03
     -3.340  0.0000E+00  0.2240E+03
     -3.256  0.0000E+00  0.2240E+03
     -3.171  0.0000E+00  0.2240E+03
     -3.087  0.0000E+00  0.2240E+03
     -3.002  0.0000E+00  0.2240E+03
     -2.918  0.0000E+00  0.2240E+03
     -2.833  0.0000E+00  0.2240E+03
     -2.749  0.0000E+00  0.2240E+03
     -2.665  0.0000E+00  0.2240E+03
     -2.580  0.0000E+00  0.2240E+03
     -2.496  0.0000E+00  0.2240E+03
     -2.411  0.0000E+00  0.2240E+03
     -2.327  0.0000E+00  0.2240E+03
     -2.242  0.0000E+00  0.2240E+03
     -2.158  0.0000E+00  0.2240E+03
     -2.074  0.1898E+03  0.2360E+03
     -1.989  0.3035E+02  0.2400E+03
     -1.905  0.2409E+03  0.2532E+03
     -1.820  0.8375E+02  0.2720E+03
     -1.736  0.1385E+01  0.3040E+03
     -1.651  0.2512E+01  0.3042E+03
     -1.567  0.4478E+01  0.3045E+03
     -1.483  0.1240E+02  0.3055E+03
     -1.398  0.1909E+01  0.3060E+03
     -1.314  0.2838E+02  0.3071E+03
     -1.229  0.2425E+02  0.3095E+03
     -1.145  0.1916E+02  0.3115E+03
     -1.060  0.2406E+02  0.3133E+03
     -0.976  0.3014E+02  0.3150E+03
     -0.891  0.5361E+02  0.3187E+03
     -0.807  0.3794E+02  0.3231E+03
     -0.723  0.2384E+02  0.3259E+03
     -0.638  0.3901E+02  0.3285E+03
     -0.554  0.2698E+02  0.3306E+03
     -0.469  0.1973E+02  0.3331E+03
     -0.385  0.2351E+02  0.3348E+03
     -0.300  0.2203E+02  0.3365E+03
     -0.216  0.1353E+02  0.3380E+03
     -0.132  0.8531E+01  0.3391E+03
     -0.047  0.6930E+01  0.3397E+03
      0.037  0.6795E+01  0.3403E+03
      0.122  0.8633E+01  0.3409E+03
      0.206  0.1190E+02  0.3418E+03
      0.291  0.1703E+02  0.3429E+03
      0.375  0.1275E+02  0.3442E+03
      0.459  0.1115E+02  0.3454E+03
      0.544  0.2114E+02  0.3467E+03
      0.628  0.3300E+02  0.3494E+03
      0.713  0.2493E+02  0.3537E+03
      0.797  0.2166E+02  0.3552E+03
      0.882  0.4500E+02  0.3584E+03
      0.966  0.5268E+02  0.3615E+03
      1.051  0.5671E+02  0.3646E+03
      1.135  0.2129E+02  0.3680E+03
      1.219  0.3262E+02  0.3698E+03
      1.304  0.4446E+02  0.3727E+03
      1.388  0.1932E+02  0.3752E+03
      1.473  0.4282E+02  0.3770E+03
      1.557  0.4966E+02  0.3808E+03
      1.642  0.2257E+02  0.3844E+03
      1.726  0.6706E+02  0.3873E+03
      1.810  0.2058E+02  0.3921E+03
      1.895  0.1854E+02  0.3934E+03
      1.979  0.2141E+02  0.3952E+03
      2.064  0.3985E+02  0.3979E+03
      2.148  0.1554E+02  0.4008E+03
      2.233  0.4372E+02  0.4051E+03
      2.317  0.7292E+02  0.4085E+03
      2.401  0.3510E+02  0.4136E+03
      2.486  0.4455E+02  0.4172E+03
      2.570  0.7484E+02  0.4215E+03
      2.655  0.6574E+01  0.4247E+03
      2.739  0.2159E+02  0.4259E+03
      2.824  0.2070E+02  0.4279E+03
      2.908  0.6618E+02  0.4327E+03
      2.993  0.3588E+02  0.4372E+03
      3.077  0.6444E+02  0.4422E+03
      3.161  0.4067E+02  0.4469E+03
      3.246  0.4586E+02  0.4515E+03
      3.330  0.4596E+02  0.4543E+03
      3.415  0.1019E+03  0.4596E+03
      3.499  0.4366E+02  0.4638E+03
      3.584  0.4846E+02  0.4687E+03
      3.668  0.4351E+02  0.4725E+03
      3.752  0.4376E+02  0.4764E+03
      3.837  0.3073E+02  0.4799E+03
      3.921  0.4603E+02  0.4833E+03
      4.006  0.3438E+02  0.4867E+03
      4.090  0.7072E+02  0.4909E+03
      4.175  0.1104E+02  0.4959E+03
      4.259  0.0000E+00  0.4960E+03
      4.343  0.0000E+00  0.4960E+03
      4.428  0.0000E+00  0.4960E+03
      4.512  0.0000E+00  0.4960E+03
      4.597  0.0000E+00  0.4960E+03
      4.681  0.0000E+00  0.4960E+03
      4.766  0.0000E+00  0.4960E+03
      4.850  0.0000E+00  0.4960E+03
      4.934  0.0000E+00  0.4960E+03
      5.019  0.0000E+00  0.4960E+03
      5.103  0.0000E+00  0.4960E+03
      5.188  0.0000E+00  0.4960E+03
      5.272  0.0000E+00  0.4960E+03
      5.357  0.0000E+00  0.4960E+03
      5.441  0.0000E+00  0.4960E+03
      5.526  0.1589E-02  0.4960E+03
      5.610  0.2598E-01  0.4960E+03
      5.694  0.7979E-01  0.4960E+03
      5.779  0.1630E+00  0.4960E+03
      5.863  0.2836E+00  0.4960E+03
      5.948  0.8850E+00  0.4961E+03
      6.032  0.2368E+01  0.4962E+03
      6.117  0.3957E+01  0.4965E+03
      6.201  0.4635E+01  0.4968E+03
      6.285  0.6278E+01  0.4973E+03
      6.370  0.8059E+01  0.4979E+03
      6.454  0.8626E+01  0.4986E+03
      6.539  0.1266E+02  0.4996E+03
      6.623  0.1179E+02  0.5008E+03
      6.708  0.1216E+02  0.5018E+03
      6.792  0.1642E+02  0.5030E+03
      6.876  0.1281E+02  0.5046E+03
      6.961  0.8377E+01  0.5058E+03
      7.045  0.2470E+02  0.5072E+03
      7.130  0.3609E+02  0.5094E+03
      7.214  0.3168E+02  0.5116E+03
      7.299  0.3075E+02  0.5145E+03
      7.383  0.3788E+02  0.5173E+03
      7.468  0.2687E+02  0.5197E+03
      7.552  0.3760E+02  0.5224E+03
      7.636  0.1604E+02  0.5253E+03
      7.721  0.1512E+02  0.5265E+03
      7.805  0.4632E+02  0.5289E+03
      7.890  0.7630E+01  0.5312E+03
      7.974  0.6405E+01  0.5318E+03
      8.059  0.4532E+01  0.5323E+03
      8.143  0.4758E+01  0.5327E+03
      8.227  0.5071E+01  0.5331E+03
      8.312  0.5823E+01  0.5335E+03
      8.396  0.1192E+02  0.5343E+03
      8.481  0.8575E+01  0.5350E+03
      8.565  0.1201E+02  0.5359E+03
      8.650  0.1619E+02  0.5372E+03
      8.734  0.2354E+02  0.5392E+03
      8.818  0.1881E+02  0.5413E+03
      8.903  0.2098E+02  0.5427E+03
      8.987  0.1135E+02  0.5442E+03
      9.072  0.2391E+02  0.5459E+03
      9.156  0.1943E+02  0.5480E+03
      9.241  0.4823E+02  0.5512E+03
      9.325  0.2479E+02  0.5539E+03
      9.410  0.1475E+02  0.5558E+03
      9.494  0.1513E+02  0.5572E+03
      9.578  0.1920E+02  0.5588E+03
      9.663  0.2315E+02  0.5605E+03
      9.747  0.2305E+02  0.5640E+03
      9.832  0.9294E+01  0.5654E+03
      9.916  0.1430E+02  0.5665E+03
     10.001  0.3164E+02  0.5682E+03
     10.085  0.6163E+02  0.5725E+03
     10.169  0.3929E+02  0.5762E+03
     10.254  0.2541E+02  0.5787E+03
     10.338  0.3979E+02  0.5815E+03
     10.423  0.3719E+02  0.5846E+03
     10.507  0.4012E+02  0.5880E+03
     10.592  0.3731E+02  0.5911E+03
     10.676  0.5048E+02  0.5957E+03
     10.760  0.3647E+02  0.5994E+03
     10.845  0.2903E+02  0.6022E+03
     10.929  0.3941E+02  0.6048E+03
     11.014  0.2482E+02  0.6074E+03
     11.098  0.2260E+01  0.6078E+03
     11.183  0.7523E+00  0.6080E+03
     11.267  0.1999E+00  0.6080E+03
     11.352  0.8409E-02  0.6080E+03
     11.436  0.0000E+00  0.6080E+03
     11.520  0.0000E+00  0.6080E+03
     11.605  0.0000E+00  0.6080E+03
     11.689  0.0000E+00  0.6080E+03
     11.774  0.0000E+00  0.6080E+03
     11.858  0.0000E+00  0.6080E+03
     11.943  0.0000E+00  0.6080E+03
     12.027  0.0000E+00  0.6080E+03
     12.111  0.0000E+00  0.6080E+03
     12.196  0.0000E+00  0.6080E+03
     12.280  0.0000E+00  0.6080E+03
     12.365  0.0000E+00  0.6080E+03
     12.449  0.0000E+00  0.6080E+03
     12.534  0.0000E+00  0.6080E+03
     12.618  0.0000E+00  0.6080E+03
     12.702  0.0000E+00  0.6080E+03
     12.787  0.0000E+00  0.6080E+03
     12.871  0.0000E+00  0.6080E+03
     12.956  0.0000E+00  0.6080E+03
     13.040  0.0000E+00  0.6080E+03
     13.125  0.0000E+00  0.6080E+03
     13.209  0.0000E+00  0.6080E+03
     13.293  0.0000E+00  0.6080E+03
     13.378  0.0000E+00  0.6080E+03
