       N       E                     dE             d eps       ncg     rms          rms(c)
DAV:   1     0.595540203037E+04    0.59554E+04   -0.19986E+05  6080   0.188E+03
DAV:   2     0.110086632422E+04   -0.48545E+04   -0.47071E+04  6080   0.517E+02
DAV:   3    -0.708495146414E+02   -0.11717E+04   -0.10862E+04  6592   0.233E+02
DAV:   4    -0.223220273129E+03   -0.15237E+03   -0.14936E+03  7976   0.788E+01
DAV:   5    -0.228843480975E+03   -0.56232E+01   -0.55782E+01  7304   0.175E+01    0.407E+01
DAV:   6    -0.215558663308E+03    0.13285E+02   -0.21425E+01  9128   0.489E+01    0.248E+01
DAV:   7    -0.216248451115E+03   -0.68979E+00   -0.36604E+01  8496   0.133E+01    0.891E+00
DAV:   8    -0.215789753319E+03    0.45870E+00   -0.30637E+00  7992   0.617E+00    0.575E+00
DAV:   9    -0.215794278520E+03   -0.45252E-02   -0.71944E-01  8672   0.178E+00    0.147E+00
DAV:  10    -0.215787096368E+03    0.71822E-02   -0.70067E-02  8312   0.118E+00    0.728E-01
DAV:  11    -0.215790620633E+03   -0.35243E-02   -0.15934E-02  8952   0.495E-01    0.262E-01
DAV:  12    -0.215790581595E+03    0.39038E-04   -0.42403E-03  8328   0.366E-01    0.136E-01
DAV:  13    -0.215790583794E+03   -0.21994E-05   -0.57897E-04  9080   0.771E-02    0.853E-02
DAV:  14    -0.215790662346E+03   -0.78552E-04   -0.19197E-04  6840   0.348E-02    0.120E-02
DAV:  15    -0.215790671353E+03   -0.90069E-05   -0.24607E-05  9688   0.175E-02    0.121E-02
DAV:  16    -0.215790671657E+03   -0.30389E-06   -0.75267E-06  6856   0.125E-02    0.596E-03
DAV:  17    -0.215790671899E+03   -0.24230E-06   -0.31312E-06  6208   0.572E-03    0.442E-03
DAV:  18    -0.215790672326E+03   -0.42675E-06   -0.50356E-07  5672   0.206E-03    0.174E-03
DAV:  19    -0.215790672319E+03    0.75161E-08   -0.72266E-08  3752   0.746E-04
   1 F= -.23374240E+03 E0= -.23374240E+03  d E =0.000000E+00
