 running    8 mpi-ranks, on    1 nodes
 distrk:  each k-point on    8 cores,    1 groups
 distr:  one band on    4 cores,    2 groups
 vasp.6.6.1 17Jul2026 (build Sep  7 2026 10:40:42) complex                       
 POSCAR found type information on POSCAR S InZnS InZnS InZnS InZnS InZnS InZn
 POSCAR found : 18 types and      42 ions
 scaLAPACK will be used
 -----------------------------------------------------------------------------
|                                                                             |
|               ----> ADVICE to this user running VASP <----                  |
|                                                                             |
|     You have a (more or less) 'large supercell' and for larger cells it     |
|     might be more efficient to use real-space projection operators.         |
|     Therefore, try LREAL= Auto in the INCAR file.                           |
|     Mind: For very accurate calculation, you might also keep the            |
|     reciprocal projection scheme (i.e. LREAL=.FALSE.).                      |
|                                                                             |
 -----------------------------------------------------------------------------

 LDA part: xc-table for (Slater+PW92), standard interpolation
 POSCAR, INCAR and KPOINTS ok, starting setup
 FFT: planning ... GRIDC
 FFT: planning ... GRID_SOFT
 FFT: planning ... GRID
 WAVECAR not read
 entering main loop
       N       E                     dE             d eps       ncg     rms          rms(c)
DAV:   1     0.416808327306E+04    0.41681E+04   -0.15330E+05 23816   0.176E+03
DAV:   2     0.724796777486E+03   -0.34433E+04   -0.33302E+04 23336   0.466E+02
DAV:   3    -0.752186325496E+02   -0.80002E+03   -0.76119E+03 26368   0.225E+02
DAV:   4    -0.166798882434E+03   -0.91580E+02   -0.90246E+02 29536   0.702E+01
DAV:   5    -0.170372267190E+03   -0.35734E+01   -0.35531E+01 28736   0.159E+01    0.358E+01
DAV:   6    -0.159658413717E+03    0.10714E+02   -0.16537E+01 36288   0.422E+01    0.241E+01
DAV:   7    -0.163376338209E+03   -0.37179E+01   -0.56746E+01 32976   0.173E+01    0.146E+01
DAV:   8    -0.202729564247E+03   -0.39353E+02   -0.26449E+02 35992   0.197E+01    0.368E+01
DAV:   9    -0.160967116845E+03    0.41762E+02   -0.11759E+02 35168   0.131E+01    0.618E+00
DAV:  10    -0.160774445282E+03    0.19267E+00   -0.24979E+00 32776   0.510E+00    0.457E+00
DAV:  11    -0.160432849056E+03    0.34160E+00   -0.43644E-01 32576   0.243E+00    0.292E+00
DAV:  12    -0.160180461685E+03    0.25239E+00   -0.23434E-01 37376   0.196E+00    0.207E+00
DAV:  13    -0.159943648444E+03    0.23681E+00   -0.12289E-01 39024   0.205E+00    0.117E+00
DAV:  14    -0.159784313412E+03    0.15934E+00   -0.11110E-01 35832   0.159E+00    0.770E-01
DAV:  15    -0.159729471336E+03    0.54842E-01   -0.91743E-02 32720   0.829E-01    0.789E-01
DAV:  16    -0.159717226152E+03    0.12245E-01   -0.26971E-02 29336   0.303E-01    0.865E-01
DAV:  17    -0.159717397770E+03   -0.17162E-03   -0.24909E-03 29088   0.103E-01    0.912E-01
DAV:  18    -0.159675522229E+03    0.41876E-01   -0.15094E-03 36784   0.483E-01    0.813E-01
DAV:  19    -0.159627595208E+03    0.47927E-01   -0.87825E-01 37640   0.189E+00    0.120E+00
DAV:  20    -0.159630183966E+03   -0.25888E-02   -0.18698E-02 25992   0.190E-01    0.127E+00
DAV:  21    -0.159632869332E+03   -0.26854E-02   -0.10848E-03 39808   0.107E-01    0.145E+00
DAV:  22    -0.159632263176E+03    0.60616E-03   -0.24326E-04 30056   0.378E-02    0.142E+00
DAV:  23    -0.159632565935E+03   -0.30276E-03   -0.17773E-05 24704   0.165E-02    0.144E+00
DAV:  24    -0.159632736068E+03   -0.17013E-03   -0.20310E-04 34104   0.104E-01    0.142E+00
DAV:  25    -0.159633228377E+03   -0.49231E-03   -0.20197E-02 33096   0.988E-01    0.120E+00
DAV:  26    -0.159628916034E+03    0.43123E-02   -0.24042E-02 35312   0.673E-01    0.132E+00
DAV:  27    -0.159629997096E+03   -0.10811E-02   -0.12671E-02 27056   0.244E-01    0.139E+00
DAV:  28    -0.159630188266E+03   -0.19117E-03   -0.18137E-03 30392   0.960E-02    0.142E+00
DAV:  29    -0.159630950392E+03   -0.76213E-03   -0.11281E-04 30712   0.677E-02    0.143E+00
DAV:  30    -0.159631472594E+03   -0.52220E-03   -0.79922E-05 36760   0.844E-02    0.144E+00
DAV:  31    -0.159632208651E+03   -0.73606E-03   -0.61095E-04 35072   0.304E-01    0.149E+00
DAV:  32    -0.159649343473E+03   -0.17135E-01   -0.10851E-01 36856   0.133E+00    0.205E+00
DAV:  33    -0.159651194901E+03   -0.18514E-02   -0.10105E-02 28328   0.169E-01    0.207E+00
DAV:  34    -0.159651236489E+03   -0.41588E-04   -0.82615E-04 31064   0.660E-02    0.206E+00
DAV:  35    -0.159651786745E+03   -0.55026E-03   -0.32810E-05 31032   0.238E-02    0.207E+00
DAV:  36    -0.159652640550E+03   -0.85381E-03   -0.74046E-05 33184   0.782E-02    0.208E+00
DAV:  37    -0.159646565385E+03    0.60752E-02   -0.95002E-04 36408   0.249E-01    0.206E+00
DAV:  38    -0.159636715853E+03    0.98495E-02   -0.13547E-02 34040   0.395E-01    0.194E+00
DAV:  39    -0.159623986295E+03    0.12730E-01   -0.60747E-03 33648   0.536E-01    0.172E+00
DAV:  40    -0.159617693774E+03    0.62925E-02   -0.55314E-03 33984   0.525E-01    0.148E+00
DAV:  41    -0.159617055639E+03    0.63814E-03   -0.51617E-03 32840   0.164E-01    0.142E+00
DAV:  42    -0.159616829291E+03    0.22635E-03   -0.76412E-04 27520   0.619E-02    0.143E+00
DAV:  43    -0.159616821671E+03    0.76199E-05   -0.57285E-05 29232   0.184E-02    0.143E+00
DAV:  44    -0.159616424425E+03    0.39725E-03   -0.76639E-06 24704   0.159E-02    0.142E+00
DAV:  45    -0.159617339740E+03   -0.91531E-03   -0.16780E-04 32592   0.162E-01    0.136E+00
DAV:  46    -0.159617665732E+03   -0.32599E-03   -0.24181E-04 35432   0.117E-01    0.132E+00
DAV:  47    -0.159616394162E+03    0.12716E-02   -0.15388E-04 33328   0.816E-02    0.133E+00
DAV:  48    -0.159615138622E+03    0.12555E-02   -0.24494E-04 36072   0.110E-01    0.128E+00
DAV:  49    -0.159618440939E+03   -0.33023E-02   -0.86742E-04 36024   0.264E-01    0.131E+00
DAV:  50    -0.159621506188E+03   -0.30652E-02   -0.12029E-03 35032   0.108E-01    0.140E+00
DAV:  51    -0.159758972844E+03   -0.13747E+00   -0.50990E-01 38000   0.104E+00    0.416E+00
DAV:  52    -0.159690347659E+03    0.68625E-01   -0.63615E-02 32920   0.315E-01    0.313E+00
DAV:  53    -0.159683734658E+03    0.66130E-02   -0.14833E-03 36440   0.136E-01    0.296E+00
DAV:  54    -0.159684578568E+03   -0.84391E-03   -0.54967E-04 29448   0.465E-02    0.297E+00
DAV:  55    -0.159694723095E+03   -0.10145E-01   -0.40651E-05 30184   0.484E-02    0.316E+00
DAV:  56    -0.159698039389E+03   -0.33163E-02   -0.15693E-04 34608   0.752E-02    0.324E+00
DAV:  57    -0.159710934081E+03   -0.12895E-01   -0.16191E-04 34256   0.712E-02    0.350E+00
DAV:  58    -0.159709612553E+03    0.13215E-02   -0.16419E-04 31648   0.492E-02    0.346E+00
DAV:  59    -0.159692994565E+03    0.16618E-01   -0.80832E-04 35824   0.138E-01    0.308E+00
DAV:  60    -0.159702154566E+03   -0.91600E-02   -0.51025E-04 34752   0.865E-02    0.325E+00
DAV:  61    -0.160634433151E+03   -0.93228E+00   -0.46484E+00 34920   0.198E+00    0.872E+00
DAV:  62    -0.160629844106E+03    0.45890E-02   -0.28839E-02 25872   0.269E-01    0.872E+00
DAV:  63    -0.160621878868E+03    0.79652E-02   -0.13237E-03 35552   0.738E-02    0.871E+00
DAV:  64    -0.160617938125E+03    0.39407E-02   -0.13570E-04 32632   0.366E-02    0.869E+00
DAV:  65    -0.160625105949E+03   -0.71678E-02   -0.96372E-04 33232   0.143E-01    0.868E+00
DAV:  66    -0.160743605249E+03   -0.11850E+00   -0.73542E-03 35128   0.536E-01    0.902E+00
DAV:  67    -0.160840416937E+03   -0.96812E-01   -0.48781E-03 30928   0.135E-01    0.918E+00
DAV:  68    -0.160850335133E+03   -0.99182E-02   -0.72814E-04 32320   0.648E-02    0.920E+00
DAV:  69    -0.160863874761E+03   -0.13540E-01   -0.11484E-04 29440   0.270E-02    0.922E+00
DAV:  70    -0.160906557872E+03   -0.42683E-01   -0.10265E-04 34424   0.408E-02    0.925E+00
DAV:  71    -0.160899430328E+03    0.71275E-02   -0.28114E-02 37000   0.706E-01    0.908E+00
DAV:  72    -0.161025631845E+03   -0.12620E+00   -0.12206E-02 28480   0.214E-01    0.927E+00
DAV:  73    -0.160967116576E+03    0.58515E-01   -0.13579E-03 30640   0.141E-01    0.916E+00
DAV:  74    -0.160947429162E+03    0.19687E-01   -0.19235E-04 30896   0.442E-02    0.914E+00
DAV:  75    -0.161142536469E+03   -0.19511E+00   -0.95644E-04 31424   0.183E-01    0.951E+00
DAV:  76    -0.160933952360E+03    0.20858E+00   -0.22588E-02 34480   0.631E-01    0.895E+00
DAV:  77    -0.160833563302E+03    0.10039E+00   -0.86844E-03 26848   0.170E-01    0.890E+00
DAV:  78    -0.160766703148E+03    0.66860E-01   -0.68220E-04 34840   0.721E-02    0.884E+00
DAV:  79    -0.161301823972E+03   -0.53512E+00   -0.35121E-02 35424   0.422E-01    0.971E+00
DAV:  80    -0.161779051886E+03   -0.47723E+00   -0.13156E-02 37416   0.357E-01    0.105E+01
DAV:  81    -0.160011679444E+03    0.17674E+01   -0.30077E+00 34976   0.135E+00    0.670E+00
DAV:  82    -0.159770029208E+03    0.24165E+00   -0.39116E-01 33152   0.360E-01    0.413E+00
DAV:  83    -0.160067484590E+03   -0.29746E+00   -0.39571E-01 33600   0.569E-01    0.729E+00
DAV:  84    -0.160012746930E+03    0.54738E-01   -0.18768E-02 35680   0.377E-01    0.669E+00
DAV:  85    -0.160046391305E+03   -0.33644E-01   -0.40741E-03 34552   0.216E-01    0.706E+00
DAV:  86    -0.159665866687E+03    0.38052E+00   -0.14606E+00 35712   0.961E-01    0.265E+00
DAV:  87    -0.159628040032E+03    0.37827E-01   -0.15566E-02 35040   0.657E-01    0.143E+00
DAV:  88    -0.159670741312E+03   -0.42701E-01   -0.53630E-02 35008   0.760E-01    0.265E+00
DAV:  89    -0.159671496076E+03   -0.75476E-03   -0.11327E-02 28512   0.178E-01    0.257E+00
DAV:  90    -0.159660998725E+03    0.10497E-01   -0.19323E-03 29912   0.113E-01    0.236E+00
DAV:  91    -0.159629784357E+03    0.31214E-01   -0.41198E-02 35560   0.281E-01    0.996E-01
DAV:  92    -0.159623558110E+03    0.62262E-02   -0.72529E-03 33936   0.191E-01    0.908E-01
DAV:  93    -0.159624571072E+03   -0.10130E-02   -0.16694E-03 36376   0.285E-01    0.944E-01
DAV:  94    -0.159616360373E+03    0.82107E-02   -0.21618E-03 36656   0.313E-01    0.683E-01
DAV:  95    -0.159613322949E+03    0.30374E-02   -0.23746E-03 33784   0.240E-01    0.617E-01
DAV:  96    -0.159613344613E+03   -0.21664E-04   -0.88581E-04 36800   0.167E-01    0.628E-01
DAV:  97    -0.159615116089E+03   -0.17715E-02   -0.69277E-04 34960   0.157E-01    0.653E-01
DAV:  98    -0.159618891452E+03   -0.37754E-02   -0.65783E-04 37272   0.180E-01    0.671E-01
DAV:  99    -0.159621094138E+03   -0.22027E-02   -0.77561E-04 32664   0.881E-02    0.679E-01
DAV: 100    -0.159621147632E+03   -0.53495E-04   -0.39070E-04 31480   0.753E-02    0.683E-01
DAV: 101    -0.159614547123E+03    0.66005E-02   -0.81738E-04 35248   0.273E-01    0.653E-01
DAV: 102    -0.159614389286E+03    0.15784E-03   -0.87659E-04 32864   0.115E-01    0.638E-01
DAV: 103    -0.159614487892E+03   -0.98606E-04   -0.22649E-04 31056   0.343E-02    0.636E-01
DAV: 104    -0.159614491628E+03   -0.37356E-05   -0.33638E-05 29696   0.273E-02    0.638E-01
DAV: 105    -0.159614812476E+03   -0.32085E-03   -0.11785E-04 36728   0.903E-02    0.667E-01
DAV: 106    -0.159616218414E+03   -0.14059E-02   -0.45872E-04 34328   0.208E-01    0.660E-01
DAV: 107    -0.159617441195E+03   -0.12228E-02   -0.69625E-04 34632   0.862E-02    0.664E-01
DAV: 108    -0.159616468722E+03    0.97247E-03   -0.32270E-04 33080   0.114E-01    0.661E-01
DAV: 109    -0.159617470116E+03   -0.10014E-02   -0.12499E-04 34960   0.839E-02    0.672E-01
DAV: 110    -0.159620196168E+03   -0.27261E-02   -0.75205E-04 36472   0.184E-01    0.704E-01
DAV: 111    -0.159616471094E+03    0.37251E-02   -0.56300E-04 34720   0.208E-01    0.661E-01
DAV: 112    -0.159615420364E+03    0.10507E-02   -0.30028E-04 36072   0.107E-01    0.647E-01
DAV: 113    -0.159614921982E+03    0.49838E-03   -0.19710E-04 38656   0.142E-01    0.653E-01
DAV: 114    -0.159614530279E+03    0.39170E-03   -0.90229E-04 38536   0.431E-01    0.700E-01
DAV: 115    -0.159616197583E+03   -0.16673E-02   -0.20872E-03 35152   0.218E-01    0.771E-01
DAV: 116    -0.159614726221E+03    0.14714E-02   -0.22384E-03 34520   0.285E-01    0.813E-01
DAV: 117    -0.159615350528E+03   -0.62431E-03   -0.11849E-03 26872   0.644E-02    0.827E-01
DAV: 118    -0.159616714787E+03   -0.13643E-02   -0.11475E-04 34536   0.512E-02    0.905E-01
DAV: 119    -0.159616263002E+03    0.45179E-03   -0.91437E-05 31408   0.343E-02    0.887E-01
DAV: 120    -0.159616209886E+03    0.53115E-04   -0.44625E-05 30144   0.507E-02
 -----------------------------------------------------------------------------
|                                                                             |
|           W    W    AA    RRRRR   N    N  II  N    N   GGGG   !!!           |
|           W    W   A  A   R    R  NN   N  II  NN   N  G    G  !!!           |
|           W    W  A    A  R    R  N N  N  II  N N  N  G       !!!           |
|           W WW W  AAAAAA  RRRRR   N  N N  II  N  N N  G  GGG   !            |
|           WW  WW  A    A  R   R   N   NN  II  N   NN  G    G                |
|           W    W  A    A  R    R  N    N  II  N    N   GGGG   !!!           |
|                                                                             |
|     The electronic self-consistency was not achieved in the given           |
|     number of steps (NELM). The forces and other quantities evaluated       |
|     might not be reliable so examine the results carefully. If you find     |
|     spurious results, we suggest increasing NELM, if you were close to      |
|     convergence or switching to a different ALGO or adjusting the           |
|     density mixing parameters otherwise.                                    |
|                                                                             |
 -----------------------------------------------------------------------------

