WP2-P02-beta001-relaxed-region-4L-centra
   1.0000000000000000     
     3.8782842923155867    0.0000000000000000    0.0000000000000000
    -1.9391421461577933    3.3586927202930394    0.0000000000000000
     0.0000000000000000    0.0000000000000000   65.8651576100203897
   S    In   Zn   S    In   Zn   S    In   Zn   S    In   Zn
     4     2     1     4     2     1     4     2     1     4     2     1
Selective dynamics
Direct
     0.0000039243566676    0.9999961331827366    0.1502989525366381   T   T   T
     0.6666687479152533    0.3333312911643753    0.2045454011031037   T   T   T
     0.0000010285487058    0.9999989618169541    0.2471357031183113   T   T   T
     0.3333272607527950    0.6666729471305664    0.2939215084272042   T   T   T
     0.6666704086377909    0.3333296493509348    0.1675348196976872   T   T   T
     0.3333347854897309    0.6666651425897350    0.2281674297186060   T   T   T
     0.9999931429119586    0.0000070718614197    0.2862024448721048   T   T   T
     0.0000000000000000    0.0000000000000000    0.3362693408313575   F   F   F
     0.6666666570000004    0.3333333129999971    0.3899809707307469   F   F   F
     0.0000000000000000    0.0000000000000000    0.4323482087316748   F   F   F
     0.3333333129999971    0.6666666570000004    0.4792866591223017   F   F   F
     0.6666666570000004    0.3333333129999971    0.3527693471059337   F   F   F
     0.3333333129999971    0.6666666570000004    0.4131370086653021   F   F   F
     0.0000000000000000    0.0000000000000000    0.4708704862132507   F   F   F
     0.0000000000000000    0.0000000000000000    0.5207133408776983   F   F   F
     0.6666666570000004    0.3333333129999971    0.5744249707770877   F   F   F
     0.0000000000000000    0.0000000000000000    0.6167922087780155   F   F   F
     0.3333333129999971    0.6666666570000004    0.6637306591686425   F   F   F
     0.6666666570000004    0.3333333129999971    0.5372133471522744   F   F   F
     0.3333333129999971    0.6666666570000004    0.5975810087116429   F   F   F
     0.0000000000000000    0.0000000000000000    0.6553144862595914   F   F   F
     0.0000034001974247    0.9999964375123939    0.7057054497834095   T   T   T
     0.6666686980660890    0.3333309863804556    0.7593905642213912   T   T   T
     0.0000011246500556    0.9999985154791821    0.8018719825953797   T   T   T
     0.3333276372576716    0.6666719211455109    0.8491122106743948   T   T   T
     0.6666701388926581    0.3333296974643192    0.7223065616194321   T   T   T
     0.3333348361330516    0.6666648693496477    0.7827387454805491   T   T   T
     0.9999938090879247    0.0000057517555146    0.8411498724861456   T   T   T

  0.00000000E+00  0.00000000E+00  0.00000000E+00
  0.00000000E+00  0.00000000E+00  0.00000000E+00
  0.00000000E+00  0.00000000E+00  0.00000000E+00
  0.00000000E+00  0.00000000E+00  0.00000000E+00
  0.00000000E+00  0.00000000E+00  0.00000000E+00
  0.00000000E+00  0.00000000E+00  0.00000000E+00
  0.00000000E+00  0.00000000E+00  0.00000000E+00
  0.00000000E+00  0.00000000E+00  0.00000000E+00
  0.00000000E+00  0.00000000E+00  0.00000000E+00
  0.00000000E+00  0.00000000E+00  0.00000000E+00
  0.00000000E+00  0.00000000E+00  0.00000000E+00
  0.00000000E+00  0.00000000E+00  0.00000000E+00
  0.00000000E+00  0.00000000E+00  0.00000000E+00
  0.00000000E+00  0.00000000E+00  0.00000000E+00
  0.00000000E+00  0.00000000E+00  0.00000000E+00
  0.00000000E+00  0.00000000E+00  0.00000000E+00
  0.00000000E+00  0.00000000E+00  0.00000000E+00
  0.00000000E+00  0.00000000E+00  0.00000000E+00
  0.00000000E+00  0.00000000E+00  0.00000000E+00
  0.00000000E+00  0.00000000E+00  0.00000000E+00
  0.00000000E+00  0.00000000E+00  0.00000000E+00
  0.00000000E+00  0.00000000E+00  0.00000000E+00
  0.00000000E+00  0.00000000E+00  0.00000000E+00
  0.00000000E+00  0.00000000E+00  0.00000000E+00
  0.00000000E+00  0.00000000E+00  0.00000000E+00
  0.00000000E+00  0.00000000E+00  0.00000000E+00
  0.00000000E+00  0.00000000E+00  0.00000000E+00
  0.00000000E+00  0.00000000E+00  0.00000000E+00
