WP2-P02-beta001-relaxed-region-4L-central2fixed-500-k10
1.0
   3.8782842923155867    0.0000000000000000    0.0000000000000000
  -1.9391421461577933    3.3586927202930394    0.0000000000000000
   0.0000000000000000   -0.0000000000000000   65.8651576100203897
S In Zn S In Zn S In Zn S In Zn
4 2 1 4 2 1 4 2 1 4 2 1
Selective dynamics
Direct
   0.0000000000000000    0.0000000000000000    0.1518253407850139    T T T    S
   0.6666666570000004    0.3333333129999971    0.2055369706844014    T T T    S
   0.0000000000000000    0.0000000000000000    0.2479042086853299    T T T    S
   0.3333333129999971    0.6666666570000004    0.2948426590759600    T T T    S
   0.6666666570000004    0.3333333129999971    0.1683253470595915    T T T    In
   0.3333333129999971    0.6666666570000004    0.2286930086189596    T T T    In
   0.0000000000000000    0.0000000000000000    0.2864264861669099    T T T    Zn

   0.0000000000000000    0.0000000000000000    0.3362693408313560    F F F    S
   0.6666666570000004    0.3333333129999971    0.3899809707307435    F F F    S
   0.0000000000000000    0.0000000000000000    0.4323482087316719    F F F    S
   0.3333333129999971    0.6666666570000004    0.4792866591223021    F F F    S
   0.6666666570000004    0.3333333129999971    0.3527693471059336    F F F    In
   0.3333333129999971    0.6666666570000004    0.4131370086653017    F F F    In
   0.0000000000000000    0.0000000000000000    0.4708704862132521    F F F    Zn

   0.0000000000000000    0.0000000000000000    0.5207133408776982    F F F    S
   0.6666666570000004    0.3333333129999971    0.5744249707770857    F F F    S
   0.0000000000000000    0.0000000000000000    0.6167922087780141    F F F    S
   0.3333333129999971    0.6666666570000004    0.6637306591686442    F F F    S
   0.6666666570000004    0.3333333129999971    0.5372133471522756    F F F    In
   0.3333333129999971    0.6666666570000004    0.5975810087116437    F F F    In
   0.0000000000000000    0.0000000000000000    0.6553144862595941    F F F    Zn

   0.0000000000000000    0.0000000000000000    0.7051573409240403    T T T    S
   0.6666666570000004    0.3333333129999971    0.7588689708234276    T T T    S
   0.0000000000000000    0.0000000000000000    0.8012362088243562    T T T    S
   0.3333333129999971    0.6666666570000004    0.8481746592149861    T T T    S
   0.6666666570000004    0.3333333129999971    0.7216573471986177    T T T    In
   0.3333333129999971    0.6666666570000004    0.7820250087579858    T T T    In
   0.0000000000000000    0.0000000000000000    0.8397584863059361    T T T    Zn