WP2-P02-beta001-relaxed-region-4L-centra
           1
     3.878284    0.000000    0.000000
    -1.939142    3.358693    0.000000
     0.000000   -0.000000   65.865158
   S    In   Zn   S    In   Zn   S    In   Zn   S    In   Zn
     4     2     1     4     2     1     4     2     1     4     2     1
Direct configuration=           1
   0.00000000  0.00000000  0.15182534
   0.66666666  0.33333331  0.20553697
   0.00000000  0.00000000  0.24790421
   0.33333331  0.66666666  0.29484266
   0.66666666  0.33333331  0.16832535
   0.33333331  0.66666666  0.22869301
   0.00000000  0.00000000  0.28642649
   0.00000000  0.00000000  0.33626934
   0.66666666  0.33333331  0.38998097
   0.00000000  0.00000000  0.43234821
   0.33333331  0.66666666  0.47928666
   0.66666666  0.33333331  0.35276935
   0.33333331  0.66666666  0.41313701
   0.00000000  0.00000000  0.47087049
   0.00000000  0.00000000  0.52071334
   0.66666666  0.33333331  0.57442497
   0.00000000  0.00000000  0.61679221
   0.33333331  0.66666666  0.66373066
   0.66666666  0.33333331  0.53721335
   0.33333331  0.66666666  0.59758101
   0.00000000  0.00000000  0.65531449
   0.00000000  0.00000000  0.70515734
   0.66666666  0.33333331  0.75886897
   0.00000000  0.00000000  0.80123621
   0.33333331  0.66666666  0.84817466
   0.66666666  0.33333331  0.72165735
   0.33333331  0.66666666  0.78202501
   0.00000000  0.00000000  0.83975849
Direct configuration=           2
   0.00000003  0.99999996  0.15161043
   0.66666669  0.33333330  0.20538214
   0.00000004  0.99999998  0.24785212
   0.33333344  0.66666654  0.29477728
   0.66666667  0.33333331  0.16858860
   0.33333332  0.66666664  0.22882001
   0.99999981  0.00000018  0.28649389
   0.00000000  0.00000000  0.33626934
   0.66666666  0.33333331  0.38998097
   0.00000000  0.00000000  0.43234821
   0.33333331  0.66666666  0.47928666
   0.66666666  0.33333331  0.35276935
   0.33333331  0.66666666  0.41313701
   0.00000000  0.00000000  0.47087049
   0.00000000  0.00000000  0.52071334
   0.66666666  0.33333331  0.57442497
   0.00000000  0.00000000  0.61679221
   0.33333331  0.66666666  0.66373066
   0.66666666  0.33333331  0.53721335
   0.33333331  0.66666666  0.59758101
   0.00000000  0.00000000  0.65531449
   0.00000002  0.99999999  0.70515085
   0.66666672  0.33333328  0.75879694
   0.00000000  0.00000002  0.80117259
   0.33333345  0.66666654  0.84815191
   0.66666668  0.33333330  0.72172160
   0.33333334  0.66666663  0.78206985
   0.99999974  0.00000025  0.83984362
Direct configuration=           3
   0.00000004  0.99999995  0.15157491
   0.66666669  0.33333330  0.20535656
   0.00000005  0.99999998  0.24784352
   0.33333346  0.66666652  0.29476648
   0.66666667  0.33333331  0.16863211
   0.33333332  0.66666664  0.22884100
   0.99999977  0.00000021  0.28650503
   0.00000000  0.00000000  0.33626934
   0.66666666  0.33333331  0.38998097
   0.00000000  0.00000000  0.43234821
   0.33333331  0.66666666  0.47928666
   0.66666666  0.33333331  0.35276935
   0.33333331  0.66666666  0.41313701
   0.00000000  0.00000000  0.47087049
   0.00000000  0.00000000  0.52071334
   0.66666666  0.33333331  0.57442497
   0.00000000  0.00000000  0.61679221
   0.33333331  0.66666666  0.66373066
   0.66666666  0.33333331  0.53721335
   0.33333331  0.66666666  0.59758101
   0.00000000  0.00000000  0.65531449
   0.00000002  0.99999998  0.70514978
   0.66666673  0.33333327  0.75878503
   0.00000000  0.00000003  0.80116208
   0.33333347  0.66666652  0.84814815
   0.66666669  0.33333330  0.72173222
   0.33333334  0.66666663  0.78207726
   0.99999970  0.00000029  0.83985769
Direct configuration=           4
   0.00000007  0.99999992  0.15147098
   0.66666672  0.33333327  0.20541904
   0.00000006  0.99999996  0.24782310
   0.33333349  0.66666650  0.29469340
   0.66666668  0.33333330  0.16860213
   0.33333336  0.66666661  0.22889458
   0.99999966  0.00000033  0.28657679
   0.00000000  0.00000000  0.33626934
   0.66666666  0.33333331  0.38998097
   0.00000000  0.00000000  0.43234821
   0.33333331  0.66666666  0.47928666
   0.66666666  0.33333331  0.35276935
   0.33333331  0.66666666  0.41313701
   0.00000000  0.00000000  0.47087049
   0.00000000  0.00000000  0.52071334
   0.66666666  0.33333331  0.57442497
   0.00000000  0.00000000  0.61679221
   0.33333331  0.66666666  0.66373066
   0.66666666  0.33333331  0.53721335
   0.33333331  0.66666666  0.59758101
   0.00000000  0.00000000  0.65531449
   0.00000006  0.99999994  0.70516550
   0.66666676  0.33333325  0.75878193
   0.00000002  0.00000001  0.80112625
   0.33333348  0.66666652  0.84812928
   0.66666672  0.33333327  0.72173065
   0.33333336  0.66666662  0.78207634
   0.99999955  0.00000044  0.83994221
Direct configuration=           5
   0.00000012  0.99999987  0.15131164
   0.66666675  0.33333323  0.20551485
   0.00000008  0.99999994  0.24779180
   0.33333353  0.66666647  0.29458137
   0.66666669  0.33333330  0.16855618
   0.33333342  0.66666658  0.22897674
   0.99999948  0.00000051  0.28668682
   0.00000000  0.00000000  0.33626934
   0.66666666  0.33333331  0.38998097
   0.00000000  0.00000000  0.43234821
   0.33333331  0.66666666  0.47928666
   0.66666666  0.33333331  0.35276935
   0.33333331  0.66666666  0.41313701
   0.00000000  0.00000000  0.47087049
   0.00000000  0.00000000  0.52071334
   0.66666666  0.33333331  0.57442497
   0.00000000  0.00000000  0.61679221
   0.33333331  0.66666666  0.66373066
   0.66666666  0.33333331  0.53721335
   0.33333331  0.66666666  0.59758101
   0.00000000  0.00000000  0.65531449
   0.00000012  0.99999987  0.70518960
   0.66666682  0.33333321  0.75877717
   0.00000005  0.99999998  0.80107133
   0.33333348  0.66666650  0.84810034
   0.66666677  0.33333323  0.72172825
   0.33333338  0.66666661  0.78207495
   0.99999932  0.00000066  0.84007180
Direct configuration=           6
   0.00000015  0.99999985  0.15128349
   0.66666677  0.33333319  0.20548882
   0.00000010  0.99999992  0.24786114
   0.33333334  0.66666665  0.29453170
   0.66666670  0.33333328  0.16851041
   0.33333347  0.66666655  0.22896253
   0.99999950  0.00000049  0.28672620
   0.00000000  0.00000000  0.33626934
   0.66666666  0.33333331  0.38998097
   0.00000000  0.00000000  0.43234821
   0.33333331  0.66666666  0.47928666
   0.66666666  0.33333331  0.35276935
   0.33333331  0.66666666  0.41313701
   0.00000000  0.00000000  0.47087049
   0.00000000  0.00000000  0.52071334
   0.66666666  0.33333331  0.57442497
   0.00000000  0.00000000  0.61679221
   0.33333331  0.66666666  0.66373066
   0.66666666  0.33333331  0.53721335
   0.33333331  0.66666666  0.59758101
   0.00000000  0.00000000  0.65531449
   0.00000016  0.99999983  0.70519439
   0.66666683  0.33333317  0.75877544
   0.00000007  0.99999996  0.80109319
   0.33333327  0.66666670  0.84810335
   0.66666683  0.33333318  0.72173498
   0.33333341  0.66666660  0.78203792
   0.99999940  0.00000058  0.84012693
Direct configuration=           7
   0.00000017  0.99999984  0.15126044
   0.66666678  0.33333316  0.20546751
   0.00000011  0.99999991  0.24791793
   0.33333319  0.66666680  0.29449102
   0.66666672  0.33333327  0.16847292
   0.33333351  0.66666652  0.22895090
   0.99999952  0.00000048  0.28675846
   0.00000000  0.00000000  0.33626934
   0.66666666  0.33333331  0.38998097
   0.00000000  0.00000000  0.43234821
   0.33333331  0.66666666  0.47928666
   0.66666666  0.33333331  0.35276935
   0.33333331  0.66666666  0.41313701
   0.00000000  0.00000000  0.47087049
   0.00000000  0.00000000  0.52071334
   0.66666666  0.33333331  0.57442497
   0.00000000  0.00000000  0.61679221
   0.33333331  0.66666666  0.66373066
   0.66666666  0.33333331  0.53721335
   0.33333331  0.66666666  0.59758101
   0.00000000  0.00000000  0.65531449
   0.00000020  0.99999979  0.70519832
   0.66666685  0.33333314  0.75877403
   0.00000009  0.99999993  0.80111108
   0.33333310  0.66666687  0.84810582
   0.66666687  0.33333313  0.72174049
   0.33333344  0.66666660  0.78200760
   0.99999946  0.00000052  0.84017209
Direct configuration=           8
   0.00000017  0.99999984  0.15123682
   0.66666683  0.33333311  0.20541350
   0.00000017  0.99999988  0.24792750
   0.33333313  0.66666686  0.29448076
   0.66666676  0.33333324  0.16844931
   0.33333351  0.66666651  0.22896947
   0.99999938  0.00000062  0.28677514
   0.00000000  0.00000000  0.33626934
   0.66666666  0.33333331  0.38998097
   0.00000000  0.00000000  0.43234821
   0.33333331  0.66666666  0.47928666
   0.66666666  0.33333331  0.35276935
   0.33333331  0.66666666  0.41313701
   0.00000000  0.00000000  0.47087049
   0.00000000  0.00000000  0.52071334
   0.66666666  0.33333331  0.57442497
   0.00000000  0.00000000  0.61679221
   0.33333331  0.66666666  0.66373066
   0.66666666  0.33333331  0.53721335
   0.33333331  0.66666666  0.59758101
   0.00000000  0.00000000  0.65531449
   0.00000026  0.99999973  0.70520137
   0.66666687  0.33333311  0.75876605
   0.00000011  0.99999992  0.80110910
   0.33333305  0.66666690  0.84813176
   0.66666691  0.33333309  0.72173436
   0.33333348  0.66666656  0.78202714
   0.99999936  0.00000060  0.84020452
Direct configuration=           9
   0.00000017  0.99999983  0.15122245
   0.66666685  0.33333308  0.20538064
   0.00000020  0.99999986  0.24793333
   0.33333310  0.66666690  0.29447451
   0.66666679  0.33333322  0.16843494
   0.33333352  0.66666650  0.22898077
   0.99999930  0.00000070  0.28678528
   0.00000000  0.00000000  0.33626934
   0.66666666  0.33333331  0.38998097
   0.00000000  0.00000000  0.43234821
   0.33333331  0.66666666  0.47928666
   0.66666666  0.33333331  0.35276935
   0.33333331  0.66666666  0.41313701
   0.00000000  0.00000000  0.47087049
   0.00000000  0.00000000  0.52071334
   0.66666666  0.33333331  0.57442497
   0.00000000  0.00000000  0.61679221
   0.33333331  0.66666666  0.66373066
   0.66666666  0.33333331  0.53721335
   0.33333331  0.66666666  0.59758101
   0.00000000  0.00000000  0.65531449
   0.00000030  0.99999969  0.70520323
   0.66666688  0.33333308  0.75876119
   0.00000012  0.99999990  0.80110789
   0.33333303  0.66666693  0.84814754
   0.66666693  0.33333306  0.72173063
   0.33333350  0.66666653  0.78203904
   0.99999930  0.00000066  0.84022425
Direct configuration=          10
   0.00000021  0.99999980  0.15118541
   0.66666689  0.33333301  0.20536621
   0.00000025  0.99999983  0.24791629
   0.33333297  0.66666704  0.29448016
   0.66666687  0.33333315  0.16838373
   0.33333356  0.66666646  0.22897429
   0.99999911  0.00000089  0.28679801
   0.00000000  0.00000000  0.33626934
   0.66666666  0.33333331  0.38998097
   0.00000000  0.00000000  0.43234821
   0.33333331  0.66666666  0.47928666
   0.66666666  0.33333331  0.35276935
   0.33333331  0.66666666  0.41313701
   0.00000000  0.00000000  0.47087049
   0.00000000  0.00000000  0.52071334
   0.66666666  0.33333331  0.57442497
   0.00000000  0.00000000  0.61679221
   0.33333331  0.66666666  0.66373066
   0.66666666  0.33333331  0.53721335
   0.33333331  0.66666666  0.59758101
   0.00000000  0.00000000  0.65531449
   0.00000038  0.99999961  0.70519925
   0.66666691  0.33333303  0.75876118
   0.00000016  0.99999987  0.80111712
   0.33333298  0.66666697  0.84819318
   0.66666703  0.33333296  0.72172934
   0.33333355  0.66666648  0.78205658
   0.99999914  0.00000081  0.84025900
Direct configuration=          11
   0.00000027  0.99999974  0.15113224
   0.66666695  0.33333292  0.20534551
   0.00000033  0.99999979  0.24789183
   0.33333278  0.66666723  0.29448827
   0.66666699  0.33333305  0.16831020
   0.33333362  0.66666640  0.22896498
   0.99999885  0.00000116  0.28681628
   0.00000000  0.00000000  0.33626934
   0.66666666  0.33333331  0.38998097
   0.00000000  0.00000000  0.43234821
   0.33333331  0.66666666  0.47928666
   0.66666666  0.33333331  0.35276935
   0.33333331  0.66666666  0.41313701
   0.00000000  0.00000000  0.47087049
   0.00000000  0.00000000  0.52071334
   0.66666666  0.33333331  0.57442497
   0.00000000  0.00000000  0.61679221
   0.33333331  0.66666666  0.66373066
   0.66666666  0.33333331  0.53721335
   0.33333331  0.66666666  0.59758101
   0.00000000  0.00000000  0.65531449
   0.00000049  0.99999950  0.70519353
   0.66666696  0.33333295  0.75876117
   0.00000021  0.99999983  0.80113038
   0.33333291  0.66666702  0.84825870
   0.66666718  0.33333282  0.72172747
   0.33333361  0.66666641  0.78208178
   0.99999891  0.00000102  0.84030890
Direct configuration=          12
   0.00000031  0.99999971  0.15110577
   0.66666698  0.33333288  0.20533201
   0.00000034  0.99999978  0.24788370
   0.33333268  0.66666733  0.29449352
   0.66666703  0.33333301  0.16829709
   0.33333365  0.66666637  0.22895049
   0.99999876  0.00000125  0.28681986
   0.00000000  0.00000000  0.33626934
   0.66666666  0.33333331  0.38998097
   0.00000000  0.00000000  0.43234821
   0.33333331  0.66666666  0.47928666
   0.66666666  0.33333331  0.35276935
   0.33333331  0.66666666  0.41313701
   0.00000000  0.00000000  0.47087049
   0.00000000  0.00000000  0.52071334
   0.66666666  0.33333331  0.57442497
   0.00000000  0.00000000  0.61679221
   0.33333331  0.66666666  0.66373066
   0.66666666  0.33333331  0.53721335
   0.33333331  0.66666666  0.59758101
   0.00000000  0.00000000  0.65531449
   0.00000054  0.99999944  0.70519093
   0.66666699  0.33333292  0.75876606
   0.00000024  0.99999981  0.80114231
   0.33333285  0.66666708  0.84828461
   0.66666723  0.33333277  0.72172838
   0.33333363  0.66666638  0.78208475
   0.99999883  0.00000109  0.84032796
Direct configuration=          13
   0.00000043  0.99999960  0.15102636
   0.66666705  0.33333277  0.20529153
   0.00000039  0.99999973  0.24785931
   0.33333238  0.66666764  0.29450925
   0.66666714  0.33333290  0.16825779
   0.33333376  0.66666628  0.22890701
   0.99999850  0.00000152  0.28683060
   0.00000000  0.00000000  0.33626934
   0.66666666  0.33333331  0.38998097
   0.00000000  0.00000000  0.43234821
   0.33333331  0.66666666  0.47928666
   0.66666666  0.33333331  0.35276935
   0.33333331  0.66666666  0.41313701
   0.00000000  0.00000000  0.47087049
   0.00000000  0.00000000  0.52071334
   0.66666666  0.33333331  0.57442497
   0.00000000  0.00000000  0.61679221
   0.33333331  0.66666666  0.66373066
   0.66666666  0.33333331  0.53721335
   0.33333331  0.66666666  0.59758101
   0.00000000  0.00000000  0.65531449
   0.00000070  0.99999928  0.70518313
   0.66666706  0.33333281  0.75878072
   0.00000031  0.99999974  0.80117810
   0.33333266  0.66666725  0.84836235
   0.66666738  0.33333262  0.72173109
   0.33333370  0.66666631  0.78209369
   0.99999859  0.00000131  0.84038513
Direct configuration=          14
   0.00000068  0.99999939  0.15086753
   0.66666720  0.33333254  0.20521057
   0.00000047  0.99999964  0.24781053
   0.33333178  0.66666826  0.29454073
   0.66666738  0.33333268  0.16817917
   0.33333398  0.66666610  0.22882007
   0.99999797  0.00000208  0.28685207
   0.00000000  0.00000000  0.33626934
   0.66666666  0.33333331  0.38998097
   0.00000000  0.00000000  0.43234821
   0.33333331  0.66666666  0.47928666
   0.66666666  0.33333331  0.35276935
   0.33333331  0.66666666  0.41313701
   0.00000000  0.00000000  0.47087049
   0.00000000  0.00000000  0.52071334
   0.66666666  0.33333331  0.57442497
   0.00000000  0.00000000  0.61679221
   0.33333331  0.66666666  0.66373066
   0.66666666  0.33333331  0.53721335
   0.33333331  0.66666666  0.59758101
   0.00000000  0.00000000  0.65531449
   0.00000101  0.99999896  0.70516753
   0.66666721  0.33333260  0.75881006
   0.00000047  0.99999960  0.80124969
   0.33333229  0.66666758  0.84851782
   0.66666768  0.33333232  0.72173652
   0.33333383  0.66666615  0.78211156
   0.99999812  0.00000174  0.84049947
Direct configuration=          15
   0.00000079  0.99999928  0.15084470
   0.66666728  0.33333247  0.20516950
   0.00000052  0.99999959  0.24778837
   0.33333159  0.66666846  0.29454640
   0.66666746  0.33333261  0.16814484
   0.33333402  0.66666605  0.22878978
   0.99999776  0.00000229  0.28684169
   0.00000000  0.00000000  0.33626934
   0.66666666  0.33333331  0.38998097
   0.00000000  0.00000000  0.43234821
   0.33333331  0.66666666  0.47928666
   0.66666666  0.33333331  0.35276935
   0.33333331  0.66666666  0.41313701
   0.00000000  0.00000000  0.47087049
   0.00000000  0.00000000  0.52071334
   0.66666666  0.33333331  0.57442497
   0.00000000  0.00000000  0.61679221
   0.33333331  0.66666666  0.66373066
   0.66666666  0.33333331  0.53721335
   0.33333331  0.66666666  0.59758101
   0.00000000  0.00000000  0.65531449
   0.00000112  0.99999886  0.70517539
   0.66666728  0.33333253  0.75881566
   0.00000050  0.99999954  0.80127028
   0.33333204  0.66666782  0.84855948
   0.66666778  0.33333221  0.72174709
   0.33333389  0.66666610  0.78213336
   0.99999804  0.00000181  0.84053682
Direct configuration=          16
   0.00000114  0.99999893  0.15077619
   0.66666752  0.33333227  0.20504628
   0.00000066  0.99999946  0.24772190
   0.33333102  0.66666903  0.29456342
   0.66666769  0.33333238  0.16804187
   0.33333416  0.66666589  0.22869890
   0.99999715  0.00000292  0.28681053
   0.00000000  0.00000000  0.33626934
   0.66666666  0.33333331  0.38998097
   0.00000000  0.00000000  0.43234821
   0.33333331  0.66666666  0.47928666
   0.66666666  0.33333331  0.35276935
   0.33333331  0.66666666  0.41313701
   0.00000000  0.00000000  0.47087049
   0.00000000  0.00000000  0.52071334
   0.66666666  0.33333331  0.57442497
   0.00000000  0.00000000  0.61679221
   0.33333331  0.66666666  0.66373066
   0.66666666  0.33333331  0.53721335
   0.33333331  0.66666666  0.59758101
   0.00000000  0.00000000  0.65531449
   0.00000144  0.99999853  0.70519897
   0.66666747  0.33333232  0.75883248
   0.00000060  0.99999938  0.80133206
   0.33333127  0.66666855  0.84868444
   0.66666808  0.33333190  0.72177881
   0.33333405  0.66666593  0.78219875
   0.99999780  0.00000202  0.84064885
Direct configuration=          17
   0.00000125  0.99999882  0.15076478
   0.66666762  0.33333220  0.20502374
   0.00000069  0.99999940  0.24767715
   0.33333083  0.66666925  0.29454381
   0.66666787  0.33333220  0.16799677
   0.33333420  0.66666585  0.22866241
   0.99999689  0.00000319  0.28677845
   0.00000000  0.00000000  0.33626934
   0.66666666  0.33333331  0.38998097
   0.00000000  0.00000000  0.43234821
   0.33333331  0.66666666  0.47928666
   0.66666666  0.33333331  0.35276935
   0.33333331  0.66666666  0.41313701
   0.00000000  0.00000000  0.47087049
   0.00000000  0.00000000  0.52071334
   0.66666666  0.33333331  0.57442497
   0.00000000  0.00000000  0.61679221
   0.33333331  0.66666666  0.66373066
   0.66666666  0.33333331  0.53721335
   0.33333331  0.66666666  0.59758101
   0.00000000  0.00000000  0.65531449
   0.00000154  0.99999842  0.70522910
   0.66666756  0.33333225  0.75887559
   0.00000062  0.99999934  0.80135743
   0.33333126  0.66666855  0.84870804
   0.66666821  0.33333176  0.72178880
   0.33333411  0.66666585  0.78222025
   0.99999737  0.00000244  0.84069259
Direct configuration=          18
   0.00000135  0.99999873  0.15075477
   0.66666770  0.33333214  0.20500395
   0.00000071  0.99999935  0.24763787
   0.33333065  0.66666943  0.29452660
   0.66666802  0.33333204  0.16795718
   0.33333423  0.66666582  0.22863039
   0.99999665  0.00000342  0.28675030
   0.00000000  0.00000000  0.33626934
   0.66666666  0.33333331  0.38998097
   0.00000000  0.00000000  0.43234821
   0.33333331  0.66666666  0.47928666
   0.66666666  0.33333331  0.35276935
   0.33333331  0.66666666  0.41313701
   0.00000000  0.00000000  0.47087049
   0.00000000  0.00000000  0.52071334
   0.66666666  0.33333331  0.57442497
   0.00000000  0.00000000  0.61679221
   0.33333331  0.66666666  0.66373066
   0.66666666  0.33333331  0.53721335
   0.33333331  0.66666666  0.59758101
   0.00000000  0.00000000  0.65531449
   0.00000163  0.99999832  0.70525554
   0.66666764  0.33333218  0.75891343
   0.00000065  0.99999929  0.80137970
   0.33333124  0.66666856  0.84872876
   0.66666833  0.33333164  0.72179757
   0.33333416  0.66666577  0.78223912
   0.99999699  0.00000281  0.84073098
Direct configuration=          19
   0.00000141  0.99999867  0.15074651
   0.66666774  0.33333212  0.20499080
   0.00000072  0.99999933  0.24761908
   0.33333056  0.66666953  0.29451389
   0.66666810  0.33333196  0.16794706
   0.33333424  0.66666580  0.22861426
   0.99999654  0.00000354  0.28673421
   0.00000000  0.00000000  0.33626934
   0.66666666  0.33333331  0.38998097
   0.00000000  0.00000000  0.43234821
   0.33333331  0.66666666  0.47928666
   0.66666666  0.33333331  0.35276935
   0.33333331  0.66666666  0.41313701
   0.00000000  0.00000000  0.47087049
   0.00000000  0.00000000  0.52071334
   0.66666666  0.33333331  0.57442497
   0.00000000  0.00000000  0.61679221
   0.33333331  0.66666666  0.66373066
   0.66666666  0.33333331  0.53721335
   0.33333331  0.66666666  0.59758101
   0.00000000  0.00000000  0.65531449
   0.00000168  0.99999827  0.70526762
   0.66666769  0.33333214  0.75892658
   0.00000066  0.99999927  0.80139171
   0.33333119  0.66666860  0.84873696
   0.66666839  0.33333158  0.72181195
   0.33333418  0.66666574  0.78225063
   0.99999683  0.00000295  0.84074816
Direct configuration=          20
   0.00000157  0.99999851  0.15072175
   0.66666787  0.33333204  0.20495138
   0.00000076  0.99999926  0.24756270
   0.33333028  0.66666983  0.29447575
   0.66666833  0.33333172  0.16791672
   0.33333428  0.66666574  0.22856588
   0.99999622  0.00000387  0.28668596
   0.00000000  0.00000000  0.33626934
   0.66666666  0.33333331  0.38998097
   0.00000000  0.00000000  0.43234821
   0.33333331  0.66666666  0.47928666
   0.66666666  0.33333331  0.35276935
   0.33333331  0.66666666  0.41313701
   0.00000000  0.00000000  0.47087049
   0.00000000  0.00000000  0.52071334
   0.66666666  0.33333331  0.57442497
   0.00000000  0.00000000  0.61679221
   0.33333331  0.66666666  0.66373066
   0.66666666  0.33333331  0.53721335
   0.33333331  0.66666666  0.59758101
   0.00000000  0.00000000  0.65531449
   0.00000181  0.99999812  0.70530385
   0.66666781  0.33333204  0.75896606
   0.00000069  0.99999921  0.80142771
   0.33333105  0.66666873  0.84876154
   0.66666855  0.33333141  0.72185508
   0.33333424  0.66666564  0.78228516
   0.99999638  0.00000339  0.84079970
Direct configuration=          21
   0.00000190  0.99999818  0.15067221
   0.66666812  0.33333188  0.20487252
   0.00000082  0.99999913  0.24744993
   0.33332972  0.66667042  0.29439948
   0.66666880  0.33333124  0.16785602
   0.33333436  0.66666563  0.22846911
   0.99999556  0.00000455  0.28658945
   0.00000000  0.00000000  0.33626934
   0.66666666  0.33333331  0.38998097
   0.00000000  0.00000000  0.43234821
   0.33333331  0.66666666  0.47928666
   0.66666666  0.33333331  0.35276935
   0.33333331  0.66666666  0.41313701
   0.00000000  0.00000000  0.47087049
   0.00000000  0.00000000  0.52071334
   0.66666666  0.33333331  0.57442497
   0.00000000  0.00000000  0.61679221
   0.33333331  0.66666666  0.66373066
   0.66666666  0.33333331  0.53721335
   0.33333331  0.66666666  0.59758101
   0.00000000  0.00000000  0.65531449
   0.00000209  0.99999782  0.70537630
   0.66666805  0.33333184  0.75904501
   0.00000076  0.99999909  0.80149972
   0.33333077  0.66666898  0.84881071
   0.66666887  0.33333108  0.72194135
   0.33333437  0.66666543  0.78235423
   0.99999547  0.00000426  0.84090278
Direct configuration=          22
   0.00000256  0.99999751  0.15057314
   0.66666861  0.33333157  0.20471481
   0.00000094  0.99999887  0.24722440
   0.33332859  0.66667160  0.29424694
   0.66666973  0.33333027  0.16773463
   0.33333453  0.66666541  0.22827557
   0.99999424  0.00000590  0.28639644
   0.00000000  0.00000000  0.33626934
   0.66666666  0.33333331  0.38998097
   0.00000000  0.00000000  0.43234821
   0.33333331  0.66666666  0.47928666
   0.66666666  0.33333331  0.35276935
   0.33333331  0.66666666  0.41313701
   0.00000000  0.00000000  0.47087049
   0.00000000  0.00000000  0.52071334
   0.66666666  0.33333331  0.57442497
   0.00000000  0.00000000  0.61679221
   0.33333331  0.66666666  0.66373066
   0.66666666  0.33333331  0.53721335
   0.33333331  0.66666666  0.59758101
   0.00000000  0.00000000  0.65531449
   0.00000265  0.99999721  0.70552122
   0.66666854  0.33333144  0.75920291
   0.00000089  0.99999884  0.80164374
   0.33333020  0.66666949  0.84890904
   0.66666952  0.33333041  0.72211388
   0.33333463  0.66666501  0.78249237
   0.99999365  0.00000600  0.84110894
Direct configuration=          23
   0.00000303  0.99999703  0.15050563
   0.66666870  0.33333150  0.20465674
   0.00000095  0.99999888  0.24719871
   0.33332808  0.66667209  0.29416805
   0.66666980  0.33333021  0.16771265
   0.33333462  0.66666528  0.22821704
   0.99999401  0.00000618  0.28633875
   0.00000000  0.00000000  0.33626934
   0.66666666  0.33333331  0.38998097
   0.00000000  0.00000000  0.43234821
   0.33333331  0.66666666  0.47928666
   0.66666666  0.33333331  0.35276935
   0.33333331  0.66666666  0.41313701
   0.00000000  0.00000000  0.47087049
   0.00000000  0.00000000  0.52071334
   0.66666666  0.33333331  0.57442497
   0.00000000  0.00000000  0.61679221
   0.33333331  0.66666666  0.66373066
   0.66666666  0.33333331  0.53721335
   0.33333331  0.66666666  0.59758101
   0.00000000  0.00000000  0.65531449
   0.00000291  0.99999697  0.70556842
   0.66666864  0.33333131  0.75921503
   0.00000098  0.99999870  0.80168879
   0.33332871  0.66667094  0.84895737
   0.66666964  0.33333024  0.72218809
   0.33333470  0.66666496  0.78257950
   0.99999440  0.00000524  0.84113820
Direct configuration=          24
   0.00000316  0.99999689  0.15048623
   0.66666873  0.33333148  0.20464005
   0.00000095  0.99999889  0.24719133
   0.33332794  0.66667223  0.29414538
   0.66666982  0.33333020  0.16770634
   0.33333465  0.66666525  0.22820022
   0.99999394  0.00000626  0.28632218
   0.00000000  0.00000000  0.33626934
   0.66666666  0.33333331  0.38998097
   0.00000000  0.00000000  0.43234821
   0.33333331  0.66666666  0.47928666
   0.66666666  0.33333331  0.35276935
   0.33333331  0.66666666  0.41313701
   0.00000000  0.00000000  0.47087049
   0.00000000  0.00000000  0.52071334
   0.66666666  0.33333331  0.57442497
   0.00000000  0.00000000  0.61679221
   0.33333331  0.66666666  0.66373066
   0.66666666  0.33333331  0.53721335
   0.33333331  0.66666666  0.59758101
   0.00000000  0.00000000  0.65531449
   0.00000299  0.99999691  0.70558198
   0.66666867  0.33333127  0.75921851
   0.00000100  0.99999866  0.80170174
   0.33332828  0.66667136  0.84897126
   0.66666968  0.33333019  0.72220942
   0.33333472  0.66666494  0.78260454
   0.99999462  0.00000502  0.84114661
Direct configuration=          25
   0.00000360  0.99999644  0.15041600
   0.66666874  0.33333142  0.20461054
   0.00000097  0.99999893  0.24718041
   0.33332756  0.66667260  0.29405646
   0.66666989  0.33333015  0.16764460
   0.33333473  0.66666515  0.22817432
   0.99999373  0.00000650  0.28627610
   0.00000000  0.00000000  0.33626934
   0.66666666  0.33333331  0.38998097
   0.00000000  0.00000000  0.43234821
   0.33333331  0.66666666  0.47928666
   0.66666666  0.33333331  0.35276935
   0.33333331  0.66666666  0.41313701
   0.00000000  0.00000000  0.47087049
   0.00000000  0.00000000  0.52071334
   0.66666666  0.33333331  0.57442497
   0.00000000  0.00000000  0.61679221
   0.33333331  0.66666666  0.66373066
   0.66666666  0.33333331  0.53721335
   0.33333331  0.66666666  0.59758101
   0.00000000  0.00000000  0.65531449
   0.00000320  0.99999671  0.70563683
   0.66666869  0.33333115  0.75927370
   0.00000108  0.99999855  0.80175541
   0.33332720  0.66667240  0.84902486
   0.66666980  0.33333003  0.72223544
   0.33333478  0.66666493  0.78267409
   0.99999510  0.00000452  0.84114878
Direct configuration=          26
   0.00000390  0.99999613  0.15036692
   0.66666875  0.33333138  0.20458992
   0.00000098  0.99999897  0.24717278
   0.33332729  0.66667287  0.29399434
   0.66666994  0.33333012  0.16760146
   0.33333478  0.66666509  0.22815623
   0.99999358  0.00000666  0.28624391
   0.00000000  0.00000000  0.33626934
   0.66666666  0.33333331  0.38998097
   0.00000000  0.00000000  0.43234821
   0.33333331  0.66666666  0.47928666
   0.66666666  0.33333331  0.35276935
   0.33333331  0.66666666  0.41313701
   0.00000000  0.00000000  0.47087049
   0.00000000  0.00000000  0.52071334
   0.66666666  0.33333331  0.57442497
   0.00000000  0.00000000  0.61679221
   0.33333331  0.66666666  0.66373066
   0.66666666  0.33333331  0.53721335
   0.33333331  0.66666666  0.59758101
   0.00000000  0.00000000  0.65531449
   0.00000335  0.99999657  0.70567515
   0.66666871  0.33333107  0.75931226
   0.00000113  0.99999847  0.80179290
   0.33332644  0.66667313  0.84906231
   0.66666989  0.33332992  0.72225362
   0.33333481  0.66666492  0.78272269
   0.99999544  0.00000417  0.84115029
Direct configuration=          27
   0.00000401  0.99999602  0.15034879
   0.66666876  0.33333137  0.20458230
   0.00000098  0.99999898  0.24716996
   0.33332719  0.66667297  0.29397138
   0.66666996  0.33333010  0.16758552
   0.33333481  0.66666506  0.22814954
   0.99999352  0.00000672  0.28623202
   0.00000000  0.00000000  0.33626934
   0.66666666  0.33333331  0.38998097
   0.00000000  0.00000000  0.43234821
   0.33333331  0.66666666  0.47928666
   0.66666666  0.33333331  0.35276935
   0.33333331  0.66666666  0.41313701
   0.00000000  0.00000000  0.47087049
   0.00000000  0.00000000  0.52071334
   0.66666666  0.33333331  0.57442497
   0.00000000  0.00000000  0.61679221
   0.33333331  0.66666666  0.66373066
   0.66666666  0.33333331  0.53721335
   0.33333331  0.66666666  0.59758101
   0.00000000  0.00000000  0.65531449
   0.00000340  0.99999651  0.70568931
   0.66666872  0.33333104  0.75932650
   0.00000115  0.99999844  0.80180676
   0.33332617  0.66667340  0.84907615
   0.66666992  0.33332987  0.72226034
   0.33333483  0.66666492  0.78274065
   0.99999557  0.00000404  0.84115085
Direct configuration=          28
   0.00000392  0.99999613  0.15029895
   0.66666875  0.33333129  0.20454540
   0.00000103  0.99999896  0.24713570
   0.33332726  0.66667295  0.29392151
   0.66667041  0.33332965  0.16753482
   0.33333479  0.66666514  0.22816743
   0.99999314  0.00000707  0.28620244
   0.00000000  0.00000000  0.33626934
   0.66666666  0.33333331  0.38998097
   0.00000000  0.00000000  0.43234821
   0.33333331  0.66666666  0.47928666
   0.66666666  0.33333331  0.35276935
   0.33333331  0.66666666  0.41313701
   0.00000000  0.00000000  0.47087049
   0.00000000  0.00000000  0.52071334
   0.66666666  0.33333331  0.57442497
   0.00000000  0.00000000  0.61679221
   0.33333331  0.66666666  0.66373066
   0.66666666  0.33333331  0.53721335
   0.33333331  0.66666666  0.59758101
   0.00000000  0.00000000  0.65531449
   0.00000340  0.99999644  0.70570545
   0.66666870  0.33333099  0.75939056
   0.00000112  0.99999852  0.80187198
   0.33332764  0.66667192  0.84911221
   0.66667014  0.33332970  0.72230656
   0.33333484  0.66666487  0.78273875
   0.99999381  0.00000575  0.84114987
