beta_100_t02                            
   1.0000000000000000     
     3.8782842923585310    0.0000000000000000    0.0000000000000000
     0.0000000000000000   12.1484331332749314    0.0000000000000000
     0.0000000000000000    0.0000000000000000   32.3152066051120386
   S    In   Zn   S    In   Zn
     8     4     2     8     4     2
Direct
     0.0000000482683550    0.9130300810039051    0.4334156481224330
     0.5000000110553670    0.8676720831597584    0.3283696296617107
     0.4999999242667292    0.6407263346578436    0.4896292766806880
     0.9999999702357700    0.5991830580879483    0.3782450442239311
     0.9999999585166784    0.4194873211649630    0.4650468787599901
     0.4999999795990459    0.3390303745564935    0.3752908118158243
     0.9999999952848141    0.1344865161392461    0.3103242311629100
     0.4999999764506090    0.1970400304513646    0.4120613016962276
     0.5000000554863829    0.8354974394480970    0.4723398008797505
     0.0000000118181610    0.7981673574834474    0.3671545143493286
     0.9999999822691324    0.3566087168209112    0.3082539192766230
     0.4999999639249488    0.5146278312476678    0.4228650374918095
     0.9999999748212733    0.2282692793742736    0.4537282428341615
     0.4999999957266158    0.0626239969355028    0.3313204495455588
     0.0000001844706852    0.8825941270225028    0.6525860804500053
     0.5000000786118672    0.9468905114501300    0.5366099210673460
     0.4999997441750842    0.5940256985165647    0.6965882094556689
     0.9999999792161565    0.6718421308625991    0.5892108985814446
     0.9999999626260561    0.3292404109158115    0.6786564139068013
     0.4999999204978924    0.4157316701972671    0.5708658937911369
     0.0000000025268667    0.1623756867154768    0.5189113344226975
     0.4999999973943113    0.1127874953824933    0.6130382987618361
     0.5000002149259162    0.7375455380344613    0.6471777445393326
     0.0000000913376307    0.8764974856246484    0.5758784607214825
     0.9999998893828064    0.5245261509005155    0.5329089102631361
     0.4999999672029556    0.4360109612054486    0.6509330822513557
     0.9999999976949290    0.1802942719181114    0.6374205627144203
     0.5000000015928520    0.2191876087225421    0.5511693838640268

  0.00000000E+00  0.00000000E+00  0.00000000E+00
  0.00000000E+00  0.00000000E+00  0.00000000E+00
  0.00000000E+00  0.00000000E+00  0.00000000E+00
  0.00000000E+00  0.00000000E+00  0.00000000E+00
  0.00000000E+00  0.00000000E+00  0.00000000E+00
  0.00000000E+00  0.00000000E+00  0.00000000E+00
  0.00000000E+00  0.00000000E+00  0.00000000E+00
  0.00000000E+00  0.00000000E+00  0.00000000E+00
  0.00000000E+00  0.00000000E+00  0.00000000E+00
  0.00000000E+00  0.00000000E+00  0.00000000E+00
  0.00000000E+00  0.00000000E+00  0.00000000E+00
  0.00000000E+00  0.00000000E+00  0.00000000E+00
  0.00000000E+00  0.00000000E+00  0.00000000E+00
  0.00000000E+00  0.00000000E+00  0.00000000E+00
  0.00000000E+00  0.00000000E+00  0.00000000E+00
  0.00000000E+00  0.00000000E+00  0.00000000E+00
  0.00000000E+00  0.00000000E+00  0.00000000E+00
  0.00000000E+00  0.00000000E+00  0.00000000E+00
  0.00000000E+00  0.00000000E+00  0.00000000E+00
  0.00000000E+00  0.00000000E+00  0.00000000E+00
  0.00000000E+00  0.00000000E+00  0.00000000E+00
  0.00000000E+00  0.00000000E+00  0.00000000E+00
  0.00000000E+00  0.00000000E+00  0.00000000E+00
  0.00000000E+00  0.00000000E+00  0.00000000E+00
  0.00000000E+00  0.00000000E+00  0.00000000E+00
  0.00000000E+00  0.00000000E+00  0.00000000E+00
  0.00000000E+00  0.00000000E+00  0.00000000E+00
  0.00000000E+00  0.00000000E+00  0.00000000E+00
