  28  28   0   0
  0.5437620E+02  0.3878284E-09  0.1214843E-08  0.3231521E-08  0.5000000E-15
   1.0000000000000000E-004
  CAR 
 WP2-P01-B1-beta100-relax                
      4.68989872    -17.95474351  301     -1.11750848      1.00000000
    -17.955  0.0000E+00  0.0000E+00
    -17.879  0.0000E+00  0.0000E+00
    -17.804  0.0000E+00  0.0000E+00
    -17.728  0.0000E+00  0.0000E+00
    -17.653  0.0000E+00  0.0000E+00
    -17.577  0.0000E+00  0.0000E+00
    -17.502  0.0000E+00  0.0000E+00
    -17.426  0.0000E+00  0.0000E+00
    -17.351  0.0000E+00  0.0000E+00
    -17.275  0.0000E+00  0.0000E+00
    -17.200  0.2451E-15  0.1850E-16
    -17.124  0.5567E-09  0.4202E-10
    -17.049  0.1584E-04  0.1196E-05
    -16.973  0.7292E-02  0.5516E-03
    -16.898  0.1121E+00  0.9016E-02
    -16.823  0.1831E+00  0.2284E-01
    -16.747  0.1136E+00  0.3141E-01
    -16.672  0.1107E+00  0.3977E-01
    -16.596  0.2057E+00  0.5529E-01
    -16.521  0.3362E+00  0.8067E-01
    -16.445  0.3880E+00  0.1100E+00
    -16.370  0.7574E+00  0.1671E+00
    -16.294  0.8497E+00  0.2313E+00
    -16.219  0.6549E+00  0.2807E+00
    -16.143  0.5172E+00  0.3197E+00
    -16.068  0.7896E+00  0.3793E+00
    -15.992  0.7388E+00  0.4351E+00
    -15.917  0.8299E+00  0.4977E+00
    -15.841  0.9028E+00  0.5659E+00
    -15.766  0.6527E+00  0.6152E+00
    -15.690  0.6999E+00  0.6680E+00
    -15.615  0.5752E+00  0.7114E+00
    -15.539  0.1097E+00  0.7197E+00
    -15.464  0.4053E-02  0.7200E+00
    -15.388  0.6912E-05  0.7200E+00
    -15.313  0.1083E-04  0.7200E+00
    -15.237  0.3021E-02  0.7202E+00
    -15.162  0.2324E-01  0.7220E+00
    -15.086  0.4199E-01  0.7252E+00
    -15.011  0.1971E-01  0.7266E+00
    -14.935  0.1069E-02  0.7267E+00
    -14.860  0.2497E-01  0.7286E+00
    -14.784  0.4100E-01  0.7317E+00
    -14.709  0.5284E-01  0.7357E+00
    -14.634  0.3095E+00  0.7590E+00
    -14.558  0.6028E+00  0.8046E+00
    -14.483  0.4979E+00  0.8421E+00
    -14.407  0.1783E+00  0.8556E+00
    -14.332  0.6525E-01  0.8605E+00
    -14.256  0.6290E-01  0.8653E+00
    -14.181  0.1015E+00  0.8729E+00
    -14.105  0.1542E+00  0.8846E+00
    -14.030  0.7523E-01  0.8902E+00
    -13.954  0.1186E+00  0.8992E+00
    -13.879  0.1774E+00  0.9126E+00
    -13.803  0.1662E+00  0.9251E+00
    -13.728  0.1743E+00  0.9383E+00
    -13.652  0.1360E+00  0.9486E+00
    -13.577  0.1331E+00  0.9586E+00
    -13.501  0.1703E+00  0.9715E+00
    -13.426  0.2180E+00  0.9879E+00
    -13.350  0.2246E+00  0.1005E+01
    -13.275  0.2006E+00  0.1020E+01
    -13.199  0.1579E+00  0.1032E+01
    -13.124  0.1110E+00  0.1040E+01
    -13.048  0.1455E+00  0.1051E+01
    -12.973  0.1358E+00  0.1062E+01
    -12.897  0.8317E-01  0.1068E+01
    -12.822  0.6324E-01  0.1073E+01
    -12.746  0.5542E-01  0.1077E+01
    -12.671  0.1292E+00  0.1087E+01
    -12.596  0.1634E+00  0.1099E+01
    -12.520  0.1493E-01  0.1100E+01
    -12.445  0.6373E-03  0.1100E+01
    -12.369  0.2697E-01  0.1102E+01
    -12.294  0.7063E-01  0.1107E+01
    -12.218  0.6030E-01  0.1112E+01
    -12.143  0.7355E-01  0.1118E+01
    -12.067  0.3205E-01  0.1120E+01
    -11.992  0.8748E-03  0.1120E+01
    -11.916  0.4734E-06  0.1120E+01
    -11.841  0.3327E-11  0.1120E+01
    -11.765  0.0000E+00  0.1120E+01
    -11.690  0.0000E+00  0.1120E+01
    -11.614  0.0000E+00  0.1120E+01
    -11.539  0.0000E+00  0.1120E+01
    -11.463  0.0000E+00  0.1120E+01
    -11.388  0.0000E+00  0.1120E+01
    -11.312  0.0000E+00  0.1120E+01
    -11.237  0.0000E+00  0.1120E+01
    -11.161  0.0000E+00  0.1120E+01
    -11.086  0.0000E+00  0.1120E+01
    -11.010  0.0000E+00  0.1120E+01
    -10.935  0.0000E+00  0.1120E+01
    -10.859  0.0000E+00  0.1120E+01
    -10.784  0.0000E+00  0.1120E+01
    -10.708  0.0000E+00  0.1120E+01
    -10.633  0.0000E+00  0.1120E+01
    -10.557  0.0000E+00  0.1120E+01
    -10.482  0.0000E+00  0.1120E+01
    -10.407  0.0000E+00  0.1120E+01
    -10.331  0.0000E+00  0.1120E+01
    -10.256  0.0000E+00  0.1120E+01
    -10.180  0.0000E+00  0.1120E+01
    -10.105  0.0000E+00  0.1120E+01
    -10.029  0.0000E+00  0.1120E+01
     -9.954  0.0000E+00  0.1120E+01
     -9.878  0.0000E+00  0.1120E+01
     -9.803  0.0000E+00  0.1120E+01
     -9.727  0.0000E+00  0.1120E+01
     -9.652  0.0000E+00  0.1120E+01
     -9.576  0.0000E+00  0.1120E+01
     -9.501  0.0000E+00  0.1120E+01
     -9.425  0.0000E+00  0.1120E+01
     -9.350  0.0000E+00  0.1120E+01
     -9.274  0.0000E+00  0.1120E+01
     -9.199  0.0000E+00  0.1120E+01
     -9.123  0.0000E+00  0.1120E+01
     -9.048  0.0000E+00  0.1120E+01
     -8.972  0.0000E+00  0.1120E+01
     -8.897  0.0000E+00  0.1120E+01
     -8.821  0.0000E+00  0.1120E+01
     -8.746  0.0000E+00  0.1120E+01
     -8.670  0.0000E+00  0.1120E+01
     -8.595  0.0000E+00  0.1120E+01
     -8.519  0.1792E-12  0.1120E+01
     -8.444  0.8001E-07  0.1120E+01
     -8.369  0.4750E-03  0.1120E+01
     -8.293  0.5165E-01  0.1124E+01
     -8.218  0.2179E+00  0.1140E+01
     -8.142  0.1530E+00  0.1152E+01
     -8.067  0.2672E+00  0.1172E+01
     -7.991  0.4722E+00  0.1208E+01
     -7.916  0.6494E+00  0.1257E+01
     -7.840  0.6713E+00  0.1307E+01
     -7.765  0.5648E+00  0.1350E+01
     -7.689  0.5308E+00  0.1390E+01
     -7.614  0.5106E+00  0.1429E+01
     -7.538  0.5791E+00  0.1472E+01
     -7.463  0.7459E+00  0.1529E+01
     -7.387  0.4648E+00  0.1564E+01
     -7.312  0.1666E+00  0.1576E+01
     -7.236  0.1271E+00  0.1586E+01
     -7.161  0.1179E+00  0.1595E+01
     -7.085  0.8386E-01  0.1601E+01
     -7.010  0.6082E-01  0.1606E+01
     -6.934  0.9357E-01  0.1613E+01
     -6.859  0.1654E+00  0.1625E+01
     -6.783  0.9940E-01  0.1633E+01
     -6.708  0.7549E-01  0.1639E+01
     -6.632  0.1641E+00  0.1651E+01
     -6.557  0.6435E-01  0.1656E+01
     -6.481  0.7609E-01  0.1661E+01
     -6.406  0.5697E-01  0.1666E+01
     -6.330  0.7247E-01  0.1671E+01
     -6.255  0.2923E-01  0.1673E+01
     -6.180  0.8511E-01  0.1680E+01
     -6.104  0.1721E+00  0.1693E+01
     -6.029  0.1050E+00  0.1701E+01
     -5.953  0.1016E+00  0.1708E+01
     -5.878  0.6441E-01  0.1713E+01
     -5.802  0.1281E+00  0.1723E+01
     -5.727  0.1713E+00  0.1736E+01
     -5.651  0.1541E+00  0.1748E+01
     -5.576  0.1908E+00  0.1762E+01
     -5.500  0.2013E+00  0.1777E+01
     -5.425  0.2245E+00  0.1794E+01
     -5.349  0.1466E+00  0.1805E+01
     -5.274  0.1323E+00  0.1815E+01
     -5.198  0.1311E+00  0.1825E+01
     -5.123  0.1426E+00  0.1836E+01
     -5.047  0.1509E+00  0.1847E+01
     -4.972  0.1282E+00  0.1857E+01
     -4.896  0.1859E+00  0.1871E+01
     -4.821  0.1620E+00  0.1883E+01
     -4.745  0.1678E+00  0.1896E+01
     -4.670  0.1476E+00  0.1907E+01
     -4.594  0.1973E+00  0.1922E+01
     -4.519  0.2175E+00  0.1938E+01
     -4.443  0.2212E+00  0.1955E+01
     -4.368  0.2073E+00  0.1971E+01
     -4.292  0.1804E+00  0.1984E+01
     -4.217  0.2117E+00  0.2000E+01
     -4.142  0.9692E-01  0.2008E+01
     -4.066  0.1613E+00  0.2020E+01
     -3.991  0.2614E+00  0.2039E+01
     -3.915  0.2387E+00  0.2057E+01
     -3.840  0.1698E+00  0.2070E+01
     -3.764  0.2178E+00  0.2087E+01
     -3.689  0.2164E+00  0.2103E+01
     -3.613  0.2199E+00  0.2120E+01
     -3.538  0.2409E+00  0.2138E+01
     -3.462  0.2518E+00  0.2157E+01
     -3.387  0.3075E+00  0.2180E+01
     -3.311  0.3017E+00  0.2203E+01
     -3.236  0.2637E+00  0.2223E+01
     -3.160  0.2152E+00  0.2239E+01
     -3.085  0.1545E+00  0.2251E+01
     -3.009  0.1950E+00  0.2265E+01
     -2.934  0.1987E+00  0.2280E+01
     -2.858  0.1989E+00  0.2295E+01
     -2.783  0.1903E+00  0.2310E+01
     -2.707  0.2493E+00  0.2329E+01
     -2.632  0.2515E+00  0.2348E+01
     -2.556  0.1725E+00  0.2361E+01
     -2.481  0.1118E+00  0.2369E+01
     -2.405  0.1061E+00  0.2377E+01
     -2.330  0.1821E+00  0.2391E+01
     -2.254  0.1432E+00  0.2402E+01
     -2.179  0.1287E+00  0.2411E+01
     -2.103  0.1396E+00  0.2422E+01
     -2.028  0.1568E+00  0.2434E+01
     -1.953  0.1565E+00  0.2445E+01
     -1.877  0.9082E-01  0.2452E+01
     -1.802  0.2645E-01  0.2454E+01
     -1.726  0.5772E-01  0.2459E+01
     -1.651  0.7036E-01  0.2464E+01
     -1.575  0.7816E-01  0.2470E+01
     -1.500  0.4254E-01  0.2473E+01
     -1.424  0.2919E-01  0.2475E+01
     -1.349  0.5505E-01  0.2479E+01
     -1.273  0.6914E-02  0.2480E+01
     -1.198  0.2382E-04  0.2480E+01
     -1.122  0.1230E-08  0.2480E+01
     -1.047  0.7757E-15  0.2480E+01
     -0.971  0.0000E+00  0.2480E+01
     -0.896  0.1202E-13  0.2480E+01
     -0.820  0.5445E-08  0.2480E+01
     -0.745  0.3049E-04  0.2480E+01
     -0.669  0.2657E-02  0.2480E+01
     -0.594  0.6564E-02  0.2481E+01
     -0.518  0.5574E-02  0.2481E+01
     -0.443  0.1325E-01  0.2482E+01
     -0.367  0.2293E-02  0.2482E+01
     -0.292  0.1401E-01  0.2483E+01
     -0.216  0.3036E-01  0.2486E+01
     -0.141  0.1350E-01  0.2487E+01
     -0.065  0.9798E-02  0.2487E+01
      0.010  0.3616E-01  0.2490E+01
      0.085  0.1183E+00  0.2499E+01
      0.161  0.1053E+00  0.2507E+01
      0.236  0.8258E-01  0.2513E+01
      0.312  0.6404E-01  0.2518E+01
      0.387  0.9849E-01  0.2526E+01
      0.463  0.1196E+00  0.2535E+01
      0.538  0.1009E+00  0.2542E+01
      0.614  0.1522E+00  0.2554E+01
      0.689  0.1599E+00  0.2566E+01
      0.765  0.1565E+00  0.2578E+01
      0.840  0.1055E+00  0.2585E+01
      0.916  0.1137E+00  0.2594E+01
      0.991  0.1132E+00  0.2603E+01
      1.067  0.1588E+00  0.2615E+01
      1.142  0.1262E+00  0.2624E+01
      1.218  0.1189E+00  0.2633E+01
      1.293  0.9019E-01  0.2640E+01
      1.369  0.4793E-01  0.2644E+01
      1.444  0.5535E-01  0.2648E+01
      1.520  0.8116E-01  0.2654E+01
      1.595  0.3568E-01  0.2657E+01
      1.671  0.4353E-01  0.2660E+01
      1.746  0.8772E-01  0.2666E+01
      1.822  0.1243E+00  0.2676E+01
      1.897  0.1495E+00  0.2687E+01
      1.973  0.1059E+00  0.2695E+01
      2.048  0.1324E+00  0.2705E+01
      2.124  0.1472E+00  0.2716E+01
      2.199  0.1243E+00  0.2726E+01
      2.274  0.1467E+00  0.2737E+01
      2.350  0.2103E+00  0.2753E+01
      2.425  0.1387E+00  0.2763E+01
      2.501  0.1156E+00  0.2772E+01
      2.576  0.1150E+00  0.2780E+01
      2.652  0.1141E+00  0.2789E+01
      2.727  0.1015E+00  0.2797E+01
      2.803  0.1553E+00  0.2808E+01
      2.878  0.1721E+00  0.2821E+01
      2.954  0.2019E+00  0.2837E+01
      3.029  0.2228E+00  0.2853E+01
      3.105  0.2089E+00  0.2869E+01
      3.180  0.1717E+00  0.2882E+01
      3.256  0.1862E+00  0.2896E+01
      3.331  0.1622E+00  0.2908E+01
      3.407  0.2053E+00  0.2924E+01
      3.482  0.1366E+00  0.2934E+01
      3.558  0.1521E+00  0.2946E+01
      3.633  0.1040E+00  0.2954E+01
      3.709  0.7848E-01  0.2960E+01
      3.784  0.6089E-02  0.2960E+01
      3.860  0.1197E-04  0.2960E+01
      3.935  0.3561E-09  0.2960E+01
      4.011  0.1329E-15  0.2960E+01
      4.086  0.0000E+00  0.2960E+01
      4.162  0.0000E+00  0.2960E+01
      4.237  0.0000E+00  0.2960E+01
      4.312  0.0000E+00  0.2960E+01
      4.388  0.0000E+00  0.2960E+01
      4.463  0.0000E+00  0.2960E+01
      4.539  0.0000E+00  0.2960E+01
      4.614  0.0000E+00  0.2960E+01
      4.690  0.0000E+00  0.2960E+01
