beta_100_t02
1.0
   3.8782842923585310    0.0000000000000000    0.0000000000000000
   0.0000000000000000   12.1484331332749314    0.0000000000000000
   0.0000000000000000    0.0000000000000000   32.3152066051120386
S In Zn S In Zn
8 4 2 8 4 2
direct
   0.9999999999833906    0.9032135183089794    0.4480323170750622 S
   0.4999999999944634    0.9032135183089794    0.3440969543432477 S
   0.4999999844796964    0.6120051846906873    0.4826774389903755 S
   0.9999999844907694    0.6120051846906873    0.3787420762585610 S
   0.9999999999833906    0.3823027384724118    0.4480323170750622 S
   0.4999999999944634    0.3823027384724118    0.3440969543432477 S
   0.0000000004981564    0.1278165509095928    0.3094518355459955 S
   0.5000000004870833    0.1278165509095928    0.4133871982778101 S
   0.4999999844796964    0.8137554374257200    0.4826774389903755 In
   0.9999999844907694    0.8137554374257200    0.3787420762585610 In
   0.0000000004981564    0.4864600982214058    0.3094518355459955 In
   0.5000000004870833    0.4864600982214058    0.4133871982778101 In
   0.9999999999833906    0.1734465139712017    0.4480323170750622 Zn
   0.4999999999944634    0.1734465139712017    0.3440969543432477 Zn
   0.9999999999612446    0.9032135183089794    0.6559030425386912 S
   0.4999999999723175    0.9032135183089794    0.5519676798068767 S
   0.4999999844575503    0.6120051846906873    0.6905481644540046 S
   0.9999999844686234    0.6120051846906873    0.5866128017221900 S
   0.9999999999612446    0.3823027384724118    0.6559030425386912 S
   0.4999999999723175    0.3823027384724118    0.5519676798068767 S
   0.0000000004760102    0.1278165509095928    0.5173225610096245 S
   0.5000000004649373    0.1278165509095928    0.6212579237414391 S
   0.4999999844575503    0.8137554374257200    0.6905481644540046 In
   0.9999999844686234    0.8137554374257200    0.5866128017221900 In
   0.0000000004760102    0.4864600982214058    0.5173225610096245 In
   0.5000000004649373    0.4864600982214058    0.6212579237414391 In
   0.9999999999612446    0.1734465139712017    0.6559030425386912 Zn
   0.4999999999723175    0.1734465139712017    0.5519676798068767 Zn
