    7    7    1    1
  0.2260644E+02  0.3878284E-09  0.3878284E-09  0.1214843E-08  0.5000000E-15
  1.000000000000000E-004
  CAR 
 ZnIn2S4 DOS/PDOS                        
     62    202     40
 
  0.0000000E+00  0.0000000E+00  0.0000000E+00  0.5144033E-03
    1      -10.922985   1.000000
    2      -10.714470   1.000000
    3      -10.714469   1.000000
    4      -10.541870   1.000000
    5      -10.541869   1.000000
    6      -10.235334   1.000000
    7      -10.235332   1.000000
    8      -10.214702   1.000000
    9      -10.082285   1.000000
   10      -10.082285   1.000000
   11       -9.664166   1.000000
   12       -9.083466   1.000000
   13       -8.159257   1.000000
   14       -7.375594   1.000000
   15       -2.001507   1.000000
   16       -1.542990   1.000000
   17       -1.542986   1.000000
   18       -1.336539   1.000000
   19       -1.097067   1.000000
   20       -1.097065   1.000000
   21        0.495968   1.000000
   22        1.410909   1.000000
   23        2.162728   1.000000
   24        2.162756   1.000000
   25        2.746494   1.000000
   26        2.746498   1.000000
   27        3.040266   1.000000
   28        3.040278   1.000000
   29        3.998110   1.000000
   30        4.531896   1.000000
   31        4.531905   1.000000
   32        4.836403   0.000000
   33        6.392177   0.000000
   34        7.254675   0.000000
   35        7.944731   0.000000
   36        9.052342   0.000000
   37        9.096433   0.000000
   38        9.096459   0.000000
   39        9.661756   0.000000
   40        9.661762   0.000000
 
  0.5555556E-01  0.6938894E-17  0.0000000E+00  0.3086420E-02
    1      -10.925796   1.000000
    2      -10.724829   1.000000
    3      -10.711616   1.000000
    4      -10.544805   1.000000
    5      -10.541633   1.000000
    6      -10.255385   1.000000
    7      -10.232836   1.000000
    8      -10.203053   1.000000
    9      -10.085152   1.000000
   10      -10.081851   1.000000
   11       -9.626133   1.000000
   12       -9.058987   1.000000
   13       -8.129621   1.000000
   14       -7.358394   1.000000
   15       -1.987875   1.000000
   16       -1.542796   1.000000
   17       -1.536430   1.000000
   18       -1.332977   1.000000
   19       -1.100707   1.000000
   20       -1.097162   1.000000
   21        0.465624   1.000000
   22        1.411156   1.000000
   23        1.996811   1.000000
   24        2.121676   1.000000
   25        2.557690   1.000000
   26        2.666985   1.000000
   27        2.954301   1.000000
   28        3.072714   1.000000
   29        4.019102   1.000000
   30        4.279868   1.000000
   31        4.488401   1.000000
   32        5.078678   0.000000
   33        6.487787   0.000000
   34        7.411381   0.000000
   35        8.070999   0.000000
   36        8.838571   0.000000
   37        9.149714   0.000000
   38        9.206996   0.000000
   39        9.625051   0.000000
   40        9.736781   0.000000
 
  0.1111111E+00  0.1387779E-16  0.0000000E+00  0.3086420E-02
    1      -10.936697   1.000000
    2      -10.749178   1.000000
    3      -10.703589   1.000000
    4      -10.551722   1.000000
    5      -10.540775   1.000000
    6      -10.299532   1.000000
    7      -10.225956   1.000000
    8      -10.183106   1.000000
    9      -10.091644   1.000000
   10      -10.080300   1.000000
   11       -9.519313   1.000000
   12       -8.986007   1.000000
   13       -8.045886   1.000000
   14       -7.308590   1.000000
   15       -1.951387   1.000000
   16       -1.540932   1.000000
   17       -1.517463   1.000000
   18       -1.322746   1.000000
   19       -1.111125   1.000000
   20       -1.097278   1.000000
   21        0.354951   1.000000
   22        1.364304   1.000000
   23        1.642119   1.000000
   24        2.006996   1.000000
   25        2.155797   1.000000
   26        2.493683   1.000000
   27        2.700160   1.000000
   28        3.112732   1.000000
   29        3.765283   1.000000
   30        4.123943   1.000000
   31        4.367335   1.000000
   32        5.452557   0.000000
   33        6.690141   0.000000
   34        7.755880   0.000000
   35        8.279931   0.000000
   36        8.656931   0.000000
   37        9.234465   0.000000
   38        9.292168   0.000000
   39        9.668919   0.000000
   40        9.950590   0.000000
 
  0.1666667E+00  0.0000000E+00  0.0000000E+00  0.3086420E-02
    1      -10.960722   1.000000
    2      -10.773045   1.000000
    3      -10.691833   1.000000
    4      -10.559959   1.000000
    5      -10.538842   1.000000
    6      -10.358439   1.000000
    7      -10.216339   1.000000
    8      -10.160379   1.000000
    9      -10.098286   1.000000
   10      -10.076912   1.000000
   11       -9.358689   1.000000
   12       -8.866902   1.000000
   13       -7.921410   1.000000
   14       -7.231573   1.000000
   15       -1.906481   1.000000
   16       -1.533817   1.000000
   17       -1.488151   1.000000
   18       -1.307646   1.000000
   19       -1.127131   1.000000
   20       -1.096894   1.000000
   21        0.116073   1.000000
   22        1.028777   1.000000
   23        1.429185   1.000000
   24        1.795974   1.000000
   25        1.840606   1.000000
   26        2.285713   1.000000
   27        2.355105   1.000000
   28        3.122246   1.000000
   29        3.285776   1.000000
   30        4.117977   1.000000
   31        4.192910   1.000000
   32        5.795212   0.000000
   33        6.782651   0.000000
   34        7.888792   0.000000
   35        8.415717   0.000000
   36        8.745944   0.000000
   37        9.407184   0.000000
   38        9.476268   0.000000
   39        9.894913   0.000000
   40       10.269317   0.000000
 
  0.2222222E+00  0.0000000E+00  0.0000000E+00  0.3086420E-02
    1      -10.997877   1.000000
    2      -10.788080   1.000000
    3      -10.678503   1.000000
    4      -10.568370   1.000000
    5      -10.535223   1.000000
    6      -10.421846   1.000000
    7      -10.206286   1.000000
    8      -10.140980   1.000000
    9      -10.100820   1.000000
   10      -10.070837   1.000000
   11       -9.158840   1.000000
   12       -8.708296   1.000000
   13       -7.773856   1.000000
   14       -7.136241   1.000000
   15       -1.880292   1.000000
   16       -1.517198   1.000000
   17       -1.451976   1.000000
   18       -1.293253   1.000000
   19       -1.147653   1.000000
   20       -1.095206   1.000000
   21       -0.263462   1.000000
   22        0.597775   1.000000
   23        1.136842   1.000000
   24        1.649671   1.000000
   25        1.651592   1.000000
   26        2.008400   1.000000
   27        2.071177   1.000000
   28        2.880857   1.000000
   29        3.100451   1.000000
   30        3.995215   1.000000
   31        4.076743   1.000000
   32        6.017749   0.000000
   33        6.642137   0.000000
   34        7.732690   0.000000
   35        8.523164   0.000000
   36        9.017507   0.000000
   37        9.639803   0.000000
   38        9.722633   0.000000
   39       10.162266   0.000000
   40       10.640508   0.000000
 
  0.2777778E+00 -0.2775558E-16  0.0000000E+00  0.3086420E-02
    1      -11.040450   1.000000
    2      -10.796979   1.000000
    3      -10.665968   1.000000
    4      -10.576690   1.000000
    5      -10.529539   1.000000
    6      -10.479583   1.000000
    7      -10.197930   1.000000
    8      -10.134127   1.000000
    9      -10.092216   1.000000
   10      -10.061830   1.000000
   11       -8.933805   1.000000
   12       -8.523294   1.000000
   13       -7.622693   1.000000
   14       -7.034351   1.000000
   15       -1.911805   1.000000
   16       -1.490737   1.000000
   17       -1.413635   1.000000
   18       -1.298586   1.000000
   19       -1.169560   1.000000
   20       -1.091337   1.000000
   21       -0.693660   1.000000
   22        0.247075   1.000000
   23        0.812045   1.000000
   24        1.380500   1.000000
   25        1.459847   1.000000
   26        1.842271   1.000000
   27        1.869857   1.000000
   28        2.637023   1.000000
   29        3.055507   1.000000
   30        3.803086   1.000000
   31        4.014091   1.000000
   32        6.058674   0.000000
   33        6.431025   0.000000
   34        7.481548   0.000000
   35        8.630702   0.000000
   36        9.103218   0.000000
   37        9.737309   0.000000
   38        9.856266   0.000000
   39       10.449759   0.000000
   40       10.911406   0.000000
 
  0.3333333E+00  0.0000000E+00  0.0000000E+00  0.3086420E-02
    1      -11.080057   1.000000
    2      -10.804989   1.000000
    3      -10.656030   1.000000
    4      -10.585269   1.000000
    5      -10.523728   1.000000
    6      -10.522189   1.000000
    7      -10.192295   1.000000
    8      -10.136816   1.000000
    9      -10.076884   1.000000
   10      -10.050959   1.000000
   11       -8.700605   1.000000
   12       -8.333089   1.000000
   13       -7.488035   1.000000
   14       -6.938843   1.000000
   15       -2.032648   1.000000
   16       -1.478954   1.000000
   17       -1.378516   1.000000
   18       -1.378440   1.000000
   19       -1.184763   1.000000
   20       -1.084872   1.000000
   21       -0.999861   1.000000
   22        0.018923   1.000000
   23        0.539015   1.000000
   24        0.973399   1.000000
   25        1.291964   1.000000
   26        1.697353   1.000000
   27        1.796965   1.000000
   28        2.537023   1.000000
   29        2.997741   1.000000
   30        3.639746   1.000000
   31        3.958127   1.000000
   32        5.907701   0.000000
   33        6.313963   0.000000
   34        7.225497   0.000000
   35        8.702453   0.000000
   36        9.014823   0.000000
   37        9.749823   0.000000
   38        9.766220   0.000000
   39       10.687105   0.000000
   40       10.907811   0.000000
 
  0.3888889E+00  0.0000000E+00  0.0000000E+00  0.3086420E-02
    1      -11.111262   1.000000
    2      -10.813846   1.000000
    3      -10.649355   1.000000
    4      -10.594724   1.000000
    5      -10.550303   1.000000
    6      -10.514640   1.000000
    7      -10.189161   1.000000
    8      -10.141116   1.000000
    9      -10.063398   1.000000
   10      -10.040494   1.000000
   11       -8.483699   1.000000
   12       -8.166908   1.000000
   13       -7.387774   1.000000
   14       -6.861348   1.000000
   15       -2.218575   1.000000
   16       -1.659308   1.000000
   17       -1.402312   1.000000
   18       -1.351029   1.000000
   19       -1.210327   1.000000
   20       -1.076722   1.000000
   21       -1.036500   1.000000
   22       -0.137337   1.000000
   23        0.339607   1.000000
   24        0.647567   1.000000
   25        1.161543   1.000000
   26        1.565643   1.000000
   27        1.733598   1.000000
   28        2.514994   1.000000
   29        2.939644   1.000000
   30        3.519836   1.000000
   31        3.930707   1.000000
   32        5.713435   0.000000
   33        6.247563   0.000000
   34        7.008801   0.000000
   35        8.743567   0.000000
   36        8.903864   0.000000
   37        9.585200   0.000000
   38        9.755276   0.000000
   39       10.728415   0.000000
   40       10.813063   0.000000
 
  0.4444444E+00  0.0000000E+00  0.0000000E+00  0.3086420E-02
    1      -11.130999   1.000000
    2      -10.821425   1.000000
    3      -10.645695   1.000000
    4      -10.603003   1.000000
    5      -10.562016   1.000000
    6      -10.508957   1.000000
    7      -10.187738   1.000000
    8      -10.144286   1.000000
    9      -10.054696   1.000000
   10      -10.032975   1.000000
   11       -8.319341   1.000000
   12       -8.056326   1.000000
   13       -7.330757   1.000000
   14       -6.810637   1.000000
   15       -2.383953   1.000000
   16       -1.847946   1.000000
   17       -1.387210   1.000000
   18       -1.334119   1.000000
   19       -1.230188   1.000000
   20       -1.069575   1.000000
   21       -0.957135   1.000000
   22       -0.278859   1.000000
   23        0.151772   1.000000
   24        0.544488   1.000000
   25        1.079169   1.000000
   26        1.483231   1.000000
   27        1.655988   1.000000
   28        2.520089   1.000000
   29        2.895973   1.000000
   30        3.448472   1.000000
   31        3.929774   1.000000
   32        5.575255   0.000000
   33        6.201116   0.000000
   34        6.862811   0.000000
   35        8.734400   0.000000
   36        8.878089   0.000000
   37        9.437021   0.000000
   38        9.735657   0.000000
   39       10.665550   0.000000
   40       10.724490   0.000000
 
  0.5000000E+00 -0.8326673E-16  0.0000000E+00  0.1543210E-02
    1      -11.137738   1.000000
    2      -10.824445   1.000000
    3      -10.644548   1.000000
    4      -10.606230   1.000000
    5      -10.565081   1.000000
    6      -10.506842   1.000000
    7      -10.187346   1.000000
    8      -10.145427   1.000000
    9      -10.051721   1.000000
   10      -10.030243   1.000000
   11       -8.255156   1.000000
   12       -8.019285   1.000000
   13       -7.313350   1.000000
   14       -6.792901   1.000000
   15       -2.448953   1.000000
   16       -1.916436   1.000000
   17       -1.381800   1.000000
   18       -1.328477   1.000000
   19       -1.236567   1.000000
   20       -1.066696   1.000000
   21       -0.901425   1.000000
   22       -0.352219   1.000000
   23        0.065150   1.000000
   24        0.544271   1.000000
   25        1.051030   1.000000
   26        1.455198   1.000000
   27        1.618285   1.000000
   28        2.524727   1.000000
   29        2.879690   1.000000
   30        3.425015   1.000000
   31        3.933750   1.000000
   32        5.525969   0.000000
   33        6.183773   0.000000
   34        6.811167   0.000000
   35        8.713491   0.000000
   36        8.898011   0.000000
   37        9.370544   0.000000
   38        9.726991   0.000000
   39       10.623323   0.000000
   40       10.699434   0.000000
 
  0.5555556E-01  0.5555556E-01  0.0000000E+00  0.3086420E-02
    1      -10.932657   1.000000
    2      -10.742065   1.000000
    3      -10.706236   1.000000
    4      -10.549573   1.000000
    5      -10.541175   1.000000
    6      -10.284586   1.000000
    7      -10.230633   1.000000
    8      -10.187757   1.000000
    9      -10.089726   1.000000
   10      -10.080916   1.000000
   11       -9.553804   1.000000
   12       -9.010183   1.000000
   13       -8.072995   1.000000
   14       -7.324889   1.000000
   15       -1.962769   1.000000
   16       -1.541770   1.000000
   17       -1.523656   1.000000
   18       -1.326077   1.000000
   19       -1.107663   1.000000
   20       -1.097336   1.000000
   21        0.395490   1.000000
   22        1.393466   1.000000
   23        1.741940   1.000000
   24        2.031315   1.000000
   25        2.325267   1.000000
   26        2.431674   1.000000
   27        2.911395   1.000000
   28        3.033801   1.000000
   29        3.890898   1.000000
   30        4.127155   1.000000
   31        4.397222   1.000000
   32        5.354176   0.000000
   33        6.639026   0.000000
   34        7.672658   0.000000
   35        8.233356   0.000000
   36        8.694541   0.000000
   37        9.131785   0.000000
   38        9.332069   0.000000
   39        9.611648   0.000000
   40        9.897308   0.000000
 
  0.1111111E+00  0.5555556E-01  0.0000000E+00  0.6172840E-02
    1      -10.950315   1.000000
    2      -10.765429   1.000000
    3      -10.696508   1.000000
    4      -10.556688   1.000000
    5      -10.540004   1.000000
    6      -10.333390   1.000000
    7      -10.226355   1.000000
    8      -10.165468   1.000000
    9      -10.096193   1.000000
   10      -10.078474   1.000000
   11       -9.420421   1.000000
   12       -8.913685   1.000000
   13       -7.969232   1.000000
   14       -7.261461   1.000000
   15       -1.921710   1.000000
   16       -1.537204   1.000000
   17       -1.499463   1.000000
   18       -1.313350   1.000000
   19       -1.120640   1.000000
   20       -1.097351   1.000000
   21        0.222139   1.000000
   22        1.194439   1.000000
   23        1.494703   1.000000
   24        1.861225   1.000000
   25        1.962917   1.000000
   26        2.165413   1.000000
   27        2.711672   1.000000
   28        3.022214   1.000000
   29        3.481005   1.000000
   30        4.119955   1.000000
   31        4.236077   1.000000
   32        5.697224   0.000000
   33        6.798032   0.000000
   34        7.963258   0.000000
   35        8.336823   0.000000
   36        8.703992   0.000000
   37        9.151773   0.000000
   38        9.526077   0.000000
   39        9.714610   0.000000
   40       10.210536   0.000000
 
  0.1666667E+00  0.5555556E-01  0.0000000E+00  0.6172840E-02
    1      -10.981523   1.000000
    2      -10.783195   1.000000
    3      -10.684256   1.000000
    4      -10.564446   1.000000
    5      -10.537545   1.000000
    6      -10.392682   1.000000
    7      -10.219301   1.000000
    8      -10.143609   1.000000
    9      -10.101480   1.000000
   10      -10.073504   1.000000
   11       -9.240311   1.000000
   12       -8.773726   1.000000
   13       -7.833980   1.000000
   14       -7.175234   1.000000
   15       -1.884970   1.000000
   16       -1.524887   1.000000
   17       -1.466638   1.000000
   18       -1.298139   1.000000
   19       -1.138533   1.000000
   20       -1.096434   1.000000
   21       -0.088223   1.000000
   22        0.786602   1.000000
   23        1.267782   1.000000
   24        1.654585   1.000000
   25        1.729908   1.000000
   26        1.924839   1.000000
   27        2.406466   1.000000
   28        2.963315   1.000000
   29        3.115842   1.000000
   30        4.007195   1.000000
   31        4.120145   1.000000
   32        5.979479   0.000000
   33        6.772836   0.000000
   34        7.904276   0.000000
   35        8.535506   0.000000
   36        8.875316   0.000000
   37        9.353386   0.000000
   38        9.751259   0.000000
   39        9.945934   0.000000
   40       10.573823   0.000000
 
  0.2222222E+00  0.5555556E-01  0.0000000E+00  0.6172840E-02
    1      -11.021757   1.000000
    2      -10.793417   1.000000
    3      -10.671764   1.000000
    4      -10.572218   1.000000
    5      -10.533283   1.000000
    6      -10.451900   1.000000
    7      -10.211638   1.000000
    8      -10.130945   1.000000
    9      -10.099318   1.000000
   10      -10.065387   1.000000
   11       -9.027232   1.000000
   12       -8.600087   1.000000
   13       -7.685749   1.000000
   14       -7.076570   1.000000
   15       -1.885408   1.000000
   16       -1.501809   1.000000
   17       -1.429379   1.000000
   18       -1.290705   1.000000
   19       -1.159953   1.000000
   20       -1.093558   1.000000
   21       -0.498130   1.000000
   22        0.404699   1.000000
   23        0.941441   1.000000
   24        1.425443   1.000000
   25        1.551687   1.000000
   26        1.760830   1.000000
   27        2.115747   1.000000
   28        2.719734   1.000000
   29        3.024568   1.000000
   30        3.802282   1.000000
   31        4.060983   1.000000
   32        6.122014   0.000000
   33        6.583271   0.000000
   34        7.690900   0.000000
   35        8.654986   0.000000
   36        9.138078   0.000000
   37        9.532042   0.000000
   38        9.898978   0.000000
   39       10.234071   0.000000
   40       10.694959   0.000000
 
  0.2777778E+00  0.5555556E-01  0.0000000E+00  0.6172840E-02
    1      -11.062636   1.000000
    2      -10.800676   1.000000
    3      -10.661070   1.000000
    4      -10.579963   1.000000
    5      -10.527423   1.000000
    6      -10.501707   1.000000
    7      -10.205378   1.000000
    8      -10.131529   1.000000
    9      -10.086403   1.000000
   10      -10.055016   1.000000
   11       -8.796200   1.000000
   12       -8.409926   1.000000
   13       -7.544338   1.000000
   14       -6.977890   1.000000
   15       -1.960638   1.000000
   16       -1.474158   1.000000
   17       -1.393620   1.000000
   18       -1.325209   1.000000
   19       -1.178011   1.000000
   20       -1.087906   1.000000
   21       -0.882690   1.000000
   22        0.125295   1.000000
   23        0.648058   1.000000
   24        1.098887   1.000000
   25        1.329572   1.000000
   26        1.652815   1.000000
   27        1.932295   1.000000
   28        2.564060   1.000000
   29        2.975462   1.000000
   30        3.613966   1.000000
   31        3.998376   1.000000
   32        6.069812   0.000000
   33        6.421214   0.000000
   34        7.436139   0.000000
   35        8.748503   0.000000
   36        9.174239   0.000000
   37        9.589337   0.000000
   38        9.883837   0.000000
   39       10.586980   0.000000
   40       10.798737   0.000000
 
  0.3333333E+00  0.5555556E-01  0.0000000E+00  0.6172840E-02
    1      -11.097597   1.000000
    2      -10.808418   1.000000
    3      -10.653311   1.000000
    4      -10.588268   1.000000
    5      -10.537961   1.000000
    6      -10.518867   1.000000
    7      -10.201314   1.000000
    8      -10.136130   1.000000
    9      -10.071676   1.000000
   10      -10.044857   1.000000
   11       -8.567430   1.000000
   12       -8.228713   1.000000
   13       -7.429135   1.000000
   14       -6.891530   1.000000
   15       -2.118690   1.000000
   16       -1.545116   1.000000
   17       -1.403317   1.000000
   18       -1.359822   1.000000
   19       -1.195564   1.000000
   20       -1.084184   1.000000
   21       -1.041704   1.000000
   22       -0.053758   1.000000
   23        0.429340   1.000000
   24        0.743304   1.000000
   25        1.159746   1.000000
   26        1.517871   1.000000
   27        1.832478   1.000000
   28        2.499673   1.000000
   29        2.930971   1.000000
   30        3.465350   1.000000
   31        3.953661   1.000000
   32        5.887781   0.000000
   33        6.344339   0.000000
   34        7.200527   0.000000
   35        8.807500   0.000000
   36        9.075085   0.000000
   37        9.567623   0.000000
   38        9.776727   0.000000
   39       10.777657   0.000000
   40       10.837859   0.000000
 
  0.3888889E+00  0.5555556E-01  0.0000000E+00  0.6172840E-02
    1      -11.122672   1.000000
    2      -10.816313   1.000000
    3      -10.648560   1.000000
    4      -10.596975   1.000000
    5      -10.555981   1.000000
    6      -10.512853   1.000000
    7      -10.199155   1.000000
    8      -10.140263   1.000000
    9      -10.059745   1.000000
   10      -10.037303   1.000000
   11       -8.370646   1.000000
   12       -8.088128   1.000000
   13       -7.353948   1.000000
   14       -6.827503   1.000000
   15       -2.300980   1.000000
   16       -1.762084   1.000000
   17       -1.389209   1.000000
   18       -1.339655   1.000000
   19       -1.220210   1.000000
   20       -1.077794   1.000000
   21       -0.995327   1.000000
   22       -0.200318   1.000000
   23        0.240479   1.000000
   24        0.545229   1.000000
   25        1.040055   1.000000
   26        1.415308   1.000000
   27        1.741283   1.000000
   28        2.473055   1.000000
   29        2.900693   1.000000
   30        3.365692   1.000000
   31        3.938130   1.000000
   32        5.721776   0.000000
   33        6.291010   0.000000
   34        7.020139   0.000000
   35        8.852205   0.000000
   36        8.981855   0.000000
   37        9.489812   0.000000
   38        9.671723   0.000000
   39       10.734650   0.000000
   40       10.813847   0.000000
 
  0.4444444E+00  0.5555556E-01  0.0000000E+00  0.6172840E-02
    1      -11.135693   1.000000
    2      -10.821499   1.000000
    3      -10.646367   1.000000
    4      -10.602794   1.000000
    5      -10.562792   1.000000
    6      -10.509113   1.000000
    7      -10.198281   1.000000
    8      -10.142580   1.000000
    9      -10.052968   1.000000
   10      -10.033493   1.000000
   11       -8.249174   1.000000
   12       -8.014980   1.000000
   13       -7.320022   1.000000
   14       -6.793198   1.000000
   15       -2.419908   1.000000
   16       -1.893945   1.000000
   17       -1.378658   1.000000
   18       -1.329196   1.000000
   19       -1.232673   1.000000
   20       -1.071141   1.000000
   21       -0.911425   1.000000
   22       -0.320662   1.000000
   23        0.086986   1.000000
   24        0.521607   1.000000
   25        0.977456   1.000000
   26        1.367508   1.000000
   27        1.670187   1.000000
   28        2.460536   1.000000
   29        2.887617   1.000000
   30        3.316386   1.000000
   31        3.939727   1.000000
   32        5.629084   0.000000
   33        6.259106   0.000000
   34        6.922139   0.000000
   35        8.854772   0.000000
   36        8.976377   0.000000
   37        9.392866   0.000000
   38        9.623973   0.000000
   39       10.664142   0.000000
   40       10.789124   0.000000
 
  0.1111111E+00  0.1111111E+00  0.0000000E+00  0.3086420E-02
    1      -10.975692   1.000000
    2      -10.781155   1.000000
    3      -10.686581   1.000000
    4      -10.562645   1.000000
    5      -10.538705   1.000000
    6      -10.378732   1.000000
    7      -10.229953   1.000000
    8      -10.142789   1.000000
    9      -10.101683   1.000000
   10      -10.074357   1.000000
   11       -9.267836   1.000000
   12       -8.795396   1.000000
   13       -7.855353   1.000000
   14       -7.188777   1.000000
   15       -1.887910   1.000000
   16       -1.527163   1.000000
   17       -1.471664   1.000000
   18       -1.300262   1.000000
   19       -1.135080   1.000000
   20       -1.097047   1.000000
   21       -0.022115   1.000000
   22        0.876227   1.000000
   23        1.309904   1.000000
   24        1.653008   1.000000
   25        1.775638   1.000000
   26        1.825666   1.000000
   27        2.694198   1.000000
   28        2.798400   1.000000
   29        3.184752   1.000000
   30        3.974948   1.000000
   31        4.140315   1.000000
   32        5.975911   0.000000
   33        6.847814   0.000000
   34        8.057885   0.000000
   35        8.559629   0.000000
   36        8.755074   0.000000
   37        9.183859   0.000000
   38        9.751504   0.000000
   39        9.856339   0.000000
   40       10.613071   0.000000
 
  0.1666667E+00  0.1111111E+00  0.0000000E+00  0.6172840E-02
    1      -11.010807   1.000000
    2      -10.791325   1.000000
    3      -10.675769   1.000000
    4      -10.568740   1.000000
    5      -10.536294   1.000000
    6      -10.429530   1.000000
    7      -10.231144   1.000000
    8      -10.124876   1.000000
    9      -10.105332   1.000000
   10      -10.066758   1.000000
   11       -9.074094   1.000000
   12       -8.638056   1.000000
   13       -7.720922   1.000000
   14       -7.099133   1.000000
   15       -1.875002   1.000000
   16       -1.506939   1.000000
   17       -1.437596   1.000000
   18       -1.290010   1.000000
   19       -1.153445   1.000000
   20       -1.095044   1.000000
   21       -0.366952   1.000000
   22        0.537001   1.000000
   23        0.999608   1.000000
   24        1.403965   1.000000
   25        1.509324   1.000000
   26        1.731310   1.000000
   27        2.402076   1.000000
   28        2.692791   1.000000
   29        2.982312   1.000000
   30        3.717932   1.000000
   31        4.100796   1.000000
   32        6.187547   0.000000
   33        6.760120   0.000000
   34        7.969793   0.000000
   35        8.780080   0.000000
   36        8.944341   0.000000
   37        9.349549   0.000000
   38        9.873437   0.000000
   39       10.111771   0.000000
   40       10.667116   0.000000
 
  0.2222222E+00  0.1111111E+00  0.0000000E+00  0.6172840E-02
    1      -11.049307   1.000000
    2      -10.797529   1.000000
    3      -10.666007   1.000000
    4      -10.574685   1.000000
    5      -10.532571   1.000000
    6      -10.477562   1.000000
    7      -10.230335   1.000000
    8      -10.121719   1.000000
    9      -10.097900   1.000000
   10      -10.056660   1.000000
   11       -8.852871   1.000000
   12       -8.455323   1.000000
   13       -7.584735   1.000000
   14       -7.003645   1.000000
   15       -1.915503   1.000000
   16       -1.477355   1.000000
   17       -1.402947   1.000000
   18       -1.300256   1.000000
   19       -1.172282   1.000000
   20       -1.089728   1.000000
   21       -0.744374   1.000000
   22        0.249676   1.000000
   23        0.697744   1.000000
   24        1.119400   1.000000
   25        1.255929   1.000000
   26        1.639130   1.000000
   27        2.123382   1.000000
   28        2.562467   1.000000
   29        2.901609   1.000000
   30        3.474236   1.000000
   31        4.047010   1.000000
   32        6.259924   0.000000
   33        6.607385   0.000000
   34        7.775933   0.000000
   35        8.879734   0.000000
   36        9.180036   0.000000
   37        9.562589   0.000000
   38        9.882014   0.000000
   39       10.345471   0.000000
   40       10.660989   0.000000
 
  0.2777778E+00  0.1111111E+00  0.0000000E+00  0.6172840E-02
    1      -11.084764   1.000000
    2      -10.803002   1.000000
    3      -10.658531   1.000000
    4      -10.580685   1.000000
    5      -10.530042   1.000000
    6      -10.513501   1.000000
    7      -10.229100   1.000000
    8      -10.126490   1.000000
    9      -10.084008   1.000000
   10      -10.047217   1.000000
   11       -8.621284   1.000000
   12       -8.268657   1.000000
   13       -7.466258   1.000000
   14       -6.914277   1.000000
   15       -2.031127   1.000000
   16       -1.472925   1.000000
   17       -1.390320   1.000000
   18       -1.350944   1.000000
   19       -1.185092   1.000000
   20       -1.084053   1.000000
   21       -1.008261   1.000000
   22        0.045864   1.000000
   23        0.474885   1.000000
   24        0.792480   1.000000
   25        1.052579   1.000000
   26        1.483185   1.000000
   27        1.942896   1.000000
   28        2.455107   1.000000
   29        2.878649   1.000000
   30        3.276099   1.000000
   31        3.994033   1.000000
   32        6.162259   0.000000
   33        6.515394   0.000000
   34        7.553185   0.000000
   35        8.935712   0.000000
   36        9.286943   0.000000
   37        9.558375   0.000000
   38        9.876993   0.000000
   39       10.617097   0.000000
   40       10.768210   0.000000
 
  0.3333333E+00  0.1111111E+00  0.0000000E+00  0.6172840E-02
    1      -11.112697   1.000000
    2      -10.808986   1.000000
    3      -10.653632   1.000000
    4      -10.587278   1.000000
    5      -10.544471   1.000000
    6      -10.518527   1.000000
    7      -10.228275   1.000000
    8      -10.131340   1.000000
    9      -10.070117   1.000000
   10      -10.041187   1.000000
   11       -8.403499   1.000000
   12       -8.107147   1.000000
   13       -7.381973   1.000000
   14       -6.841631   1.000000
   15       -2.197252   1.000000
   16       -1.653723   1.000000
   17       -1.385261   1.000000
   18       -1.341395   1.000000
   19       -1.205578   1.000000
   20       -1.094314   1.000000
   21       -1.015425   1.000000
   22       -0.104297   1.000000
   23        0.305082   1.000000
   24        0.529510   1.000000
   25        0.906650   1.000000
   26        1.330908   1.000000
   27        1.819868   1.000000
   28        2.367694   1.000000
   29        2.886603   1.000000
   30        3.134950   1.000000
   31        3.960140   1.000000
   32        6.005637   0.000000
   33        6.466122   0.000000
   34        7.359578   0.000000
   35        8.967815   0.000000
   36        9.308373   0.000000
   37        9.460985   0.000000
   38        9.788023   0.000000
   39       10.703067   0.000000
   40       10.918618   0.000000
 
  0.3888889E+00  0.1111111E+00  0.0000000E+00  0.6172840E-02
    1      -11.130408   1.000000
    2      -10.814154   1.000000
    3      -10.650967   1.000000
    4      -10.593468   1.000000
    5      -10.555615   1.000000
    6      -10.515097   1.000000
    7      -10.227923   1.000000
    8      -10.134671   1.000000
    9      -10.058515   1.000000
   10      -10.039552   1.000000
   11       -8.235492   1.000000
   12       -8.002090   1.000000
   13       -7.337697   1.000000
   14       -6.793937   1.000000
   15       -2.342715   1.000000
   16       -1.832341   1.000000
   17       -1.370120   1.000000
   18       -1.329817   1.000000
   19       -1.222487   1.000000
   20       -1.084350   1.000000
   21       -0.933117   1.000000
   22       -0.239258   1.000000
   23        0.126591   1.000000
   24        0.442331   1.000000
   25        0.820445   1.000000
   26        1.246186   1.000000
   27        1.726871   1.000000
   28        2.298285   1.000000
   29        2.906738   1.000000
   30        3.050274   1.000000
   31        3.948491   1.000000
   32        5.889775   0.000000
   33        6.428754   0.000000
   34        7.230165   0.000000
   35        9.018991   0.000000
   36        9.267274   0.000000
   37        9.391746   0.000000
   38        9.679323   0.000000
   39       10.639907   0.000000
   40       10.967390   0.000000
 
  0.4444444E+00  0.1111111E+00  0.0000000E+00  0.3086420E-02
    1      -11.136460   1.000000
    2      -10.816229   1.000000
    3      -10.650123   1.000000
    4      -10.596059   1.000000
    5      -10.558704   1.000000
    6      -10.513653   1.000000
    7      -10.227838   1.000000
    8      -10.135844   1.000000
    9      -10.053135   1.000000
   10      -10.040284   1.000000
   11       -8.168223   1.000000
   12       -7.968518   1.000000
   13       -7.325342   1.000000
   14       -6.777223   1.000000
   15       -2.399892   1.000000
   16       -1.897815   1.000000
   17       -1.365388   1.000000
   18       -1.325631   1.000000
   19       -1.228021   1.000000
   20       -1.079661   1.000000
   21       -0.876435   1.000000
   22       -0.313321   1.000000
   23        0.053592   1.000000
   24        0.429351   1.000000
   25        0.792168   1.000000
   26        1.226031   1.000000
   27        1.687183   1.000000
   28        2.270772   1.000000
   29        2.917288   1.000000
   30        3.021217   1.000000
   31        3.947238   1.000000
   32        5.848310   0.000000
   33        6.413811   0.000000
   34        7.184910   0.000000
   35        9.061676   0.000000
   36        9.229541   0.000000
   37        9.359783   0.000000
   38        9.637269   0.000000
   39       10.606666   0.000000
   40       10.987827   0.000000
 
  0.1666667E+00  0.1666667E+00  0.0000000E+00  0.3086420E-02
    1      -11.044232   1.000000
    2      -10.796457   1.000000
    3      -10.668046   1.000000
    4      -10.572322   1.000000
    5      -10.534888   1.000000
    6      -10.465826   1.000000
    7      -10.243617   1.000000
    8      -10.110195   1.000000
    9      -10.109771   1.000000
   10      -10.057071   1.000000
   11       -8.871562   1.000000
   12       -8.470085   1.000000
   13       -7.599423   1.000000
   14       -7.012640   1.000000
   15       -1.900501   1.000000
   16       -1.478696   1.000000
   17       -1.405954   1.000000
   18       -1.294565   1.000000
   19       -1.169494   1.000000
   20       -1.090459   1.000000
   21       -0.680284   1.000000
   22        0.314186   1.000000
   23        0.695425   1.000000
   24        1.135619   1.000000
   25        1.180373   1.000000
   26        1.647666   1.000000
   27        2.262579   1.000000
   28        2.500284   1.000000
   29        2.883535   1.000000
   30        3.389187   1.000000
   31        4.067285   1.000000
   32        6.337871   0.000000
   33        6.711148   0.000000
   34        8.002731   0.000000
   35        8.852704   0.000000
   36        9.185653   0.000000
   37        9.440595   0.000000
   38        9.935940   0.000000
   39       10.393964   0.000000
   40       10.639156   0.000000
 
  0.2222222E+00  0.1666667E+00  0.0000000E+00  0.6172840E-02
    1      -11.076794   1.000000
    2      -10.799917   1.000000
    3      -10.662133   1.000000
    4      -10.575293   1.000000
    5      -10.533668   1.000000
    6      -10.497424   1.000000
    7      -10.253844   1.000000
    8      -10.114781   1.000000
    9      -10.097126   1.000000
   10      -10.048063   1.000000
   11       -8.647421   1.000000
   12       -8.287343   1.000000
   13       -7.488216   1.000000
   14       -6.926520   1.000000
   15       -1.980998   1.000000
   16       -1.454378   1.000000
   17       -1.386576   1.000000
   18       -1.326781   1.000000
   19       -1.181272   1.000000
   20       -1.081646   1.000000
   21       -0.953768   1.000000
   22        0.129350   1.000000
   23        0.451737   1.000000
   24        0.844825   1.000000
   25        0.907000   1.000000
   26        1.511382   1.000000
   27        2.041910   1.000000
   28        2.386831   1.000000
   29        2.855052   1.000000
   30        3.096527   1.000000
   31        4.022038   1.000000
   32        6.368416   0.000000
   33        6.650338   0.000000
   34        7.919681   0.000000
   35        8.875167   0.000000
   36        9.347439   0.000000
   37        9.704168   0.000000
   38        9.994358   0.000000
   39       10.568280   0.000000
   40       10.649532   0.000000
 
  0.2777778E+00  0.1666667E+00  0.0000000E+00  0.6172840E-02
    1      -11.104396   1.000000
    2      -10.803071   1.000000
    3      -10.658293   1.000000
    4      -10.578286   1.000000
    5      -10.535906   1.000000
    6      -10.517506   1.000000
    7      -10.261361   1.000000
    8      -10.119386   1.000000
    9      -10.083811   1.000000
   10      -10.042918   1.000000
   11       -8.421560   1.000000
   12       -8.114878   1.000000
   13       -7.404940   1.000000
   14       -6.851047   1.000000
   15       -2.110753   1.000000
   16       -1.561331   1.000000
   17       -1.380569   1.000000
   18       -1.334006   1.000000
   19       -1.191696   1.000000
   20       -1.104125   1.000000
   21       -1.022721   1.000000
   22       -0.018982   1.000000
   23        0.269330   1.000000
   24        0.556756   1.000000
   25        0.741926   1.000000
   26        1.352072   1.000000
   27        1.845600   1.000000
   28        2.272951   1.000000
   29        2.845112   1.000000
   30        2.914147   1.000000
   31        3.979033   1.000000
   32        6.289113   0.000000
   33        6.618293   0.000000
   34        7.772523   0.000000
   35        8.862885   0.000000
   36        9.461516   0.000000
   37        9.867033   0.000000
   38        9.974589   0.000000
   39       10.622001   0.000000
   40       10.831748   0.000000
 
  0.3333333E+00  0.1666667E+00  0.0000000E+00  0.6172840E-02
    1      -11.124217   1.000000
    2      -10.806091   1.000000
    3      -10.656164   1.000000
    4      -10.581829   1.000000
    5      -10.544457   1.000000
    6      -10.521635   1.000000
    7      -10.266295   1.000000
    8      -10.122951   1.000000
    9      -10.070311   1.000000
   10      -10.042869   1.000000
   11       -8.222533   1.000000
   12       -7.983649   1.000000
   13       -7.359364   1.000000
   14       -6.794749   1.000000
   15       -2.247644   1.000000
   16       -1.752096   1.000000
   17       -1.360106   1.000000
   18       -1.326700   1.000000
   19       -1.208369   1.000000
   20       -1.103885   1.000000
   21       -0.953496   1.000000
   22       -0.144207   1.000000
   23        0.106754   1.000000
   24        0.337785   1.000000
   25        0.686327   1.000000
   26        1.225265   1.000000
   27        1.713829   1.000000
   28        2.146311   1.000000
   29        2.733743   1.000000
   30        2.933346   1.000000
   31        3.950595   1.000000
   32        6.192879   0.000000
   33        6.593747   0.000000
   34        7.641644   0.000000
   35        8.842718   0.000000
   36        9.547095   0.000000
   37        9.798854   0.000000
   38        9.951849   0.000000
   39       10.571588   0.000000
   40       10.918183   0.000000
 
  0.3888889E+00  0.1666667E+00  0.0000000E+00  0.6172840E-02
    1      -11.134531   1.000000
    2      -10.808067   1.000000
    3      -10.655251   1.000000
    4      -10.584670   1.000000
    5      -10.549587   1.000000
    6      -10.521355   1.000000
    7      -10.268752   1.000000
    8      -10.124888   1.000000
    9      -10.058306   1.000000
   10      -10.047663   1.000000
   11       -8.094073   1.000000
   12       -7.919636   1.000000
   13       -7.344778   1.000000
   14       -6.764436   1.000000
   15       -2.335144   1.000000
   16       -1.869117   1.000000
   17       -1.351230   1.000000
   18       -1.322048   1.000000
   19       -1.217866   1.000000
   20       -1.093647   1.000000
   21       -0.863937   1.000000
   22       -0.259972   1.000000
   23        0.011457   1.000000
   24        0.232767   1.000000
   25        0.672874   1.000000
   26        1.167056   1.000000
   27        1.655486   1.000000
   28        2.052262   1.000000
   29        2.671713   1.000000
   30        2.960680   1.000000
   31        3.938501   1.000000
   32        6.135930   0.000000
   33        6.575596   0.000000
   34        7.568456   0.000000
   35        8.836754   0.000000
   36        9.593894   0.000000
   37        9.720923   0.000000
   38        9.919446   0.000000
   39       10.504484   0.000000
   40       10.896567   0.000000
 
  0.2222222E+00  0.2222222E+00  0.0000000E+00  0.3086420E-02
    1      -11.101146   1.000000
    2      -10.800896   1.000000
    3      -10.660153   1.000000
    4      -10.574406   1.000000
    5      -10.536580   1.000000
    6      -10.511388   1.000000
    7      -10.276796   1.000000
    8      -10.110563   1.000000
    9      -10.093330   1.000000
   10      -10.043376   1.000000
   11       -8.427358   1.000000
   12       -8.116478   1.000000
   13       -7.413854   1.000000
   14       -6.854356   1.000000
   15       -2.077045   1.000000
   16       -1.526361   1.000000
   17       -1.379216   1.000000
   18       -1.327262   1.000000
   19       -1.185624   1.000000
   20       -1.103662   1.000000
   21       -1.024314   1.000000
   22        0.010611   1.000000
   23        0.245108   1.000000
   24        0.549827   1.000000
   25        0.692050   1.000000
   26        1.380289   1.000000
   27        1.846788   1.000000
   28        2.242830   1.000000
   29        2.752411   1.000000
   30        2.887055   1.000000
   31        3.986009   1.000000
   32        6.410692   0.000000
   33        6.677229   0.000000
   34        7.992977   0.000000
   35        8.770733   0.000000
   36        9.548060   0.000000
   37        9.871614   0.000000
   38       10.292383   0.000000
   39       10.538805   0.000000
   40       10.845105   0.000000
 
  0.2777778E+00  0.2222222E+00  0.0000000E+00  0.6172840E-02
    1      -11.120058   1.000000
    2      -10.801059   1.000000
    3      -10.659505   1.000000
    4      -10.573235   1.000000
    5      -10.539435   1.000000
    6      -10.520635   1.000000
    7      -10.295445   1.000000
    8      -10.110314   1.000000
    9      -10.083732   1.000000
   10      -10.043910   1.000000
   11       -8.215548   1.000000
   12       -7.969253   1.000000
   13       -7.374583   1.000000
   14       -6.795259   1.000000
   15       -2.180655   1.000000
   16       -1.691955   1.000000
   17       -1.354791   1.000000
   18       -1.320340   1.000000
   19       -1.192535   1.000000
   20       -1.122625   1.000000
   21       -0.965765   1.000000
   22       -0.099253   1.000000
   23        0.054224   1.000000
   24        0.265935   1.000000
   25        0.641339   1.000000
   26        1.284656   1.000000
   27        1.631925   1.000000
   28        2.094203   1.000000
   29        2.513204   1.000000
   30        2.943254   1.000000
   31        3.948695   1.000000
   32        6.400519   0.000000
   33        6.689952   0.000000
   34        7.963261   0.000000
   35        8.693525   0.000000
   36        9.686284   0.000000
   37       10.032777   0.000000
   38       10.400475   0.000000
   39       10.516391   0.000000
   40       11.050027   0.000000
 
  0.3333333E+00  0.2222222E+00  0.0000000E+00  0.6172840E-02
    1      -11.132005   1.000000
    2      -10.800945   1.000000
    3      -10.659501   1.000000
    4      -10.572930   1.000000
    5      -10.539809   1.000000
    6      -10.526957   1.000000
    7      -10.307445   1.000000
    8      -10.111271   1.000000
    9      -10.071499   1.000000
   10      -10.049434   1.000000
   11       -8.045638   1.000000
   12       -7.875048   1.000000
   13       -7.368663   1.000000
   14       -6.756170   1.000000
   15       -2.260371   1.000000
   16       -1.830196   1.000000
   17       -1.341212   1.000000
   18       -1.318478   1.000000
   19       -1.202344   1.000000
   20       -1.111036   1.000000
   21       -0.868248   1.000000
   22       -0.207448   1.000000
   23       -0.065066   1.000000
   24        0.055617   1.000000
   25        0.656978   1.000000
   26        1.208644   1.000000
   27        1.520940   1.000000
   28        1.939375   1.000000
   29        2.383702   1.000000
   30        2.991851   1.000000
   31        3.921492   1.000000
   32        6.378835   0.000000
   33        6.691498   0.000000
   34        7.910659   0.000000
   35        8.640574   0.000000
   36        9.796884   0.000000
   37       10.029182   0.000000
   38       10.369618   0.000000
   39       10.477524   0.000000
   40       11.148993   0.000000
 
  0.3888889E+00  0.2222222E+00  0.0000000E+00  0.3086420E-02
    1      -11.136087   1.000000
    2      -10.800874   1.000000
    3      -10.659572   1.000000
    4      -10.573050   1.000000
    5      -10.538900   1.000000
    6      -10.529848   1.000000
    7      -10.311572   1.000000
    8      -10.111720   1.000000
    9      -10.061368   1.000000
   10      -10.057159   1.000000
   11       -7.972944   1.000000
   12       -7.847790   1.000000
   13       -7.372840   1.000000
   14       -6.742426   1.000000
   15       -2.290275   1.000000
   16       -1.882363   1.000000
   17       -1.338542   1.000000
   18       -1.317029   1.000000
   19       -1.206260   1.000000
   20       -1.104508   1.000000
   21       -0.808328   1.000000
   22       -0.277249   1.000000
   23       -0.087652   1.000000
   24       -0.027543   1.000000
   25        0.672397   1.000000
   26        1.161073   1.000000
   27        1.517280   1.000000
   28        1.862560   1.000000
   29        2.342373   1.000000
   30        3.010521   1.000000
   31        3.911689   1.000000
   32        6.369791   0.000000
   33        6.690108   0.000000
   34        7.888608   0.000000
   35        8.621364   0.000000
   36        9.848628   0.000000
   37       10.000237   0.000000
   38       10.331464   0.000000
   39       10.465950   0.000000
   40       11.129221   0.000000
 
  0.2777778E+00  0.2777778E+00  0.0000000E+00  0.3086420E-02
    1      -11.130889   1.000000
    2      -10.798169   1.000000
    3      -10.661128   1.000000
    4      -10.567107   1.000000
    5      -10.540555   1.000000
    6      -10.523779   1.000000
    7      -10.324425   1.000000
    8      -10.101760   1.000000
    9      -10.081239   1.000000
   10      -10.049701   1.000000
   11       -8.029712   1.000000
   12       -7.855340   1.000000
   13       -7.380064   1.000000
   14       -6.753309   1.000000
   15       -2.226242   1.000000
   16       -1.811755   1.000000
   17       -1.337860   1.000000
   18       -1.317151   1.000000
   19       -1.190969   1.000000
   20       -1.122051   1.000000
   21       -0.872836   1.000000
   22       -0.216968   1.000000
   23       -0.079442   1.000000
   24       -0.007317   1.000000
   25        0.667623   1.000000
   26        1.294732   1.000000
   27        1.389159   1.000000
   28        1.911693   1.000000
   29        2.271231   1.000000
   30        3.002876   1.000000
   31        3.913062   1.000000
   32        6.475418   0.000000
   33        6.733214   0.000000
   34        8.045910   0.000000
   35        8.568332   0.000000
   36        9.844212   0.000000
   37       10.195890   0.000000
   38       10.336370   0.000000
   39       10.837242   0.000000
   40       11.267213   0.000000
 
  0.3333333E+00  0.2777778E+00  0.0000000E+00  0.6172840E-02
    1      -11.136409   1.000000
    2      -10.796089   1.000000
    3      -10.662224   1.000000
    4      -10.562375   1.000000
    5      -10.541543   1.000000
    6      -10.525199   1.000000
    7      -10.341425   1.000000
    8      -10.097594   1.000000
    9      -10.074614   1.000000
   10      -10.057873   1.000000
   11       -7.906235   1.000000
   12       -7.794748   1.000000
   13       -7.403644   1.000000
   14       -6.730645   1.000000
   15       -2.245178   1.000000
   16       -1.885905   1.000000
   17       -1.333284   1.000000
   18       -1.315753   1.000000
   19       -1.192329   1.000000
   20       -1.114054   1.000000
   21       -0.783480   1.000000
   22       -0.305167   1.000000
   23       -0.186513   1.000000
   24       -0.133067   1.000000
   25        0.739793   1.000000
   26        1.158759   1.000000
   27        1.392182   1.000000
   28        1.760527   1.000000
   29        2.157836   1.000000
   30        3.039383   1.000000
   31        3.888900   1.000000
   32        6.513311   0.000000
   33        6.752800   0.000000
   34        8.065620   0.000000
   35        8.497274   0.000000
   36        9.922247   0.000000
   37       10.222629   0.000000
   38       10.301592   0.000000
   39       10.974180   0.000000
   40       11.486217   0.000000
 
  0.3333333E+00  0.3333333E+00  0.0000000E+00  0.1028807E-02
    1      -11.137820   1.000000
    2      -10.794103   1.000000
    3      -10.663263   1.000000
    4      -10.551471   1.000000
    5      -10.551380   1.000000
    6      -10.520867   1.000000
    7      -10.355308   1.000000
    8      -10.086360   1.000000
    9      -10.081276   1.000000
   10      -10.061771   1.000000
   11       -7.852511   1.000000
   12       -7.759173   1.000000
   13       -7.427979   1.000000
   14       -6.721696   1.000000
   15       -2.232727   1.000000
   16       -1.908212   1.000000
   17       -1.332415   1.000000
   18       -1.314775   1.000000
   19       -1.187831   1.000000
   20       -1.114087   1.000000
   21       -0.745949   1.000000
   22       -0.326896   1.000000
   23       -0.294602   1.000000
   24       -0.158988   1.000000
   25        0.844048   1.000000
   26        1.031073   1.000000
   27        1.408734   1.000000
   28        1.669676   1.000000
   29        2.084568   1.000000
   30        3.057019   1.000000
   31        3.874640   1.000000
   32        6.563130   0.000000
   33        6.773280   0.000000
   34        8.113050   0.000000
   35        8.442433   0.000000
   36        9.921939   0.000000
   37       10.286632   0.000000
   38       10.342641   0.000000
   39       11.198530   0.000000
   40       11.644642   0.000000
 
  0.0000000E+00  0.0000000E+00  0.1666667E+00  0.1028807E-02
    1      -10.923029   1.000000
    2      -10.714469   1.000000
    3      -10.714468   1.000000
    4      -10.541871   1.000000
    5      -10.541870   1.000000
    6      -10.235333   1.000000
    7      -10.235332   1.000000
    8      -10.214652   1.000000
    9      -10.082286   1.000000
   10      -10.082286   1.000000
   11       -9.661659   1.000000
   12       -9.091577   1.000000
   13       -8.145481   1.000000
   14       -7.384991   1.000000
   15       -2.016181   1.000000
   16       -1.542987   1.000000
   17       -1.542984   1.000000
   18       -1.275314   1.000000
   19       -1.097064   1.000000
   20       -1.097061   1.000000
   21        0.314136   1.000000
   22        1.620949   1.000000
   23        2.162157   1.000000
   24        2.162186   1.000000
   25        2.749379   1.000000
   26        2.749382   1.000000
   27        3.037636   1.000000
   28        3.037648   1.000000
   29        3.778335   1.000000
   30        4.532243   1.000000
   31        4.532252   1.000000
   32        5.033422   0.000000
   33        6.350747   0.000000
   34        7.264609   0.000000
   35        7.906944   0.000000
   36        9.062135   0.000000
   37        9.095213   0.000000
   38        9.095238   0.000000
   39        9.667349   0.000000
   40        9.667356   0.000000
 
  0.5555556E-01  0.6938894E-17  0.1666667E+00  0.3086420E-02
    1      -10.925837   1.000000
    2      -10.724821   1.000000
    3      -10.711620   1.000000
    4      -10.544808   1.000000
    5      -10.541639   1.000000
    6      -10.255379   1.000000
    7      -10.232840   1.000000
    8      -10.203026   1.000000
    9      -10.085159   1.000000
   10      -10.081857   1.000000
   11       -9.623537   1.000000
   12       -9.067070   1.000000
   13       -8.115974   1.000000
   14       -7.367708   1.000000
   15       -2.003657   1.000000
   16       -1.542868   1.000000
   17       -1.536433   1.000000
   18       -1.271498   1.000000
   19       -1.100471   1.000000
   20       -1.097158   1.000000
   21        0.297593   1.000000
   22        1.594134   1.000000
   23        2.007156   1.000000
   24        2.120026   1.000000
   25        2.547816   1.000000
   26        2.673413   1.000000
   27        2.947967   1.000000
   28        3.066870   1.000000
   29        3.835529   1.000000
   30        4.324680   1.000000
   31        4.489619   1.000000
   32        5.211087   0.000000
   33        6.446392   0.000000
   34        7.422406   0.000000
   35        8.033997   0.000000
   36        8.840219   0.000000
   37        9.148612   0.000000
   38        9.206309   0.000000
   39        9.640764   0.000000
   40        9.740566   0.000000
 
  0.1111111E+00  0.1387779E-16  0.1666667E+00  0.3086420E-02
    1      -10.936729   1.000000
    2      -10.749153   1.000000
    3      -10.703595   1.000000
    4      -10.551721   1.000000
    5      -10.540777   1.000000
    6      -10.299525   1.000000
    7      -10.225962   1.000000
    8      -10.183101   1.000000
    9      -10.091648   1.000000
   10      -10.080301   1.000000
   11       -9.516645   1.000000
   12       -8.993819   1.000000
   13       -8.032810   1.000000
   14       -7.317536   1.000000
   15       -1.970281   1.000000
   16       -1.541319   1.000000
   17       -1.517463   1.000000
   18       -1.260365   1.000000
   19       -1.110110   1.000000
   20       -1.097275   1.000000
   21        0.226090   1.000000
   22        1.398311   1.000000
   23        1.770859   1.000000
   24        2.005046   1.000000
   25        2.127366   1.000000
   26        2.499174   1.000000
   27        2.673144   1.000000
   28        3.107678   1.000000
   29        3.735262   1.000000
   30        4.094923   1.000000
   31        4.369179   1.000000
   32        5.529230   0.000000
   33        6.650449   0.000000
   34        7.776181   0.000000
   35        8.219129   0.000000
   36        8.689014   0.000000
   37        9.217148   0.000000
   38        9.287544   0.000000
   39        9.688082   0.000000
   40        9.957395   0.000000
 
  0.1666667E+00  0.0000000E+00  0.1666667E+00  0.3086420E-02
    1      -10.960752   1.000000
    2      -10.773020   1.000000
    3      -10.691835   1.000000
    4      -10.559953   1.000000
    5      -10.538841   1.000000
    6      -10.358439   1.000000
    7      -10.216340   1.000000
    8      -10.160385   1.000000
    9      -10.098285   1.000000
   10      -10.076911   1.000000
   11       -9.356127   1.000000
   12       -8.874009   1.000000
   13       -7.909600   1.000000
   14       -7.239655   1.000000
   15       -1.929314   1.000000
   16       -1.535033   1.000000
   17       -1.488152   1.000000
   18       -1.244540   1.000000
   19       -1.124618   1.000000
   20       -1.096889   1.000000
   21        0.042138   1.000000
   22        0.958695   1.000000
   23        1.630319   1.000000
   24        1.743870   1.000000
   25        1.839111   1.000000
   26        2.289151   1.000000
   27        2.301352   1.000000
   28        3.118770   1.000000
   29        3.309473   1.000000
   30        4.092446   1.000000
   31        4.194789   1.000000
   32        5.833317   0.000000
   33        6.755304   0.000000
   34        7.870011   0.000000
   35        8.400713   0.000000
   36        8.790996   0.000000
   37        9.374144   0.000000
   38        9.466666   0.000000
   39        9.895918   0.000000
   40       10.283226   0.000000
 
  0.2222222E+00  0.0000000E+00  0.1666667E+00  0.3086420E-02
    1      -10.997894   1.000000
    2      -10.788059   1.000000
    3      -10.678501   1.000000
    4      -10.568365   1.000000
    5      -10.535224   1.000000
    6      -10.421846   1.000000
    7      -10.206286   1.000000
    8      -10.140983   1.000000
    9      -10.100822   1.000000
   10      -10.070838   1.000000
   11       -9.156619   1.000000
   12       -8.714185   1.000000
   13       -7.764133   1.000000
   14       -7.142811   1.000000
   15       -1.905006   1.000000
   16       -1.519608   1.000000
   17       -1.451978   1.000000
   18       -1.232818   1.000000
   19       -1.143160   1.000000
   20       -1.095200   1.000000
   21       -0.294055   1.000000
   22        0.522517   1.000000
   23        1.228823   1.000000
   24        1.649176   1.000000
   25        1.696997   1.000000
   26        1.910422   1.000000
   27        2.072175   1.000000
   28        2.919130   1.000000
   29        3.099209   1.000000
   30        3.996179   1.000000
   31        4.068766   1.000000
   32        6.028311   0.000000
   33        6.642868   0.000000
   34        7.696215   0.000000
   35        8.582094   0.000000
   36        8.971229   0.000000
   37        9.628348   0.000000
   38        9.735086   0.000000
   39       10.111459   0.000000
   40       10.683934   0.000000
 
  0.2777778E+00 -0.2775558E-16  0.1666667E+00  0.3086420E-02
    1      -11.040458   1.000000
    2      -10.796969   1.000000
    3      -10.665967   1.000000
    4      -10.576669   1.000000
    5      -10.529536   1.000000
    6      -10.479594   1.000000
    7      -10.197929   1.000000
    8      -10.134128   1.000000
    9      -10.092220   1.000000
   10      -10.061826   1.000000
   11       -8.932137   1.000000
   12       -8.527603   1.000000
   13       -7.615772   1.000000
   14       -7.038877   1.000000
   15       -1.932946   1.000000
   16       -1.491544   1.000000
   17       -1.413638   1.000000
   18       -1.253458   1.000000
   19       -1.162888   1.000000
   20       -1.091334   1.000000
   21       -0.704356   1.000000
   22        0.183161   1.000000
   23        0.882509   1.000000
   24        1.373304   1.000000
   25        1.460599   1.000000
   26        1.799645   1.000000
   27        1.868350   1.000000
   28        2.664752   1.000000
   29        3.057377   1.000000
   30        3.801946   1.000000
   31        4.008996   1.000000
   32        6.033909   0.000000
   33        6.477092   0.000000
   34        7.487248   0.000000
   35        8.637548   0.000000
   36        9.019899   0.000000
   37        9.729949   0.000000
   38        9.929504   0.000000
   39       10.334554   0.000000
   40       11.061274   0.000000
 
  0.3333333E+00  0.0000000E+00  0.1666667E+00  0.3086420E-02
    1      -11.080065   1.000000
    2      -10.804989   1.000000
    3      -10.656028   1.000000
    4      -10.585235   1.000000
    5      -10.523766   1.000000
    6      -10.522190   1.000000
    7      -10.192294   1.000000
    8      -10.136821   1.000000
    9      -10.076885   1.000000
   10      -10.050961   1.000000
   11       -8.699555   1.000000
   12       -8.335750   1.000000
   13       -7.484047   1.000000
   14       -6.941315   1.000000
   15       -2.044917   1.000000
   16       -1.456405   1.000000
   17       -1.384708   1.000000
   18       -1.378445   1.000000
   19       -1.179528   1.000000
   20       -1.084871   1.000000
   21       -0.993550   1.000000
   22       -0.035386   1.000000
   23        0.612474   1.000000
   24        0.935379   1.000000
   25        1.294007   1.000000
   26        1.693471   1.000000
   27        1.805743   1.000000
   28        2.536033   1.000000
   29        3.003600   1.000000
   30        3.635386   1.000000
   31        3.938165   1.000000
   32        5.868952   0.000000
   33        6.389091   0.000000
   34        7.276862   0.000000
   35        8.643731   0.000000
   36        8.917343   0.000000
   37        9.767234   0.000000
   38        9.834249   0.000000
   39       10.511137   0.000000
   40       11.154014   0.000000
 
  0.3888889E+00  0.0000000E+00  0.1666667E+00  0.3086420E-02
    1      -11.111256   1.000000
    2      -10.813846   1.000000
    3      -10.649352   1.000000
    4      -10.594667   1.000000
    5      -10.550351   1.000000
    6      -10.514641   1.000000
    7      -10.189158   1.000000
    8      -10.141116   1.000000
    9      -10.063395   1.000000
   10      -10.040496   1.000000
   11       -8.483097   1.000000
   12       -8.168326   1.000000
   13       -7.385820   1.000000
   14       -6.862506   1.000000
   15       -2.221885   1.000000
   16       -1.649052   1.000000
   17       -1.407594   1.000000
   18       -1.351038   1.000000
   19       -1.210561   1.000000
   20       -1.076725   1.000000
   21       -1.028597   1.000000
   22       -0.182150   1.000000
   23        0.379659   1.000000
   24        0.640275   1.000000
   25        1.164790   1.000000
   26        1.559626   1.000000
   27        1.770380   1.000000
   28        2.491929   1.000000
   29        2.949872   1.000000
   30        3.511709   1.000000
   31        3.884893   1.000000
   32        5.691006   0.000000
   33        6.327118   0.000000
   34        7.081255   0.000000
   35        8.648391   0.000000
   36        8.798855   0.000000
   37        9.674593   0.000000
   38        9.765294   0.000000
   39       10.516251   0.000000
   40       11.040259   0.000000
 
  0.4444444E+00  0.0000000E+00  0.1666667E+00  0.3086420E-02
    1      -11.130995   1.000000
    2      -10.821433   1.000000
    3      -10.645695   1.000000
    4      -10.602953   1.000000
    5      -10.562056   1.000000
    6      -10.508959   1.000000
    7      -10.187737   1.000000
    8      -10.144287   1.000000
    9      -10.054692   1.000000
   10      -10.032977   1.000000
   11       -8.318703   1.000000
   12       -8.057552   1.000000
   13       -7.329442   1.000000
   14       -6.811456   1.000000
   15       -2.381856   1.000000
   16       -1.846694   1.000000
   17       -1.383294   1.000000
   18       -1.334132   1.000000
   19       -1.233044   1.000000
   20       -1.069586   1.000000
   21       -0.954577   1.000000
   22       -0.311607   1.000000
   23        0.125689   1.000000
   24        0.605939   1.000000
   25        1.083469   1.000000
   26        1.475380   1.000000
   27        1.690710   1.000000
   28        2.488767   1.000000
   29        2.910160   1.000000
   30        3.436897   1.000000
   31        3.866028   1.000000
   32        5.583717   0.000000
   33        6.272136   0.000000
   34        6.924573   0.000000
   35        8.638114   0.000000
   36        8.765442   0.000000
   37        9.531291   0.000000
   38        9.753092   0.000000
   39       10.470603   0.000000
   40       10.936525   0.000000
 
  0.5000000E+00 -0.8326673E-16  0.1666667E+00  0.3086420E-02
    1      -11.137733   1.000000
    2      -10.824468   1.000000
    3      -10.644555   1.000000
    4      -10.606195   1.000000
    5      -10.565096   1.000000
    6      -10.506850   1.000000
    7      -10.187354   1.000000
    8      -10.145425   1.000000
    9      -10.051717   1.000000
   10      -10.030250   1.000000
   11       -8.253724   1.000000
   12       -8.021644   1.000000
   13       -7.311680   1.000000
   14       -6.793722   1.000000
   15       -2.444828   1.000000
   16       -1.918949   1.000000
   17       -1.374942   1.000000
   18       -1.328491   1.000000
   19       -1.240078   1.000000
   20       -1.066711   1.000000
   21       -0.899445   1.000000
   22       -0.377302   1.000000
   23        0.011602   1.000000
   24        0.648974   1.000000
   25        1.056183   1.000000
   26        1.445848   1.000000
   27        1.622335   1.000000
   28        2.490837   1.000000
   29        2.896876   1.000000
   30        3.410867   1.000000
   31        3.878367   1.000000
   32        5.570947   0.000000
   33        6.228040   0.000000
   34        6.840584   0.000000
   35        8.621768   0.000000
   36        8.814569   0.000000
   37        9.455759   0.000000
   38        9.749578   0.000000
   39       10.452501   0.000000
   40       10.894640   0.000000
 
 -0.4444444E+00  0.0000000E+00  0.1666667E+00  0.3086420E-02
    1      -11.130991   1.000000
    2      -10.821458   1.000000
    3      -10.645697   1.000000
    4      -10.602989   1.000000
    5      -10.562003   1.000000
    6      -10.508956   1.000000
    7      -10.187739   1.000000
    8      -10.144285   1.000000
    9      -10.054692   1.000000
   10      -10.032975   1.000000
   11       -8.316714   1.000000
   12       -8.060799   1.000000
   13       -7.327681   1.000000
   14       -6.811817   1.000000
   15       -2.380403   1.000000
   16       -1.853959   1.000000
   17       -1.376824   1.000000
   18       -1.334133   1.000000
   19       -1.234269   1.000000
   20       -1.069595   1.000000
   21       -0.961798   1.000000
   22       -0.285206   1.000000
   23        0.078847   1.000000
   24        0.677992   1.000000
   25        1.084947   1.000000
   26        1.472750   1.000000
   27        1.616504   1.000000
   28        2.494143   1.000000
   29        2.914943   1.000000
   30        3.432929   1.000000
   31        3.906310   1.000000
   32        5.649412   0.000000
   33        6.201980   0.000000
   34        6.854551   0.000000
   35        8.644809   0.000000
   36        8.874090   0.000000
   37        9.486316   0.000000
   38        9.761048   0.000000
   39       10.487855   0.000000
   40       10.918682   0.000000
 
 -0.3888889E+00  0.0000000E+00  0.1666667E+00  0.3086420E-02
    1      -11.111249   1.000000
    2      -10.813891   1.000000
    3      -10.649354   1.000000
    4      -10.594731   1.000000
    5      -10.550256   1.000000
    6      -10.514639   1.000000
    7      -10.189159   1.000000
    8      -10.141112   1.000000
    9      -10.063394   1.000000
   10      -10.040495   1.000000
   11       -8.480096   1.000000
   12       -8.173690   1.000000
   13       -7.381804   1.000000
   14       -6.864012   1.000000
   15       -2.218201   1.000000
   16       -1.672983   1.000000
   17       -1.381768   1.000000
   18       -1.351037   1.000000
   19       -1.215690   1.000000
   20       -1.076745   1.000000
   21       -1.045046   1.000000
   22       -0.112440   1.000000
   23        0.266662   1.000000
   24        0.754399   1.000000
   25        1.167695   1.000000
   26        1.554403   1.000000
   27        1.659182   1.000000
   28        2.519342   1.000000
   29        2.958839   1.000000
   30        3.504410   1.000000
   31        3.938542   1.000000
   32        5.796269   0.000000
   33        6.208299   0.000000
   34        6.968983   0.000000
   35        8.690848   0.000000
   36        8.943612   0.000000
   37        9.613240   0.000000
   38        9.780965   0.000000
   39       10.566455   0.000000
   40       10.961214   0.000000
 
 -0.3333333E+00  0.0000000E+00  0.1666667E+00  0.3086420E-02
    1      -11.080049   1.000000
    2      -10.805045   1.000000
    3      -10.656029   1.000000
    4      -10.585298   1.000000
    5      -10.523681   1.000000
    6      -10.522188   1.000000
    7      -10.192294   1.000000
    8      -10.136821   1.000000
    9      -10.076886   1.000000
   10      -10.050959   1.000000
   11       -8.696451   1.000000
   12       -8.341600   1.000000
   13       -7.478694   1.000000
   14       -6.943843   1.000000
   15       -2.038845   1.000000
   16       -1.503958   1.000000
   17       -1.378445   1.000000
   18       -1.347431   1.000000
   19       -1.185509   1.000000
   20       -1.084893   1.000000
   21       -1.002041   1.000000
   22        0.080464   1.000000
   23        0.479067   1.000000
   24        0.992465   1.000000
   25        1.298219   1.000000
   26        1.685714   1.000000
   27        1.725731   1.000000
   28        2.584280   1.000000
   29        3.015478   1.000000
   30        3.626131   1.000000
   31        3.974818   1.000000
   32        5.962002   0.000000
   33        6.269703   0.000000
   34        7.169871   0.000000
   35        8.713750   0.000000
   36        9.039480   0.000000
   37        9.783392   0.000000
   38        9.789261   0.000000
   39       10.616732   0.000000
   40       10.904892   0.000000
 
 -0.2777778E+00  0.2775558E-16  0.1666667E+00  0.3086420E-02
    1      -11.040436   1.000000
    2      -10.797028   1.000000
    3      -10.665965   1.000000
    4      -10.576705   1.000000
    5      -10.529538   1.000000
    6      -10.479556   1.000000
    7      -10.197926   1.000000
    8      -10.134129   1.000000
    9      -10.092215   1.000000
   10      -10.061829   1.000000
   11       -8.929535   1.000000
   12       -8.532588   1.000000
   13       -7.610821   1.000000
   14       -7.041428   1.000000
   15       -1.926898   1.000000
   16       -1.497273   1.000000
   17       -1.413639   1.000000
   18       -1.277979   1.000000
   19       -1.161897   1.000000
   20       -1.091356   1.000000
   21       -0.691452   1.000000
   22        0.327582   1.000000
   23        0.714984   1.000000
   24        1.322427   1.000000
   25        1.465886   1.000000
   26        1.855830   1.000000
   27        1.858241   1.000000
   28        2.706542   1.000000
   29        3.070630   1.000000
   30        3.792420   1.000000
   31        4.015015   1.000000
   32        6.044734   0.000000
   33        6.432390   0.000000
   34        7.435299   0.000000
   35        8.658931   0.000000
   36        9.117437   0.000000
   37        9.754276   0.000000
   38        9.870484   0.000000
   39       10.463536   0.000000
   40       10.895203   0.000000
 
 -0.2222222E+00  0.0000000E+00  0.1666667E+00  0.3086420E-02
    1      -10.997869   1.000000
    2      -10.788109   1.000000
    3      -10.678504   1.000000
    4      -10.568383   1.000000
    5      -10.535222   1.000000
    6      -10.421859   1.000000
    7      -10.206287   1.000000
    8      -10.140981   1.000000
    9      -10.100821   1.000000
   10      -10.070837   1.000000
   11       -9.154817   1.000000
   12       -8.717605   1.000000
   13       -7.760696   1.000000
   14       -7.144620   1.000000
   15       -1.901305   1.000000
   16       -1.519602   1.000000
   17       -1.451976   1.000000
   18       -1.254334   1.000000
   19       -1.140490   1.000000
   20       -1.095220   1.000000
   21       -0.273440   1.000000
   22        0.674970   1.000000
   23        0.978120   1.000000
   24        1.617249   1.000000
   25        1.655110   1.000000
   26        2.060081   1.000000
   27        2.092006   1.000000
   28        2.941654   1.000000
   29        3.112660   1.000000
   30        3.987761   1.000000
   31        4.047256   1.000000
   32        5.991181   0.000000
   33        6.653976   0.000000
   34        7.725117   0.000000
   35        8.509480   0.000000
   36        9.044727   0.000000
   37        9.623973   0.000000
   38        9.648144   0.000000
   39       10.318608   0.000000
   40       10.659881   0.000000
 
 -0.1666667E+00  0.0000000E+00  0.1666667E+00  0.3086420E-02
    1      -10.960731   1.000000
    2      -10.773049   1.000000
    3      -10.691831   1.000000
    4      -10.559967   1.000000
    5      -10.538844   1.000000
    6      -10.358485   1.000000
    7      -10.216337   1.000000
    8      -10.160369   1.000000
    9      -10.098293   1.000000
   10      -10.076914   1.000000
   11       -9.355139   1.000000
   12       -8.875829   1.000000
   13       -7.907814   1.000000
   14       -7.240580   1.000000
   15       -1.927764   1.000000
   16       -1.534718   1.000000
   17       -1.488153   1.000000
   18       -1.254188   1.000000
   19       -1.123352   1.000000
   20       -1.096904   1.000000
   21        0.062889   1.000000
   22        1.084129   1.000000
   23        1.294772   1.000000
   24        1.844956   1.000000
   25        1.871886   1.000000
   26        2.275825   1.000000
   27        2.388377   1.000000
   28        3.131761   1.000000
   29        3.331525   1.000000
   30        4.052094   1.000000
   31        4.188303   1.000000
   32        5.808763   0.000000
   33        6.774182   0.000000
   34        7.915872   0.000000
   35        8.394187   0.000000
   36        8.736092   0.000000
   37        9.294086   0.000000
   38        9.476634   0.000000
   39       10.056731   0.000000
   40       10.278619   0.000000
 
 -0.1111111E+00 -0.1387779E-16  0.1666667E+00  0.3086420E-02
    1      -10.936722   1.000000
    2      -10.749166   1.000000
    3      -10.703589   1.000000
    4      -10.551720   1.000000
    5      -10.540783   1.000000
    6      -10.299581   1.000000
    7      -10.225956   1.000000
    8      -10.183078   1.000000
    9      -10.091649   1.000000
   10      -10.080307   1.000000
   11       -9.516277   1.000000
   12       -8.994464   1.000000
   13       -8.032200   1.000000
   14       -7.317841   1.000000
   15       -1.969854   1.000000
   16       -1.541213   1.000000
   17       -1.517463   1.000000
   18       -1.263121   1.000000
   19       -1.109761   1.000000
   20       -1.097285   1.000000
   21        0.235784   1.000000
   22        1.454019   1.000000
   23        1.636242   1.000000
   24        2.009810   1.000000
   25        2.180339   1.000000
   26        2.485939   1.000000
   27        2.703517   1.000000
   28        3.119706   1.000000
   29        3.772654   1.000000
   30        4.041127   1.000000
   31        4.364961   1.000000
   32        5.524447   0.000000
   33        6.660719   0.000000
   34        7.762949   0.000000
   35        8.310686   0.000000
   36        8.592504   0.000000
   37        9.173212   0.000000
   38        9.288517   0.000000
   39        9.767912   0.000000
   40        9.962823   0.000000
 
 -0.5555556E-01 -0.6938894E-17  0.1666667E+00  0.3086420E-02
    1      -10.925836   1.000000
    2      -10.724827   1.000000
    3      -10.711622   1.000000
    4      -10.544804   1.000000
    5      -10.541638   1.000000
    6      -10.255405   1.000000
    7      -10.232841   1.000000
    8      -10.203013   1.000000
    9      -10.085155   1.000000
   10      -10.081856   1.000000
   11       -9.623481   1.000000
   12       -9.067163   1.000000
   13       -8.115891   1.000000
   14       -7.367748   1.000000
   15       -2.003608   1.000000
   16       -1.542854   1.000000
   17       -1.536431   1.000000
   18       -1.271830   1.000000
   19       -1.100430   1.000000
   20       -1.097165   1.000000
   21        0.299006   1.000000
   22        1.594903   1.000000
   23        1.996919   1.000000
   24        2.122706   1.000000
   25        2.555871   1.000000
   26        2.662961   1.000000
   27        2.950990   1.000000
   28        3.076339   1.000000
   29        3.838633   1.000000
   30        4.316237   1.000000
   31        4.487613   1.000000
   32        5.212574   0.000000
   33        6.448051   0.000000
   34        7.420474   0.000000
   35        8.041639   0.000000
   36        8.826153   0.000000
   37        9.146394   0.000000
   38        9.210681   0.000000
   39        9.643941   0.000000
   40        9.746568   0.000000
 
  0.5555556E-01  0.5555556E-01  0.1666667E+00  0.6172840E-02
    1      -10.932690   1.000000
    2      -10.742051   1.000000
    3      -10.706236   1.000000
    4      -10.549572   1.000000
    5      -10.541174   1.000000
    6      -10.284607   1.000000
    7      -10.230630   1.000000
    8      -10.187738   1.000000
    9      -10.089731   1.000000
   10      -10.080915   1.000000
   11       -9.551014   1.000000
   12       -9.018323   1.000000
   13       -8.059503   1.000000
   14       -7.334073   1.000000
   15       -1.980538   1.000000
   16       -1.541999   1.000000
   17       -1.523658   1.000000
   18       -1.264865   1.000000
   19       -1.106810   1.000000
   20       -1.097333   1.000000
   21        0.257072   1.000000
   22        1.501480   1.000000
   23        1.775279   1.000000
   24        2.036205   1.000000
   25        2.318425   1.000000
   26        2.428125   1.000000
   27        2.913982   1.000000
   28        3.024625   1.000000
   29        3.832374   1.000000
   30        4.101450   1.000000
   31        4.397772   1.000000
   32        5.442689   0.000000
   33        6.602050   0.000000
   34        7.684327   0.000000
   35        8.212758   0.000000
   36        8.681921   0.000000
   37        9.102462   0.000000
   38        9.327031   0.000000
   39        9.664441   0.000000
   40        9.904379   0.000000
 
  0.1111111E+00  0.5555556E-01  0.1666667E+00  0.6172840E-02
    1      -10.950340   1.000000
    2      -10.765407   1.000000
    3      -10.696508   1.000000
    4      -10.556679   1.000000
    5      -10.540002   1.000000
    6      -10.333397   1.000000
    7      -10.226353   1.000000
    8      -10.165468   1.000000
    9      -10.096189   1.000000
   10      -10.078472   1.000000
   11       -9.417623   1.000000
   12       -8.921412   1.000000
   13       -7.956583   1.000000
   14       -7.270069   1.000000
   15       -1.942972   1.000000
   16       -1.537992   1.000000
   17       -1.499474   1.000000
   18       -1.251827   1.000000
   19       -1.118538   1.000000
   20       -1.097340   1.000000
   21        0.131244   1.000000
   22        1.157829   1.000000
   23        1.625619   1.000000
   24        1.867114   1.000000
   25        1.936324   1.000000
   26        2.166978   1.000000
   27        2.694972   1.000000
   28        3.018511   1.000000
   29        3.498638   1.000000
   30        4.081740   1.000000
   31        4.235462   1.000000
   32        5.741739   0.000000
   33        6.768157   0.000000
   34        7.979336   0.000000
   35        8.291801   0.000000
   36        8.751950   0.000000
   37        9.077410   0.000000
   38        9.523434   0.000000
   39        9.775295   0.000000
   40       10.211668   0.000000
 
  0.1666667E+00  0.5555556E-01  0.1666667E+00  0.6172840E-02
    1      -10.981539   1.000000
    2      -10.783174   1.000000
    3      -10.684257   1.000000
    4      -10.564440   1.000000
    5      -10.537541   1.000000
    6      -10.392681   1.000000
    7      -10.219302   1.000000
    8      -10.143611   1.000000
    9      -10.101479   1.000000
   10      -10.073501   1.000000
   11       -9.237737   1.000000
   12       -8.780513   1.000000
   13       -7.822974   1.000000
   14       -7.182661   1.000000
   15       -1.909186   1.000000
   16       -1.526849   1.000000
   17       -1.466654   1.000000
   18       -1.237834   1.000000
   19       -1.134483   1.000000
   20       -1.096393   1.000000
   21       -0.131872   1.000000
   22        0.720547   1.000000
   23        1.388168   1.000000
   24        1.587986   1.000000
   25        1.767542   1.000000
   26        1.914802   1.000000
   27        2.376072   1.000000
   28        2.975335   1.000000
   29        3.138527   1.000000
   30        4.012333   1.000000
   31        4.102461   1.000000
   32        5.993696   0.000000
   33        6.762687   0.000000
   34        7.869951   0.000000
   35        8.569333   0.000000
   36        8.912869   0.000000
   37        9.245148   0.000000
   38        9.762086   0.000000
   39       10.004263   0.000000
   40       10.559798   0.000000
 
  0.2222222E+00  0.5555556E-01  0.1666667E+00  0.6172840E-02
    1      -11.021765   1.000000
    2      -10.793405   1.000000
    3      -10.671760   1.000000
    4      -10.572209   1.000000
    5      -10.533282   1.000000
    6      -10.451901   1.000000
    7      -10.211635   1.000000
    8      -10.130946   1.000000
    9      -10.099320   1.000000
   10      -10.065386   1.000000
   11       -9.025127   1.000000
   12       -8.605456   1.000000
   13       -7.677232   1.000000
   14       -7.082168   1.000000
   15       -1.908716   1.000000
   16       -1.504385   1.000000
   17       -1.429349   1.000000
   18       -1.238124   1.000000
   19       -1.153917   1.000000
   20       -1.093433   1.000000
   21       -0.515434   1.000000
   22        0.341028   1.000000
   23        1.020460   1.000000
   24        1.397291   1.000000
   25        1.583584   1.000000
   26        1.713088   1.000000
   27        2.101358   1.000000
   28        2.741582   1.000000
   29        3.034697   1.000000
   30        3.807632   1.000000
   31        4.055828   1.000000
   32        6.109584   0.000000
   33        6.606237   0.000000
   34        7.671781   0.000000
   35        8.697148   0.000000
   36        9.097027   0.000000
   37        9.455551   0.000000
   38        9.967927   0.000000
   39       10.220219   0.000000
   40       10.717190   0.000000
 
  0.2777778E+00  0.5555556E-01  0.1666667E+00  0.6172840E-02
    1      -11.062643   1.000000
    2      -10.800671   1.000000
    3      -10.661071   1.000000
    4      -10.579940   1.000000
    5      -10.527428   1.000000
    6      -10.501726   1.000000
    7      -10.205379   1.000000
    8      -10.131531   1.000000
    9      -10.086405   1.000000
   10      -10.055018   1.000000
   11       -8.794722   1.000000
   12       -8.413615   1.000000
   13       -7.538830   1.000000
   14       -6.981335   1.000000
   15       -1.977353   1.000000
   16       -1.469854   1.000000
   17       -1.392935   1.000000
   18       -1.301131   1.000000
   19       -1.170450   1.000000
   20       -1.087674   1.000000
   21       -0.885686   1.000000
   22        0.069802   1.000000
   23        0.714577   1.000000
   24        1.088078   1.000000
   25        1.330888   1.000000
   26        1.603596   1.000000
   27        1.959406   1.000000
   28        2.557686   1.000000
   29        2.986903   1.000000
   30        3.616352   1.000000
   31        3.990306   1.000000
   32        6.031161   0.000000
   33        6.483703   0.000000
   34        7.461198   0.000000
   35        8.724601   0.000000
   36        9.088560   0.000000
   37        9.567933   0.000000
   38        9.968398   0.000000
   39       10.483767   0.000000
   40       10.873854   0.000000
 
  0.3333333E+00  0.5555556E-01  0.1666667E+00  0.6172840E-02
    1      -11.097599   1.000000
    2      -10.808418   1.000000
    3      -10.653314   1.000000
    4      -10.588222   1.000000
    5      -10.538003   1.000000
    6      -10.518868   1.000000
    7      -10.201317   1.000000
    8      -10.136131   1.000000
    9      -10.071677   1.000000
   10      -10.044858   1.000000
   11       -8.566545   1.000000
   12       -8.230820   1.000000
   13       -7.426279   1.000000
   14       -6.893183   1.000000
   15       -2.126086   1.000000
   16       -1.522445   1.000000
   17       -1.417970   1.000000
   18       -1.361414   1.000000
   19       -1.192837   1.000000
   20       -1.083141   1.000000
   21       -1.032855   1.000000
   22       -0.101751   1.000000
   23        0.478492   1.000000
   24        0.742152   1.000000
   25        1.158464   1.000000
   26        1.481393   1.000000
   27        1.887803   1.000000
   28        2.467644   1.000000
   29        2.941368   1.000000
   30        3.462990   1.000000
   31        3.927661   1.000000
   32        5.854580   0.000000
   33        6.420313   0.000000
   34        7.257522   0.000000
   35        8.727686   0.000000
   36        8.976522   0.000000
   37        9.593726   0.000000
   38        9.831913   0.000000
   39       10.588716   0.000000
   40       11.095391   0.000000
 
  0.3888889E+00  0.5555556E-01  0.1666667E+00  0.6172840E-02
    1      -11.122672   1.000000
    2      -10.816319   1.000000
    3      -10.648562   1.000000
    4      -10.596924   1.000000
    5      -10.556029   1.000000
    6      -10.512855   1.000000
    7      -10.199156   1.000000
    8      -10.140267   1.000000
    9      -10.059743   1.000000
   10      -10.037304   1.000000
   11       -8.370053   1.000000
   12       -8.089372   1.000000
   13       -7.352492   1.000000
   14       -6.828354   1.000000
   15       -2.301266   1.000000
   16       -1.757833   1.000000
   17       -1.388474   1.000000
   18       -1.340459   1.000000
   19       -1.221351   1.000000
   20       -1.077448   1.000000
   21       -0.990947   1.000000
   22       -0.237030   1.000000
   23        0.230018   1.000000
   24        0.595407   1.000000
   25        1.040079   1.000000
   26        1.391966   1.000000
   27        1.798490   1.000000
   28        2.438997   1.000000
   29        2.906318   1.000000
   30        3.357983   1.000000
   31        3.891132   1.000000
   32        5.711963   0.000000
   33        6.366411   0.000000
   34        7.080806   0.000000
   35        8.741522   0.000000
   36        8.884395   0.000000
   37        9.579419   0.000000
   38        9.678612   0.000000
   39       10.570236   0.000000
   40       11.001547   0.000000
 
  0.4444444E+00  0.5555556E-01  0.1666667E+00  0.6172840E-02
    1      -11.135691   1.000000
    2      -10.821513   1.000000
    3      -10.646364   1.000000
    4      -10.602751   1.000000
    5      -10.562822   1.000000
    6      -10.509112   1.000000
    7      -10.198280   1.000000
    8      -10.142580   1.000000
    9      -10.052964   1.000000
   10      -10.033492   1.000000
   11       -8.248214   1.000000
   12       -8.016619   1.000000
   13       -7.318693   1.000000
   14       -6.793940   1.000000
   15       -2.416572   1.000000
   16       -1.894939   1.000000
   17       -1.373155   1.000000
   18       -1.329530   1.000000
   19       -1.235447   1.000000
   20       -1.071215   1.000000
   21       -0.908703   1.000000
   22       -0.348960   1.000000
   23        0.046867   1.000000
   24        0.599978   1.000000
   25        0.979447   1.000000
   26        1.361618   1.000000
   27        1.696860   1.000000
   28        2.436554   1.000000
   29        2.886644   1.000000
   30        3.304643   1.000000
   31        3.888318   1.000000
   32        5.652628   0.000000
   33        6.317716   0.000000
   34        6.961528   0.000000
   35        8.749714   0.000000
   36        8.873673   0.000000
   37        9.504602   0.000000
   38        9.630739   0.000000
   39       10.529256   0.000000
   40       10.932488   0.000000
 
  0.5000000E+00  0.5555556E-01  0.1666667E+00  0.6172840E-02
    1      -11.135687   1.000000
    2      -10.821524   1.000000
    3      -10.646364   1.000000
    4      -10.602771   1.000000
    5      -10.562794   1.000000
    6      -10.509112   1.000000
    7      -10.198280   1.000000
    8      -10.142580   1.000000
    9      -10.052964   1.000000
   10      -10.033492   1.000000
   11       -8.247141   1.000000
   12       -8.018283   1.000000
   13       -7.317960   1.000000
   14       -6.794008   1.000000
   15       -2.415822   1.000000
   16       -1.898326   1.000000
   17       -1.371055   1.000000
   18       -1.328766   1.000000
   19       -1.236145   1.000000
   20       -1.071343   1.000000
   21       -0.912009   1.000000
   22       -0.339147   1.000000
   23        0.033890   1.000000
   24        0.619442   1.000000
   25        0.980641   1.000000
   26        1.387562   1.000000
   27        1.637953   1.000000
   28        2.449060   1.000000
   29        2.880935   1.000000
   30        3.303000   1.000000
   31        3.909838   1.000000
   32        5.686072   0.000000
   33        6.280222   0.000000
   34        6.929544   0.000000
   35        8.759140   0.000000
   36        8.920916   0.000000
   37        9.472840   0.000000
   38        9.648909   0.000000
   39       10.521052   0.000000
   40       10.927350   0.000000
 
 -0.4444444E+00  0.5555556E-01  0.1666667E+00  0.6172840E-02
    1      -11.122665   1.000000
    2      -10.816351   1.000000
    3      -10.648563   1.000000
    4      -10.596977   1.000000
    5      -10.555953   1.000000
    6      -10.512852   1.000000
    7      -10.199159   1.000000
    8      -10.140264   1.000000
    9      -10.059744   1.000000
   10      -10.037301   1.000000
   11       -8.367529   1.000000
   12       -8.093670   1.000000
   13       -7.349807   1.000000
   14       -6.829112   1.000000
   15       -2.298636   1.000000
   16       -1.771066   1.000000
   17       -1.376477   1.000000
   18       -1.338255   1.000000
   19       -1.224791   1.000000
   20       -1.078516   1.000000
   21       -1.002078   1.000000
   22       -0.194846   1.000000
   23        0.176546   1.000000
   24        0.645856   1.000000
   25        1.041408   1.000000
   26        1.450914   1.000000
   27        1.654440   1.000000
   28        2.483628   1.000000
   29        2.892369   1.000000
   30        3.352548   1.000000
   31        3.941500   1.000000
   32        5.798983   0.000000
   33        6.266551   0.000000
   34        6.996652   0.000000
   35        8.784905   0.000000
   36        8.987971   0.000000
   37        9.535235   0.000000
   38        9.693253   0.000000
   39       10.559211   0.000000
   40       10.962491   0.000000
 
 -0.3888889E+00  0.5555556E-01  0.1666667E+00  0.6172840E-02
    1      -11.097587   1.000000
    2      -10.808466   1.000000
    3      -10.653313   1.000000
    4      -10.588287   1.000000
    5      -10.537913   1.000000
    6      -10.518866   1.000000
    7      -10.201317   1.000000
    8      -10.136131   1.000000
    9      -10.071675   1.000000
   10      -10.044857   1.000000
   11       -8.563593   1.000000
   12       -8.236258   1.000000
   13       -7.421783   1.000000
   14       -6.895082   1.000000
   15       -2.121100   1.000000
   16       -1.567435   1.000000
   17       -1.379197   1.000000
   18       -1.354729   1.000000
   19       -1.199515   1.000000
   20       -1.085156   1.000000
   21       -1.046992   1.000000
   22       -0.013769   1.000000
   23        0.378544   1.000000
   24        0.788737   1.000000
   25        1.155811   1.000000
   26        1.545532   1.000000
   27        1.730712   1.000000
   28        2.546488   1.000000
   29        2.924248   1.000000
   30        3.453401   1.000000
   31        3.977389   1.000000
   32        5.957563   0.000000
   33        6.294102   0.000000
   34        7.155321   0.000000
   35        8.802571   0.000000
   36        9.086052   0.000000
   37        9.619358   0.000000
   38        9.776915   0.000000
   39       10.604632   0.000000
   40       10.962789   0.000000
 
 -0.3333333E+00  0.5555556E-01  0.1666667E+00  0.6172840E-02
    1      -11.062628   1.000000
    2      -10.800723   1.000000
    3      -10.661072   1.000000
    4      -10.579984   1.000000
    5      -10.527423   1.000000
    6      -10.501670   1.000000
    7      -10.205381   1.000000
    8      -10.131532   1.000000
    9      -10.086402   1.000000
   10      -10.055015   1.000000
   11       -8.792075   1.000000
   12       -8.418668   1.000000
   13       -7.533998   1.000000
   14       -6.983719   1.000000
   15       -1.971267   1.000000
   16       -1.486821   1.000000
   17       -1.393389   1.000000
   18       -1.305797   1.000000
   19       -1.172956   1.000000
   20       -1.088059   1.000000
   21       -0.881250   1.000000
   22        0.194730   1.000000
   23        0.581979   1.000000
   24        1.088177   1.000000
   25        1.318384   1.000000
   26        1.643061   1.000000
   27        1.893421   1.000000
   28        2.640563   1.000000
   29        2.970625   1.000000
   30        3.603346   1.000000
   31        4.018245   1.000000
   32        6.084439   0.000000
   33        6.398646   0.000000
   34        7.388209   0.000000
   35        8.774975   0.000000
   36        9.180652   0.000000
   37        9.627856   0.000000
   38        9.900304   0.000000
   39       10.507435   0.000000
   40       10.821045   0.000000
 
 -0.2777778E+00  0.5555556E-01  0.1666667E+00  0.6172840E-02
    1      -11.021746   1.000000
    2      -10.793453   1.000000
    3      -10.671763   1.000000
    4      -10.572231   1.000000
    5      -10.533278   1.000000
    6      -10.451890   1.000000
    7      -10.211636   1.000000
    8      -10.130947   1.000000
    9      -10.099317   1.000000
   10      -10.065382   1.000000
   11       -9.023199   1.000000
   12       -8.609152   1.000000
   13       -7.673522   1.000000
   14       -7.084104   1.000000
   15       -1.904263   1.000000
   16       -1.505894   1.000000
   17       -1.429353   1.000000
   18       -1.261068   1.000000
   19       -1.151513   1.000000
   20       -1.093604   1.000000
   21       -0.500233   1.000000
   22        0.478542   1.000000
   23        0.827056   1.000000
   24        1.395000   1.000000
   25        1.540930   1.000000
   26        1.754222   1.000000
   27        2.149951   1.000000
   28        2.792023   1.000000
   29        3.022292   1.000000
   30        3.792074   1.000000
   31        4.059621   1.000000
   32        6.088924   0.000000
   33        6.596953   0.000000
   34        7.667659   0.000000
   35        8.655846   0.000000
   36        9.150176   0.000000
   37        9.535838   0.000000
   38        9.904948   0.000000
   39       10.259171   0.000000
   40       10.728654   0.000000
 
 -0.2222222E+00  0.5555556E-01  0.1666667E+00  0.6172840E-02
    1      -10.981521   1.000000
    2      -10.783207   1.000000
    3      -10.684254   1.000000
    4      -10.564452   1.000000
    5      -10.537544   1.000000
    6      -10.392704   1.000000
    7      -10.219297   1.000000
    8      -10.143606   1.000000
    9      -10.101481   1.000000
   10      -10.073503   1.000000
   11       -9.236638   1.000000
   12       -8.782579   1.000000
   13       -7.820911   1.000000
   14       -7.183741   1.000000
   15       -1.907129   1.000000
   16       -1.526606   1.000000
   17       -1.466646   1.000000
   18       -1.250209   1.000000
   19       -1.132844   1.000000
   20       -1.096450   1.000000
   21       -0.114759   1.000000
   22        0.838149   1.000000
   23        1.127372   1.000000
   24        1.653188   1.000000
   25        1.778515   1.000000
   26        1.922877   1.000000
   27        2.442374   1.000000
   28        2.986253   1.000000
   29        3.143298   1.000000
   30        3.988517   1.000000
   31        4.098558   1.000000
   32        5.966152   0.000000
   33        6.775849   0.000000
   34        7.926198   0.000000
   35        8.493807   0.000000
   36        8.871847   0.000000
   37        9.326757   0.000000
   38        9.711706   0.000000
   39       10.060512   0.000000
   40       10.602078   0.000000
 
 -0.1666667E+00  0.5555556E-01  0.1666667E+00  0.6172840E-02
    1      -10.950331   1.000000
    2      -10.765417   1.000000
    3      -10.696506   1.000000
    4      -10.556688   1.000000
    5      -10.540002   1.000000
    6      -10.333424   1.000000
    7      -10.226351   1.000000
    8      -10.165458   1.000000
    9      -10.096196   1.000000
   10      -10.078473   1.000000
   11       -9.417223   1.000000
   12       -8.922135   1.000000
   13       -7.955882   1.000000
   14       -7.270427   1.000000
   15       -1.942414   1.000000
   16       -1.537867   1.000000
   17       -1.499470   1.000000
   18       -1.255374   1.000000
   19       -1.118070   1.000000
   20       -1.097355   1.000000
   21        0.140818   1.000000
   22        1.218386   1.000000
   23        1.468404   1.000000
   24        1.889326   1.000000
   25        2.002347   1.000000
   26        2.151075   1.000000
   27        2.724204   1.000000
   28        3.018648   1.000000
   29        3.513468   1.000000
   30        4.053790   1.000000
   31        4.235126   1.000000
   32        5.732600   0.000000
   33        6.777550   0.000000
   34        7.982195   0.000000
   35        8.354812   0.000000
   36        8.649275   0.000000
   37        9.089287   0.000000
   38        9.503760   0.000000
   39        9.831450   0.000000
   40       10.226393   0.000000
 
  0.1111111E+00  0.1111111E+00  0.1666667E+00  0.6172840E-02
    1      -10.975703   1.000000
    2      -10.781148   1.000000
    3      -10.686582   1.000000
    4      -10.562649   1.000000
    5      -10.538706   1.000000
    6      -10.378752   1.000000
    7      -10.229950   1.000000
    8      -10.142785   1.000000
    9      -10.101688   1.000000
   10      -10.074358   1.000000
   11       -9.264724   1.000000
   12       -8.803288   1.000000
   13       -7.843126   1.000000
   14       -7.196897   1.000000
   15       -1.911052   1.000000
   16       -1.528815   1.000000
   17       -1.471690   1.000000
   18       -1.244816   1.000000
   19       -1.130542   1.000000
   20       -1.097023   1.000000
   21       -0.065198   1.000000
   22        0.859863   1.000000
   23        1.302109   1.000000
   24        1.647399   1.000000
   25        1.764584   1.000000
   26        1.865587   1.000000
   27        2.715784   1.000000
   28        2.782990   1.000000
   29        3.216003   1.000000
   30        3.969400   1.000000
   31        4.120210   1.000000
   32        5.978311   0.000000
   33        6.840685   0.000000
   34        8.070906   0.000000
   35        8.551391   0.000000
   36        8.720928   0.000000
   37        9.161144   0.000000
   38        9.723273   0.000000
   39        9.956404   0.000000
   40       10.597889   0.000000
 
  0.1666667E+00  0.1111111E+00  0.1666667E+00  0.6172840E-02
    1      -11.010813   1.000000
    2      -10.791320   1.000000
    3      -10.675771   1.000000
    4      -10.568740   1.000000
    5      -10.536292   1.000000
    6      -10.429532   1.000000
    7      -10.231143   1.000000
    8      -10.124875   1.000000
    9      -10.105334   1.000000
   10      -10.066754   1.000000
   11       -9.071347   1.000000
   12       -8.644808   1.000000
   13       -7.710753   1.000000
   14       -7.105710   1.000000
   15       -1.898269   1.000000
   16       -1.509988   1.000000
   17       -1.437582   1.000000
   18       -1.240321   1.000000
   19       -1.146719   1.000000
   20       -1.094864   1.000000
   21       -0.386333   1.000000
   22        0.500378   1.000000
   23        1.050109   1.000000
   24        1.357172   1.000000
   25        1.505730   1.000000
   26        1.734979   1.000000
   27        2.403857   1.000000
   28        2.695558   1.000000
   29        3.007669   1.000000
   30        3.724826   1.000000
   31        4.097229   1.000000
   32        6.168455   0.000000
   33        6.773109   0.000000
   34        7.952193   0.000000
   35        8.801563   0.000000
   36        8.944960   0.000000
   37        9.283744   0.000000
   38        9.871429   0.000000
   39       10.210331   0.000000
   40       10.675867   0.000000
 
  0.2222222E+00  0.1111111E+00  0.1666667E+00  0.6172840E-02
    1      -11.049313   1.000000
    2      -10.797530   1.000000
    3      -10.666006   1.000000
    4      -10.574676   1.000000
    5      -10.532570   1.000000
    6      -10.477569   1.000000
    7      -10.230333   1.000000
    8      -10.121720   1.000000
    9      -10.097904   1.000000
   10      -10.056659   1.000000
   11       -8.850717   1.000000
   12       -8.460484   1.000000
   13       -7.577434   1.000000
   14       -7.008123   1.000000
   15       -1.934477   1.000000
   16       -1.479136   1.000000
   17       -1.402156   1.000000
   18       -1.266101   1.000000
   19       -1.164040   1.000000
   20       -1.089133   1.000000
   21       -0.752691   1.000000
   22        0.206357   1.000000
   23        0.750885   1.000000
   24        1.110100   1.000000
   25        1.269104   1.000000
   26        1.574202   1.000000
   27        2.160249   1.000000
   28        2.530316   1.000000
   29        2.927931   1.000000
   30        3.484008   1.000000
   31        4.051152   1.000000
   32        6.223995   0.000000
   33        6.647210   0.000000
   34        7.775109   0.000000
   35        8.890422   0.000000
   36        9.164674   0.000000
   37        9.457676   0.000000
   38        9.943902   0.000000
   39       10.412278   0.000000
   40       10.646484   0.000000
 
  0.2777778E+00  0.1111111E+00  0.1666667E+00  0.6172840E-02
    1      -11.084766   1.000000
    2      -10.803006   1.000000
    3      -10.658532   1.000000
    4      -10.580658   1.000000
    5      -10.530053   1.000000
    6      -10.513512   1.000000
    7      -10.229100   1.000000
    8      -10.126489   1.000000
    9      -10.084009   1.000000
   10      -10.047216   1.000000
   11       -8.619814   1.000000
   12       -8.272031   1.000000
   13       -7.462013   1.000000
   14       -6.916639   1.000000
   15       -2.042254   1.000000
   16       -1.453394   1.000000
   17       -1.388954   1.000000
   18       -1.360886   1.000000
   19       -1.178386   1.000000
   20       -1.082836   1.000000
   21       -1.004328   1.000000
   22        0.003359   1.000000
   23        0.500532   1.000000
   24        0.830009   1.000000
   25        1.072033   1.000000
   26        1.386821   1.000000
   27        2.027505   1.000000
   28        2.389552   1.000000
   29        2.896135   1.000000
   30        3.283570   1.000000
   31        3.991600   1.000000
   32        6.124491   0.000000
   33        6.573575   0.000000
   34        7.582739   0.000000
   35        8.902055   0.000000
   36        9.245460   0.000000
   37        9.462249   0.000000
   38        9.981974   0.000000
   39       10.606853   0.000000
   40       10.722657   0.000000
 
  0.3333333E+00  0.1111111E+00  0.1666667E+00  0.6172840E-02
    1      -11.112697   1.000000
    2      -10.808990   1.000000
    3      -10.653632   1.000000
    4      -10.587239   1.000000
    5      -10.544513   1.000000
    6      -10.518525   1.000000
    7      -10.228274   1.000000
    8      -10.131344   1.000000
    9      -10.070119   1.000000
   10      -10.041186   1.000000
   11       -8.402603   1.000000
   12       -8.109033   1.000000
   13       -7.379972   1.000000
   14       -6.842631   1.000000
   15       -2.200743   1.000000
   16       -1.645154   1.000000
   17       -1.388109   1.000000
   18       -1.345224   1.000000
   19       -1.203492   1.000000
   20       -1.091966   1.000000
   21       -1.010074   1.000000
   22       -0.138932   1.000000
   23        0.279381   1.000000
   24        0.608541   1.000000
   25        0.923927   1.000000
   26        1.248650   1.000000
   27        1.917639   1.000000
   28        2.308134   1.000000
   29        2.884663   1.000000
   30        3.137224   1.000000
   31        3.941462   1.000000
   32        5.982398   0.000000
   33        6.530650   0.000000
   34        7.402306   0.000000
   35        8.903275   0.000000
   36        9.239779   0.000000
   37        9.406046   0.000000
   38        9.867934   0.000000
   39       10.659707   0.000000
   40       10.927059   0.000000
 
  0.3888889E+00  0.1111111E+00  0.1666667E+00  0.6172840E-02
    1      -11.130405   1.000000
    2      -10.814162   1.000000
    3      -10.650966   1.000000
    4      -10.593424   1.000000
    5      -10.555651   1.000000
    6      -10.515098   1.000000
    7      -10.227922   1.000000
    8      -10.134671   1.000000
    9      -10.058513   1.000000
   10      -10.039551   1.000000
   11       -8.234724   1.000000
   12       -8.003465   1.000000
   13       -7.336556   1.000000
   14       -6.794536   1.000000
   15       -2.341235   1.000000
   16       -1.831591   1.000000
   17       -1.366585   1.000000
   18       -1.331729   1.000000
   19       -1.223130   1.000000
   20       -1.084182   1.000000
   21       -0.929394   1.000000
   22       -0.265952   1.000000
   23        0.090395   1.000000
   24        0.510608   1.000000
   25        0.825645   1.000000
   26        1.211655   1.000000
   27        1.796389   1.000000
   28        2.268862   1.000000
   29        2.884208   1.000000
   30        3.049800   1.000000
   31        3.918094   1.000000
   32        5.890190   0.000000
   33        6.487850   0.000000
   34        7.264760   0.000000
   35        8.933724   0.000000
   36        9.182378   0.000000
   37        9.389107   0.000000
   38        9.744061   0.000000
   39       10.595533   0.000000
   40       11.028330   0.000000
 
  0.4444444E+00  0.1111111E+00  0.1666667E+00  0.6172840E-02
    1      -11.136456   1.000000
    2      -10.816246   1.000000
    3      -10.650125   1.000000
    4      -10.596030   1.000000
    5      -10.558718   1.000000
    6      -10.513653   1.000000
    7      -10.227838   1.000000
    8      -10.135844   1.000000
    9      -10.053135   1.000000
   10      -10.040284   1.000000
   11       -8.166754   1.000000
   12       -7.970805   1.000000
   13       -7.324041   1.000000
   14       -6.777765   1.000000
   15       -2.396190   1.000000
   16       -1.901041   1.000000
   17       -1.360370   1.000000
   18       -1.325131   1.000000
   19       -1.230086   1.000000
   20       -1.080040   1.000000
   21       -0.873981   1.000000
   22       -0.337968   1.000000
   23        0.028256   1.000000
   24        0.476550   1.000000
   25        0.780533   1.000000
   26        1.264624   1.000000
   27        1.687620   1.000000
   28        2.271377   1.000000
   29        2.874012   1.000000
   30        3.024650   1.000000
   31        3.924684   1.000000
   32        5.878530   0.000000
   33        6.446318   0.000000
   34        7.199839   0.000000
   35        8.993602   0.000000
   36        9.115827   0.000000
   37        9.413537   0.000000
   38        9.688978   0.000000
   39       10.538388   0.000000
   40       11.032918   0.000000
 
  0.5000000E+00  0.1111111E+00  0.1666667E+00  0.6172840E-02
    1      -11.130403   1.000000
    2      -10.814179   1.000000
    3      -10.650968   1.000000
    4      -10.593460   1.000000
    5      -10.555601   1.000000
    6      -10.515095   1.000000
    7      -10.227926   1.000000
    8      -10.134669   1.000000
    9      -10.058515   1.000000
   10      -10.039548   1.000000
   11       -8.232960   1.000000
   12       -8.006244   1.000000
   13       -7.335266   1.000000
   14       -6.794699   1.000000
   15       -2.339254   1.000000
   16       -1.839251   1.000000
   17       -1.363725   1.000000
   18       -1.326396   1.000000
   19       -1.225618   1.000000
   20       -1.085356   1.000000
   21       -0.936466   1.000000
   22       -0.252311   1.000000
   23        0.113273   1.000000
   24        0.474551   1.000000
   25        0.796600   1.000000
   26        1.351770   1.000000
   27        1.640104   1.000000
   28        2.326527   1.000000
   29        2.849248   1.000000
   30        3.057489   1.000000
   31        3.951678   1.000000
   32        5.946399   0.000000
   33        6.418202   0.000000
   34        7.223557   0.000000
   35        8.998183   0.000000
   36        9.149407   0.000000
   37        9.466679   0.000000
   38        9.706015   0.000000
   39       10.538192   0.000000
   40       11.046464   0.000000
 
 -0.4444444E+00  0.1111111E+00  0.1666667E+00  0.6172840E-02
    1      -11.112692   1.000000
    2      -10.809022   1.000000
    3      -10.653631   1.000000
    4      -10.587293   1.000000
    5      -10.544437   1.000000
    6      -10.518522   1.000000
    7      -10.228277   1.000000
    8      -10.131341   1.000000
    9      -10.070119   1.000000
   10      -10.041183   1.000000
   11       -8.400216   1.000000
   12       -8.113246   1.000000
   13       -7.377098   1.000000
   14       -6.843560   1.000000
   15       -2.196800   1.000000
   16       -1.666667   1.000000
   17       -1.374217   1.000000
   18       -1.334553   1.000000
   19       -1.208939   1.000000
   20       -1.096870   1.000000
   21       -1.020019   1.000000
   22       -0.093119   1.000000
   23        0.304179   1.000000
   24        0.535086   1.000000
   25        0.880252   1.000000
   26        1.439390   1.000000
   27        1.692480   1.000000
   28        2.426494   1.000000
   29        2.826134   1.000000
   30        3.142778   1.000000
   31        3.987682   1.000000
   32        6.070735   0.000000
   33        6.419694   0.000000
   34        7.334495   0.000000
   35        8.968972   0.000000
   36        9.254581   0.000000
   37        9.524239   0.000000
   38        9.778403   0.000000
   39       10.568565   0.000000
   40       11.004250   0.000000
 
 -0.3888889E+00  0.1111111E+00  0.1666667E+00  0.6172840E-02
    1      -11.084756   1.000000
    2      -10.803043   1.000000
    3      -10.658529   1.000000
    4      -10.580705   1.000000
    5      -10.530035   1.000000
    6      -10.513465   1.000000
    7      -10.229101   1.000000
    8      -10.126492   1.000000
    9      -10.084007   1.000000
   10      -10.047215   1.000000
   11       -8.617622   1.000000
   12       -8.276161   1.000000
   13       -7.458426   1.000000
   14       -6.918224   1.000000
   15       -2.037247   1.000000
   16       -1.494813   1.000000
   17       -1.380844   1.000000
   18       -1.333973   1.000000
   19       -1.182561   1.000000
   20       -1.084969   1.000000
   21       -1.009616   1.000000
   22        0.087519   1.000000
   23        0.459200   1.000000
   24        0.775534   1.000000
   25        1.035551   1.000000
   26        1.518304   1.000000
   27        1.858388   1.000000
   28        2.542197   1.000000
   29        2.825357   1.000000
   30        3.281459   1.000000
   31        4.027697   1.000000
   32        6.196561   0.000000
   33        6.474394   0.000000
   34        7.519755   0.000000
   35        8.940880   0.000000
   36        9.305053   0.000000
   37        9.581374   0.000000
   38        9.874662   0.000000
   39       10.495347   0.000000
   40       10.850285   0.000000
 
 -0.3333333E+00  0.1111111E+00  0.1666667E+00  0.6172840E-02
    1      -11.049302   1.000000
    2      -10.797563   1.000000
    3      -10.666003   1.000000
    4      -10.574700   1.000000
    5      -10.532570   1.000000
    6      -10.477540   1.000000
    7      -10.230333   1.000000
    8      -10.121724   1.000000
    9      -10.097901   1.000000
   10      -10.056658   1.000000
   11       -8.849183   1.000000
   12       -8.463439   1.000000
   13       -7.574558   1.000000
   14       -7.009561   1.000000
   15       -1.930551   1.000000
   16       -1.484328   1.000000
   17       -1.402498   1.000000
   18       -1.278438   1.000000
   19       -1.163563   1.000000
   20       -1.089821   1.000000
   21       -0.744832   1.000000
   22        0.303446   1.000000
   23        0.646702   1.000000
   24        1.089667   1.000000
   25        1.263661   1.000000
   26        1.597510   1.000000
   27        2.124616   1.000000
   28        2.642961   1.000000
   29        2.870273   1.000000
   30        3.475358   1.000000
   31        4.067986   1.000000
   32        6.232769   0.000000
   33        6.613673   0.000000
   34        7.754719   0.000000
   35        8.849542   0.000000
   36        9.211582   0.000000
   37        9.587737   0.000000
   38        9.948324   0.000000
   39       10.245126   0.000000
   40       10.706589   0.000000
 
 -0.2777778E+00  0.1111111E+00  0.1666667E+00  0.6172840E-02
    1      -11.010805   1.000000
    2      -10.791339   1.000000
    3      -10.675765   1.000000
    4      -10.568748   1.000000
    5      -10.536296   1.000000
    6      -10.429530   1.000000
    7      -10.231139   1.000000
    8      -10.124876   1.000000
    9      -10.105332   1.000000
   10      -10.066758   1.000000
   11       -9.070632   1.000000
   12       -8.646175   1.000000
   13       -7.709377   1.000000
   14       -7.106428   1.000000
   15       -1.896641   1.000000
   16       -1.510223   1.000000
   17       -1.437571   1.000000
   18       -1.249210   1.000000
   19       -1.145605   1.000000
   20       -1.095015   1.000000
   21       -0.378879   1.000000
   22        0.566574   1.000000
   23        0.937429   1.000000
   24        1.373835   1.000000
   25        1.526701   1.000000
   26        1.711440   1.000000
   27        2.443729   1.000000
   28        2.712951   1.000000
   29        2.992370   1.000000
   30        3.716084   1.000000
   31        4.099900   1.000000
   32        6.155093   0.000000
   33        6.773688   0.000000
   34        7.980793   0.000000
   35        8.699319   0.000000
   36        8.945997   0.000000
   37        9.421889   0.000000
   38        9.880322   0.000000
   39       10.106992   0.000000
   40       10.702018   0.000000
 
  0.1666667E+00  0.1666667E+00  0.1666667E+00  0.6172840E-02
    1      -11.044232   1.000000
    2      -10.796470   1.000000
    3      -10.668045   1.000000
    4      -10.572326   1.000000
    5      -10.534890   1.000000
    6      -10.465817   1.000000
    7      -10.243615   1.000000
    8      -10.110196   1.000000
    9      -10.109771   1.000000
   10      -10.057068   1.000000
   11       -8.868605   1.000000
   12       -8.476875   1.000000
   13       -7.590404   1.000000
   14       -7.018024   1.000000
   15       -1.918739   1.000000
   16       -1.483214   1.000000
   17       -1.405306   1.000000
   18       -1.264140   1.000000
   19       -1.160352   1.000000
   20       -1.090090   1.000000
   21       -0.686611   1.000000
   22        0.315261   1.000000
   23        0.701551   1.000000
   24        1.096956   1.000000
   25        1.206404   1.000000
   26        1.596860   1.000000
   27        2.302288   1.000000
   28        2.488570   1.000000
   29        2.891454   1.000000
   30        3.400412   1.000000
   31        4.082031   1.000000
   32        6.299260   0.000000
   33        6.734352   0.000000
   34        8.002976   0.000000
   35        8.790891   0.000000
   36        9.196126   0.000000
   37        9.501747   0.000000
   38        9.931233   0.000000
   39       10.383924   0.000000
   40       10.657757   0.000000
 
  0.2222222E+00  0.1666667E+00  0.1666667E+00  0.6172840E-02
    1      -11.076795   1.000000
    2      -10.799929   1.000000
    3      -10.662136   1.000000
    4      -10.575288   1.000000
    5      -10.533673   1.000000
    6      -10.497420   1.000000
    7      -10.253847   1.000000
    8      -10.114783   1.000000
    9      -10.097129   1.000000
   10      -10.048062   1.000000
   11       -8.645155   1.000000
   12       -8.292363   1.000000
   13       -7.482335   1.000000
   14       -6.929667   1.000000
   15       -1.993279   1.000000
   16       -1.453688   1.000000
   17       -1.379676   1.000000
   18       -1.322110   1.000000
   19       -1.172423   1.000000
   20       -1.080267   1.000000
   21       -0.955486   1.000000
   22        0.111298   1.000000
   23        0.463906   1.000000
   24        0.840210   1.000000
   25        0.949784   1.000000
   26        1.433513   1.000000
   27        2.114126   1.000000
   28        2.321865   1.000000
   29        2.857642   1.000000
   30        3.117076   1.000000
   31        4.039458   1.000000
   32        6.334589   0.000000
   33        6.679626   0.000000
   34        7.929489   0.000000
   35        8.850974   0.000000
   36        9.321622   0.000000
   37        9.760189   0.000000
   38        9.932249   0.000000
   39       10.530007   0.000000
   40       10.740074   0.000000
 
  0.2777778E+00  0.1666667E+00  0.1666667E+00  0.6172840E-02
    1      -11.104398   1.000000
    2      -10.803078   1.000000
    3      -10.658295   1.000000
    4      -10.578264   1.000000
    5      -10.535924   1.000000
    6      -10.517505   1.000000
    7      -10.261363   1.000000
    8      -10.119387   1.000000
    9      -10.083812   1.000000
   10      -10.042914   1.000000
   11       -8.420031   1.000000
   12       -8.118027   1.000000
   13       -7.401929   1.000000
   14       -6.852372   1.000000
   15       -2.116639   1.000000
   16       -1.551556   1.000000
   17       -1.381525   1.000000
   18       -1.342766   1.000000
   19       -1.186442   1.000000
   20       -1.100464   1.000000
   21       -1.019297   1.000000
   22       -0.036453   1.000000
   23        0.240124   1.000000
   24        0.593051   1.000000
   25        0.807038   1.000000
   26        1.245187   1.000000
   27        1.955240   1.000000
   28        2.195121   1.000000
   29        2.848011   1.000000
   30        2.916596   1.000000
   31        3.987345   1.000000
   32        6.264920   0.000000
   33        6.651295   0.000000
   34        7.798173   0.000000
   35        8.857808   0.000000
   36        9.399434   0.000000
   37        9.799199   0.000000
   38       10.024139   0.000000
   39       10.585253   0.000000
   40       10.814609   0.000000
 
  0.3333333E+00  0.1666667E+00  0.1666667E+00  0.6172840E-02
    1      -11.124212   1.000000
    2      -10.806095   1.000000
    3      -10.656164   1.000000
    4      -10.581795   1.000000
    5      -10.544486   1.000000
    6      -10.521633   1.000000
    7      -10.266294   1.000000
    8      -10.122951   1.000000
    9      -10.070310   1.000000
   10      -10.042867   1.000000
   11       -8.221553   1.000000
   12       -7.985416   1.000000
   13       -7.358072   1.000000
   14       -6.795238   1.000000
   15       -2.248543   1.000000
   16       -1.749719   1.000000
   17       -1.358249   1.000000
   18       -1.331489   1.000000
   19       -1.206441   1.000000
   20       -1.102567   1.000000
   21       -0.949102   1.000000
   22       -0.155435   1.000000
   23        0.058510   1.000000
   24        0.383204   1.000000
   25        0.739206   1.000000
   26        1.133299   1.000000
   27        1.827872   1.000000
   28        2.090981   1.000000
   29        2.749662   1.000000
   30        2.899703   1.000000
   31        3.945880   1.000000
   32        6.178306   0.000000
   33        6.629834   0.000000
   34        7.669496   0.000000
   35        8.849588   0.000000
   36        9.477407   0.000000
   37        9.677424   0.000000
   38       10.025762   0.000000
   39       10.579563   0.000000
   40       10.924340   0.000000
 
  0.3888889E+00  0.1666667E+00  0.1666667E+00  0.6172840E-02
    1      -11.134528   1.000000
    2      -10.808076   1.000000
    3      -10.655253   1.000000
    4      -10.584642   1.000000
    5      -10.549608   1.000000
    6      -10.521353   1.000000
    7      -10.268753   1.000000
    8      -10.124887   1.000000
    9      -10.058306   1.000000
   10      -10.047663   1.000000
   11       -8.093021   1.000000
   12       -7.921229   1.000000
   13       -7.343952   1.000000
   14       -6.764757   1.000000
   15       -2.332917   1.000000
   16       -1.870955   1.000000
   17       -1.348738   1.000000
   18       -1.322718   1.000000
   19       -1.217627   1.000000
   20       -1.093917   1.000000
   21       -0.860044   1.000000
   22       -0.279106   1.000000
   23       -0.004066   1.000000
   24        0.262969   1.000000
   25        0.655584   1.000000
   26        1.166597   1.000000
   27        1.720319   1.000000
   28        2.028824   1.000000
   29        2.683115   1.000000
   30        2.916684   1.000000
   31        3.930392   1.000000
   32        6.137210   0.000000
   33        6.601629   0.000000
   34        7.587600   0.000000
   35        8.852034   0.000000
   36        9.537570   0.000000
   37        9.587566   0.000000
   38        9.984635   0.000000
   39       10.509450   0.000000
   40       11.008644   0.000000
 
  0.4444444E+00  0.1666667E+00  0.1666667E+00  0.6172840E-02
    1      -11.134528   1.000000
    2      -10.808082   1.000000
    3      -10.655251   1.000000
    4      -10.584658   1.000000
    5      -10.549587   1.000000
    6      -10.521355   1.000000
    7      -10.268752   1.000000
    8      -10.124887   1.000000
    9      -10.058308   1.000000
   10      -10.047662   1.000000
   11       -8.092156   1.000000
   12       -7.922460   1.000000
   13       -7.343574   1.000000
   14       -6.764722   1.000000
   15       -2.331749   1.000000
   16       -1.874503   1.000000
   17       -1.349621   1.000000
   18       -1.318332   1.000000
   19       -1.218455   1.000000
   20       -1.094622   1.000000
   21       -0.864076   1.000000
   22       -0.281992   1.000000
   23        0.043020   1.000000
   24        0.238393   1.000000
   25        0.596958   1.000000
   26        1.281354   1.000000
   27        1.617672   1.000000
   28        2.058499   1.000000
   29        2.679389   1.000000
   30        2.912848   1.000000
   31        3.943518   1.000000
   32        6.159703   0.000000
   33        6.573181   0.000000
   34        7.575608   0.000000
   35        8.858565   0.000000
   36        9.510114   0.000000
   37        9.642941   0.000000
   38        9.964487   0.000000
   39       10.500121   0.000000
   40       11.066410   0.000000
 
  0.5000000E+00  0.1666667E+00  0.1666667E+00  0.6172840E-02
    1      -11.124212   1.000000
    2      -10.806111   1.000000
    3      -10.656163   1.000000
    4      -10.581831   1.000000
    5      -10.544435   1.000000
    6      -10.521632   1.000000
    7      -10.266296   1.000000
    8      -10.122946   1.000000
    9      -10.070313   1.000000
   10      -10.042864   1.000000
   11       -8.219922   1.000000
   12       -7.988075   1.000000
   13       -7.356755   1.000000
   14       -6.795435   1.000000
   15       -2.245539   1.000000
   16       -1.760843   1.000000
   17       -1.357745   1.000000
   18       -1.319466   1.000000
   19       -1.208784   1.000000
   20       -1.106212   1.000000
   21       -0.956492   1.000000
   22       -0.159970   1.000000
   23        0.186906   1.000000
   24        0.301143   1.000000
   25        0.604345   1.000000
   26        1.396662   1.000000
   27        1.591903   1.000000
   28        2.169421   1.000000
   29        2.724017   1.000000
   30        2.901529   1.000000
   31        3.975525   1.000000
   32        6.235165   0.000000
   33        6.558422   0.000000
   34        7.637018   0.000000
   35        8.864951   0.000000
   36        9.508689   0.000000
   37        9.708888   0.000000
   38        9.983893   0.000000
   39       10.566013   0.000000
   40       11.097552   0.000000
 
 -0.4444444E+00  0.1666667E+00  0.1666667E+00  0.6172840E-02
    1      -11.104392   1.000000
    2      -10.803098   1.000000
    3      -10.658290   1.000000
    4      -10.578304   1.000000
    5      -10.535895   1.000000
    6      -10.517485   1.000000
    7      -10.261363   1.000000
    8      -10.119389   1.000000
    9      -10.083815   1.000000
   10      -10.042913   1.000000
   11       -8.418575   1.000000
   12       -8.120671   1.000000
   13       -7.400028   1.000000
   14       -6.853018   1.000000
   15       -2.113187   1.000000
   16       -1.573760   1.000000
   17       -1.374116   1.000000
   18       -1.326527   1.000000
   19       -1.188701   1.000000
   20       -1.106962   1.000000
   21       -1.023969   1.000000
   22       -0.014544   1.000000
   23        0.335316   1.000000
   24        0.492110   1.000000
   25        0.715817   1.000000
   26        1.433512   1.000000
   27        1.759346   1.000000
   28        2.310261   1.000000
   29        2.772653   1.000000
   30        2.951132   1.000000
   31        4.014575   1.000000
   32        6.324203   0.000000
   33        6.575414   0.000000
   34        7.759751   0.000000
   35        8.870799   0.000000
   36        9.486399   0.000000
   37        9.741448   0.000000
   38       10.047389   0.000000
   39       10.590657   0.000000
   40       10.904465   0.000000
 
 -0.3888889E+00  0.1666667E+00  0.1666667E+00  0.6172840E-02
    1      -11.076793   1.000000
    2      -10.799942   1.000000
    3      -10.662133   1.000000
    4      -10.575304   1.000000
    5      -10.533672   1.000000
    6      -10.497400   1.000000
    7      -10.253847   1.000000
    8      -10.114784   1.000000
    9      -10.097130   1.000000
   10      -10.048061   1.000000
   11       -8.644342   1.000000
   12       -8.293912   1.000000
   13       -7.480959   1.000000
   14       -6.930281   1.000000
   15       -1.991091   1.000000
   16       -1.464442   1.000000
   17       -1.381164   1.000000
   18       -1.315330   1.000000
   19       -1.173152   1.000000
   20       -1.081560   1.000000
   21       -0.954609   1.000000
   22        0.148101   1.000000
   23        0.463472   1.000000
   24        0.780393   1.000000
   25        0.945503   1.000000
   26        1.487556   1.000000
   27        2.024450   1.000000
   28        2.420004   1.000000
   29        2.813644   1.000000
   30        3.123923   1.000000
   31        4.052507   1.000000
   32        6.355798   0.000000
   33        6.646479   0.000000
   34        7.910361   0.000000
   35        8.842775   0.000000
   36        9.397779   0.000000
   37        9.670433   0.000000
   38       10.071055   0.000000
   39       10.433458   0.000000
   40       10.716485   0.000000
 
  0.2222222E+00  0.2222222E+00  0.1666667E+00  0.6172840E-02
    1      -11.101141   1.000000
    2      -10.800910   1.000000
    3      -10.660151   1.000000
    4      -10.574406   1.000000
    5      -10.536579   1.000000
    6      -10.511374   1.000000
    7      -10.276795   1.000000
    8      -10.110562   1.000000
    9      -10.093330   1.000000
   10      -10.043371   1.000000
   11       -8.425042   1.000000
   12       -8.121139   1.000000
   13       -7.409683   1.000000
   14       -6.856076   1.000000
   15       -2.082406   1.000000
   16       -1.527526   1.000000
   17       -1.375213   1.000000
   18       -1.330840   1.000000
   19       -1.178486   1.000000
   20       -1.103014   1.000000
   21       -1.023507   1.000000
   22        0.010242   1.000000
   23        0.254435   1.000000
   24        0.521279   1.000000
   25        0.727111   1.000000
   26        1.352667   1.000000
   27        1.872010   1.000000
   28        2.211888   1.000000
   29        2.750050   1.000000
   30        2.887074   1.000000
   31        4.013891   1.000000
   32        6.405860   0.000000
   33        6.670097   0.000000
   34        8.001485   0.000000
   35        8.768413   0.000000
   36        9.532787   0.000000
   37        9.858085   0.000000
   38       10.271334   0.000000
   39       10.533782   0.000000
   40       10.909633   0.000000
 
  0.2777778E+00  0.2222222E+00  0.1666667E+00  0.6172840E-02
    1      -11.120057   1.000000
    2      -10.801066   1.000000
    3      -10.659505   1.000000
    4      -10.573228   1.000000
    5      -10.539443   1.000000
    6      -10.520635   1.000000
    7      -10.295446   1.000000
    8      -10.110319   1.000000
    9      -10.083730   1.000000
   10      -10.043910   1.000000
   11       -8.214016   1.000000
   12       -7.972029   1.000000
   13       -7.372777   1.000000
   14       -6.795758   1.000000
   15       -2.182543   1.000000
   16       -1.691527   1.000000
   17       -1.353325   1.000000
   18       -1.325286   1.000000
   19       -1.188605   1.000000
   20       -1.121242   1.000000
   21       -0.962953   1.000000
   22       -0.080795   1.000000
   23        0.013524   1.000000
   24        0.273373   1.000000
   25        0.676479   1.000000
   26        1.212840   1.000000
   27        1.720633   1.000000
   28        2.043316   1.000000
   29        2.553062   1.000000
   30        2.899022   1.000000
   31        3.966560   1.000000
   32        6.389504   0.000000
   33        6.688560   0.000000
   34        7.984593   0.000000
   35        8.715348   0.000000
   36        9.651637   0.000000
   37        9.979148   0.000000
   38       10.353150   0.000000
   39       10.533594   0.000000
   40       11.074940   0.000000
 
  0.3333333E+00  0.2222222E+00  0.1666667E+00  0.6172840E-02
    1      -11.132005   1.000000
    2      -10.800948   1.000000
    3      -10.659504   1.000000
    4      -10.572911   1.000000
    5      -10.539824   1.000000
    6      -10.526959   1.000000
    7      -10.307448   1.000000
    8      -10.111269   1.000000
    9      -10.071497   1.000000
   10      -10.049434   1.000000
   11       -8.044648   1.000000
   12       -7.876552   1.000000
   13       -7.368000   1.000000
   14       -6.756318   1.000000
   15       -2.259901   1.000000
   16       -1.831134   1.000000
   17       -1.340089   1.000000
   18       -1.321061   1.000000
   19       -1.200151   1.000000
   20       -1.110912   1.000000
   21       -0.864601   1.000000
   22       -0.199539   1.000000
   23       -0.092238   1.000000
   24        0.073013   1.000000
   25        0.653718   1.000000
   26        1.137628   1.000000
   27        1.642327   1.000000
   28        1.892620   1.000000
   29        2.426678   1.000000
   30        2.935708   1.000000
   31        3.931000   1.000000
   32        6.360599   0.000000
   33        6.693394   0.000000
   34        7.933450   0.000000
   35        8.684579   0.000000
   36        9.753743   0.000000
   37        9.929489   0.000000
   38       10.369939   0.000000
   39       10.526697   0.000000
   40       11.179982   0.000000
 
  0.3888889E+00  0.2222222E+00  0.1666667E+00  0.6172840E-02
    1      -11.136086   1.000000
    2      -10.800878   1.000000
    3      -10.659574   1.000000
    4      -10.573038   1.000000
    5      -10.538905   1.000000
    6      -10.529852   1.000000
    7      -10.311573   1.000000
    8      -10.111721   1.000000
    9      -10.061368   1.000000
   10      -10.057158   1.000000
   11       -7.971734   1.000000
   12       -7.849403   1.000000
   13       -7.372356   1.000000
   14       -6.742517   1.000000
   15       -2.288185   1.000000
   16       -1.885750   1.000000
   17       -1.338931   1.000000
   18       -1.315916   1.000000
   19       -1.204256   1.000000
   20       -1.105313   1.000000
   21       -0.806953   1.000000
   22       -0.287892   1.000000
   23       -0.067732   1.000000
   24       -0.013861   1.000000
   25        0.589445   1.000000
   26        1.189790   1.000000
   27        1.593836   1.000000
   28        1.818223   1.000000
   29        2.388765   1.000000
   30        2.948931   1.000000
   31        3.922954   1.000000
   32        6.356761   0.000000
   33        6.682715   0.000000
   34        7.907819   0.000000
   35        8.676098   0.000000
   36        9.782360   0.000000
   37        9.888865   0.000000
   38       10.350763   0.000000
   39       10.566211   0.000000
   40       11.219794   0.000000
 
  0.4444444E+00  0.2222222E+00  0.1666667E+00  0.6172840E-02
    1      -11.132005   1.000000
    2      -10.800953   1.000000
    3      -10.659502   1.000000
    4      -10.572931   1.000000
    5      -10.539798   1.000000
    6      -10.526963   1.000000
    7      -10.307448   1.000000
    8      -10.111268   1.000000
    9      -10.071502   1.000000
   10      -10.049431   1.000000
   11       -8.043804   1.000000
   12       -7.877779   1.000000
   13       -7.367617   1.000000
   14       -6.756275   1.000000
   15       -2.258159   1.000000
   16       -1.835988   1.000000
   17       -1.342485   1.000000
   18       -1.314541   1.000000
   19       -1.199558   1.000000
   20       -1.112756   1.000000
   21       -0.869222   1.000000
   22       -0.225981   1.000000
   23       -0.004180   1.000000
   24        0.053298   1.000000
   25        0.545433   1.000000
   26        1.345298   1.000000
   27        1.484213   1.000000
   28        1.903674   1.000000
   29        2.434926   1.000000
   30        2.929562   1.000000
   31        3.942996   1.000000
   32        6.383252   0.000000
   33        6.665699   0.000000
   34        7.924580   0.000000
   35        8.689665   0.000000
   36        9.733031   0.000000
   37        9.908063   0.000000
   38       10.375785   0.000000
   39       10.641770   0.000000
   40       11.225211   0.000000
 
  0.5000000E+00  0.2222222E+00  0.1666667E+00  0.6172840E-02
    1      -11.120060   1.000000
    2      -10.801074   1.000000
    3      -10.659505   1.000000
    4      -10.573242   1.000000
    5      -10.539429   1.000000
    6      -10.520627   1.000000
    7      -10.295448   1.000000
    8      -10.110315   1.000000
    9      -10.083735   1.000000
   10      -10.043905   1.000000
   11       -8.213358   1.000000
   12       -7.973129   1.000000
   13       -7.372203   1.000000
   14       -6.795850   1.000000
   15       -2.180879   1.000000
   16       -1.697929   1.000000
   17       -1.354183   1.000000
   18       -1.317679   1.000000
   19       -1.187739   1.000000
   20       -1.124985   1.000000
   21       -0.965880   1.000000
   22       -0.110828   1.000000
   23        0.109011   1.000000
   24        0.246861   1.000000
   25        0.584023   1.000000
   26        1.365892   1.000000
   27        1.600646   1.000000
   28        2.063738   1.000000
   29        2.553254   1.000000
   30        2.894733   1.000000
   31        3.978269   1.000000
   32        6.415434   0.000000
   33        6.657070   0.000000
   34        7.971629   0.000000
   35        8.722857   0.000000
   36        9.659891   0.000000
   37        9.907850   0.000000
   38       10.425626   0.000000
   39       10.674885   0.000000
   40       10.991617   0.000000
 
  0.2777778E+00  0.2777778E+00  0.1666667E+00  0.6172840E-02
    1      -11.130887   1.000000
    2      -10.798171   1.000000
    3      -10.661127   1.000000
    4      -10.567100   1.000000
    5      -10.540552   1.000000
    6      -10.523780   1.000000
    7      -10.324425   1.000000
    8      -10.101757   1.000000
    9      -10.081235   1.000000
   10      -10.049697   1.000000
   11       -8.028362   1.000000
   12       -7.857399   1.000000
   13       -7.379255   1.000000
   14       -6.753370   1.000000
   15       -2.225730   1.000000
   16       -1.814713   1.000000
   17       -1.338092   1.000000
   18       -1.317950   1.000000
   19       -1.186989   1.000000
   20       -1.123020   1.000000
   21       -0.871538   1.000000
   22       -0.209212   1.000000
   23       -0.073067   1.000000
   24       -0.002252   1.000000
   25        0.614008   1.000000
   26        1.240644   1.000000
   27        1.511504   1.000000
   28        1.856150   1.000000
   29        2.338844   1.000000
   30        2.939951   1.000000
   31        3.935233   1.000000
   32        6.459926   0.000000
   33        6.709877   0.000000
   34        8.068667   0.000000
   35        8.623033   0.000000
   36        9.820132   0.000000
   37       10.026646   0.000000
   38       10.497801   0.000000
   39       10.817559   0.000000
   40       11.293064   0.000000
 
  0.3333333E+00  0.2777778E+00  0.1666667E+00  0.6172840E-02
    1      -11.136407   1.000000
    2      -10.796089   1.000000
    3      -10.662223   1.000000
    4      -10.562370   1.000000
    5      -10.541542   1.000000
    6      -10.525205   1.000000
    7      -10.341423   1.000000
    8      -10.097597   1.000000
    9      -10.074612   1.000000
   10      -10.057871   1.000000
   11       -7.905603   1.000000
   12       -7.795530   1.000000
   13       -7.403496   1.000000
   14       -6.730654   1.000000
   15       -2.244496   1.000000
   16       -1.887896   1.000000
   17       -1.333163   1.000000
   18       -1.317541   1.000000
   19       -1.189093   1.000000
   20       -1.114826   1.000000
   21       -0.783373   1.000000
   22       -0.296810   1.000000
   23       -0.174633   1.000000
   24       -0.125770   1.000000
   25        0.662300   1.000000
   26        1.103341   1.000000
   27        1.541361   1.000000
   28        1.703484   1.000000
   29        2.226586   1.000000
   30        2.972119   1.000000
   31        3.907958   1.000000
   32        6.477735   0.000000
   33        6.730996   0.000000
   34        8.093163   0.000000
   35        8.574231   0.000000
   36        9.883180   0.000000
   37       10.090590   0.000000
   38       10.444163   0.000000
   39       10.952988   0.000000
   40       11.529893   0.000000
 
  0.3888889E+00  0.2777778E+00  0.1666667E+00  0.6172840E-02
    1      -11.136408   1.000000
    2      -10.796091   1.000000
    3      -10.662224   1.000000
    4      -10.562372   1.000000
    5      -10.541537   1.000000
    6      -10.525205   1.000000
    7      -10.341424   1.000000
    8      -10.097594   1.000000
    9      -10.074615   1.000000
   10      -10.057868   1.000000
   11       -7.905409   1.000000
   12       -7.795784   1.000000
   13       -7.403448   1.000000
   14       -6.730636   1.000000
   15       -2.244104   1.000000
   16       -1.888799   1.000000
   17       -1.333755   1.000000
   18       -1.316448   1.000000
   19       -1.188668   1.000000
   20       -1.115206   1.000000
   21       -0.784549   1.000000
   22       -0.298209   1.000000
   23       -0.180243   1.000000
   24       -0.111073   1.000000
   25        0.635051   1.000000
   26        1.145436   1.000000
   27        1.520295   1.000000
   28        1.699249   1.000000
   29        2.230204   1.000000
   30        2.971062   1.000000
   31        3.909798   1.000000
   32        6.481108   0.000000
   33        6.726928   0.000000
   34        8.092841   0.000000
   35        8.574407   0.000000
   36        9.876490   0.000000
   37       10.074714   0.000000
   38       10.467631   0.000000
   39       10.992915   0.000000
   40       11.527936   0.000000
 
  0.3333333E+00  0.3333333E+00  0.1666667E+00  0.2057613E-02
    1      -11.137821   1.000000
    2      -10.794104   1.000000
    3      -10.663263   1.000000
    4      -10.551471   1.000000
    5      -10.551375   1.000000
    6      -10.520875   1.000000
    7      -10.355307   1.000000
    8      -10.086360   1.000000
    9      -10.081277   1.000000
   10      -10.061770   1.000000
   11       -7.852417   1.000000
   12       -7.759174   1.000000
   13       -7.428099   1.000000
   14       -6.721693   1.000000
   15       -2.232419   1.000000
   16       -1.909853   1.000000
   17       -1.331862   1.000000
   18       -1.317428   1.000000
   19       -1.184247   1.000000
   20       -1.115072   1.000000
   21       -0.748940   1.000000
   22       -0.307732   1.000000
   23       -0.288941   1.000000
   24       -0.145692   1.000000
   25        0.718050   1.000000
   26        1.020257   1.000000
   27        1.571104   1.000000
   28        1.594798   1.000000
   29        2.157798   1.000000
   30        2.986930   1.000000
   31        3.896430   1.000000
   32        6.516444   0.000000
   33        6.743971   0.000000
   34        8.144846   0.000000
   35        8.533159   0.000000
   36        9.894487   0.000000
   37       10.166994   0.000000
   38       10.480134   0.000000
   39       11.188269   0.000000
   40       11.695614   0.000000
 
  0.0000000E+00  0.0000000E+00  0.3333333E+00  0.1028807E-02
    1      -10.923099   1.000000
    2      -10.714472   1.000000
    3      -10.714470   1.000000
    4      -10.541877   1.000000
    5      -10.541876   1.000000
    6      -10.235337   1.000000
    7      -10.235335   1.000000
    8      -10.214526   1.000000
    9      -10.082291   1.000000
   10      -10.082291   1.000000
   11       -9.656488   1.000000
   12       -9.107578   1.000000
   13       -8.117463   1.000000
   14       -7.404611   1.000000
   15       -2.041344   1.000000
   16       -1.542987   1.000000
   17       -1.542983   1.000000
   18       -1.136608   1.000000
   19       -1.097061   1.000000
   20       -1.097058   1.000000
   21        0.021152   1.000000
   22        1.996369   1.000000
   23        2.161016   1.000000
   24        2.161044   1.000000
   25        2.755279   1.000000
   26        2.755282   1.000000
   27        3.032225   1.000000
   28        3.032237   1.000000
   29        3.397947   1.000000
   30        4.532936   1.000000
   31        4.532945   1.000000
   32        5.348875   0.000000
   33        6.240573   0.000000
   34        7.291109   0.000000
   35        7.825368   0.000000
   36        9.082774   0.000000
   37        9.092813   0.000000
   38        9.092839   0.000000
   39        9.678614   0.000000
   40        9.678621   0.000000
 
  0.5555556E-01  0.6938894E-17  0.3333333E+00  0.3086420E-02
    1      -10.925905   1.000000
    2      -10.724812   1.000000
    3      -10.711625   1.000000
    4      -10.544810   1.000000
    5      -10.541642   1.000000
    6      -10.255396   1.000000
    7      -10.232845   1.000000
    8      -10.202945   1.000000
    9      -10.085168   1.000000
   10      -10.081860   1.000000
   11       -9.618140   1.000000
   12       -9.083120   1.000000
   13       -8.088112   1.000000
   14       -7.387219   1.000000
   15       -2.030565   1.000000
   16       -1.542936   1.000000
   17       -1.536434   1.000000
   18       -1.137006   1.000000
   19       -1.097157   1.000000
   20       -1.096743   1.000000
   21        0.019608   1.000000
   22        1.876583   1.000000
   23        2.069750   1.000000
   24        2.119408   1.000000
   25        2.519775   1.000000
   26        2.675799   1.000000
   27        2.927316   1.000000
   28        3.064700   1.000000
   29        3.551617   1.000000
   30        4.347381   1.000000
   31        4.490064   1.000000
   32        5.461797   0.000000
   33        6.341942   0.000000
   34        7.448476   0.000000
   35        7.961673   0.000000
   36        8.830113   0.000000
   37        9.144264   0.000000
   38        9.211935   0.000000
   39        9.674261   0.000000
   40        9.754180   0.000000
 
  0.1111111E+00  0.1387779E-16  0.3333333E+00  0.3086420E-02
    1      -10.936784   1.000000
    2      -10.749119   1.000000
    3      -10.703594   1.000000
    4      -10.551716   1.000000
    5      -10.540776   1.000000
    6      -10.299567   1.000000
    7      -10.225960   1.000000
    8      -10.183068   1.000000
    9      -10.091655   1.000000
   10      -10.080300   1.000000
   11       -9.510762   1.000000
   12       -9.009931   1.000000
   13       -8.005527   1.000000
   14       -7.336588   1.000000
   15       -2.001811   1.000000
   16       -1.541658   1.000000
   17       -1.517461   1.000000
   18       -1.141692   1.000000
   19       -1.097275   1.000000
   20       -1.092690   1.000000
   21       -0.001942   1.000000
   22        1.451549   1.000000
   23        1.949589   1.000000
   24        2.005861   1.000000
   25        2.123296   1.000000
   26        2.496871   1.000000
   27        2.627021   1.000000
   28        3.109698   1.000000
   29        3.700258   1.000000
   30        4.004345   1.000000
   31        4.368663   1.000000
   32        5.681450   0.000000
   33        6.567823   0.000000
   34        7.812181   0.000000
   35        8.168715   0.000000
   36        8.666526   0.000000
   37        9.151488   0.000000
   38        9.279528   0.000000
   39        9.799108   0.000000
   40        9.976280   0.000000
 
  0.1666667E+00  0.0000000E+00  0.3333333E+00  0.3086420E-02
    1      -10.960784   1.000000
    2      -10.773001   1.000000
    3      -10.691828   1.000000
    4      -10.559955   1.000000
    5      -10.538836   1.000000
    6      -10.358481   1.000000
    7      -10.216334   1.000000
    8      -10.160378   1.000000
    9      -10.098290   1.000000
   10      -10.076906   1.000000
   11       -9.349809   1.000000
   12       -8.889942   1.000000
   13       -7.883664   1.000000
   14       -7.257545   1.000000
   15       -1.966136   1.000000
   16       -1.536092   1.000000
   17       -1.488154   1.000000
   18       -1.154624   1.000000
   19       -1.096891   1.000000
   20       -1.085147   1.000000
   21       -0.097916   1.000000
   22        0.939066   1.000000
   23        1.571889   1.000000
   24        1.841890   1.000000
   25        1.924731   1.000000
   26        2.248477   1.000000
   27        2.282721   1.000000
   28        3.124868   1.000000
   29        3.395451   1.000000
   30        3.988285   1.000000
   31        4.192096   1.000000
   32        5.888964   0.000000
   33        6.714527   0.000000
   34        7.878754   0.000000
   35        8.367946   0.000000
   36        8.829279   0.000000
   37        9.229030   0.000000
   38        9.457816   0.000000
   39       10.058404   0.000000
   40       10.306163   0.000000
 
  0.2222222E+00  0.0000000E+00  0.3333333E+00  0.3086420E-02
    1      -10.997906   1.000000
    2      -10.788067   1.000000
    3      -10.678502   1.000000
    4      -10.568371   1.000000
    5      -10.535218   1.000000
    6      -10.421863   1.000000
    7      -10.206286   1.000000
    8      -10.140986   1.000000
    9      -10.100825   1.000000
   10      -10.070833   1.000000
   11       -9.150192   1.000000
   12       -8.729382   1.000000
   13       -7.740820   1.000000
   14       -7.158415   1.000000
   15       -1.943504   1.000000
   16       -1.522160   1.000000
   17       -1.451980   1.000000
   18       -1.175301   1.000000
   19       -1.095208   1.000000
   20       -1.088624   1.000000
   21       -0.346735   1.000000
   22        0.495499   1.000000
   23        1.175163   1.000000
   24        1.654073   1.000000
   25        1.713686   1.000000
   26        1.906577   1.000000
   27        2.062095   1.000000
   28        3.025729   1.000000
   29        3.110168   1.000000
   30        3.989724   1.000000
   31        4.023710   1.000000
   32        6.016140   0.000000
   33        6.652272   0.000000
   34        7.656735   0.000000
   35        8.622589   0.000000
   36        8.950653   0.000000
   37        9.625194   0.000000
   38        9.630429   0.000000
   39       10.246931   0.000000
   40       10.678107   0.000000
 
  0.2777778E+00 -0.2775558E-16  0.3333333E+00  0.3086420E-02
    1      -11.040454   1.000000
    2      -10.797002   1.000000
    3      -10.665961   1.000000
    4      -10.576668   1.000000
    5      -10.529539   1.000000
    6      -10.479584   1.000000
    7      -10.197923   1.000000
    8      -10.134130   1.000000
    9      -10.092217   1.000000
   10      -10.061831   1.000000
   11       -8.926036   1.000000
   12       -8.541229   1.000000
   13       -7.596727   1.000000
   14       -7.050878   1.000000
   15       -1.964751   1.000000
   16       -1.496380   1.000000
   17       -1.413645   1.000000
   18       -1.215778   1.000000
   19       -1.122160   1.000000
   20       -1.091348   1.000000
   21       -0.717043   1.000000
   22        0.177730   1.000000
   23        0.867413   1.000000
   24        1.331727   1.000000
   25        1.467465   1.000000
   26        1.755242   1.000000
   27        1.855171   1.000000
   28        2.767874   1.000000
   29        3.074416   1.000000
   30        3.790050   1.000000
   31        3.997556   1.000000
   32        6.012518   0.000000
   33        6.509920   0.000000
   34        7.442694   0.000000
   35        8.694581   0.000000
   36        8.938388   0.000000
   37        9.739103   0.000000
   38       10.021444   0.000000
   39       10.250490   0.000000
   40       11.017219   0.000000
 
  0.3333333E+00  0.0000000E+00  0.3333333E+00  0.3086420E-02
    1      -11.080055   1.000000
    2      -10.805037   1.000000
    3      -10.656023   1.000000
    4      -10.585217   1.000000
    5      -10.523750   1.000000
    6      -10.522186   1.000000
    7      -10.192289   1.000000
    8      -10.136823   1.000000
    9      -10.076882   1.000000
   10      -10.050957   1.000000
   11       -8.694249   1.000000
   12       -8.346939   1.000000
   13       -7.470610   1.000000
   14       -6.948942   1.000000
   15       -2.062158   1.000000
   16       -1.471651   1.000000
   17       -1.378456   1.000000
   18       -1.351572   1.000000
   19       -1.169259   1.000000
   20       -1.084892   1.000000
   21       -0.992072   1.000000
   22       -0.035336   1.000000
   23        0.610010   1.000000
   24        0.953314   1.000000
   25        1.302547   1.000000
   26        1.677784   1.000000
   27        1.717002   1.000000
   28        2.600898   1.000000
   29        3.027645   1.000000
   30        3.616868   1.000000
   31        3.925441   1.000000
   32        5.890462   0.000000
   33        6.417716   0.000000
   34        7.266993   0.000000
   35        8.640654   0.000000
   36        8.812198   0.000000
   37        9.791286   0.000000
   38        9.968470   0.000000
   39       10.354783   0.000000
   40       11.218148   0.000000
 
  0.3888889E+00  0.0000000E+00  0.3333333E+00  0.3086420E-02
    1      -11.111247   1.000000
    2      -10.813897   1.000000
    3      -10.649350   1.000000
    4      -10.594623   1.000000
    5      -10.550358   1.000000
    6      -10.514638   1.000000
    7      -10.189154   1.000000
    8      -10.141116   1.000000
    9      -10.063392   1.000000
   10      -10.040494   1.000000
   11       -8.478832   1.000000
   12       -8.176559   1.000000
   13       -7.377890   1.000000
   14       -6.866379   1.000000
   15       -2.224739   1.000000
   16       -1.654544   1.000000
   17       -1.390786   1.000000
   18       -1.351056   1.000000
   19       -1.213986   1.000000
   20       -1.076753   1.000000
   21       -1.031627   1.000000
   22       -0.198397   1.000000
   23        0.315694   1.000000
   24        0.776512   1.000000
   25        1.174611   1.000000
   26        1.542059   1.000000
   27        1.707972   1.000000
   28        2.495190   1.000000
   29        2.980565   1.000000
   30        3.486771   1.000000
   31        3.838927   1.000000
   32        5.752860   0.000000
   33        6.362663   0.000000
   34        7.125527   0.000000
   35        8.564727   0.000000
   36        8.669096   0.000000
   37        9.799851   0.000000
   38        9.802214   0.000000
   39       10.363028   0.000000
   40       11.177228   0.000000
 
  0.4444444E+00  0.0000000E+00  0.3333333E+00  0.3086420E-02
    1      -11.130986   1.000000
    2      -10.821481   1.000000
    3      -10.645697   1.000000
    4      -10.602885   1.000000
    5      -10.562085   1.000000
    6      -10.508957   1.000000
    7      -10.187739   1.000000
    8      -10.144284   1.000000
    9      -10.054689   1.000000
   10      -10.032976   1.000000
   11       -8.315397   1.000000
   12       -8.063287   1.000000
   13       -7.325048   1.000000
   14       -6.813474   1.000000
   15       -2.376101   1.000000
   16       -1.851992   1.000000
   17       -1.366174   1.000000
   18       -1.334158   1.000000
   19       -1.241868   1.000000
   20       -1.069615   1.000000
   21       -0.957684   1.000000
   22       -0.346587   1.000000
   23        0.047741   1.000000
   24        0.786486   1.000000
   25        1.094124   1.000000
   26        1.456616   1.000000
   27        1.668166   1.000000
   28        2.444423   1.000000
   29        2.945509   1.000000
   30        3.407428   1.000000
   31        3.776452   1.000000
   32        5.670843   0.000000
   33        6.322661   0.000000
   34        7.008972   0.000000
   35        8.515824   0.000000
   36        8.588939   0.000000
   37        9.662426   0.000000
   38        9.798397   0.000000
   39       10.338600   0.000000
   40       11.085101   0.000000
 
  0.5000000E+00 -0.8326673E-16  0.3333333E+00  0.3086420E-02
    1      -11.137725   1.000000
    2      -10.824513   1.000000
    3      -10.644550   1.000000
    4      -10.606126   1.000000
    5      -10.565129   1.000000
    6      -10.506846   1.000000
    7      -10.187349   1.000000
    8      -10.145426   1.000000
    9      -10.051712   1.000000
   10      -10.030247   1.000000
   11       -8.250780   1.000000
   12       -8.026426   1.000000
   13       -7.308329   1.000000
   14       -6.795367   1.000000
   15       -2.436334   1.000000
   16       -1.924486   1.000000
   17       -1.357409   1.000000
   18       -1.328519   1.000000
   19       -1.250410   1.000000
   20       -1.066740   1.000000
   21       -0.895450   1.000000
   22       -0.426755   1.000000
   23       -0.060526   1.000000
   24        0.839809   1.000000
   25        1.067177   1.000000
   26        1.426639   1.000000
   27        1.608445   1.000000
   28        2.432652   1.000000
   29        2.934043   1.000000
   30        3.379626   1.000000
   31        3.768668   1.000000
   32        5.665879   0.000000
   33        6.292044   0.000000
   34        6.928382   0.000000
   35        8.494348   0.000000
   36        8.611439   0.000000
   37        9.593312   0.000000
   38        9.798015   0.000000
   39       10.335658   0.000000
   40       11.049734   0.000000
 
 -0.4444444E+00  0.0000000E+00  0.3333333E+00  0.3086420E-02
    1      -11.130981   1.000000
    2      -10.821507   1.000000
    3      -10.645694   1.000000
    4      -10.602924   1.000000
    5      -10.562028   1.000000
    6      -10.508960   1.000000
    7      -10.187737   1.000000
    8      -10.144285   1.000000
    9      -10.054687   1.000000
   10      -10.032978   1.000000
   11       -8.313329   1.000000
   12       -8.066597   1.000000
   13       -7.323297   1.000000
   14       -6.813841   1.000000
   15       -2.374584   1.000000
   16       -1.859242   1.000000
   17       -1.358680   1.000000
   18       -1.334159   1.000000
   19       -1.244388   1.000000
   20       -1.069625   1.000000
   21       -0.964881   1.000000
   22       -0.322068   1.000000
   23        0.016233   1.000000
   24        0.857147   1.000000
   25        1.095735   1.000000
   26        1.453881   1.000000
   27        1.579642   1.000000
   28        2.451061   1.000000
   29        2.950836   1.000000
   30        3.402892   1.000000
   31        3.817218   1.000000
   32        5.735068   0.000000
   33        6.266011   0.000000
   34        6.914075   0.000000
   35        8.520178   0.000000
   36        8.708429   0.000000
   37        9.607811   0.000000
   38        9.807143   0.000000
   39       10.369407   0.000000
   40       11.062426   0.000000
 
 -0.3888889E+00  0.0000000E+00  0.3333333E+00  0.3086420E-02
    1      -11.111238   1.000000
    2      -10.813943   1.000000
    3      -10.649350   1.000000
    4      -10.594686   1.000000
    5      -10.550263   1.000000
    6      -10.514638   1.000000
    7      -10.189155   1.000000
    8      -10.141114   1.000000
    9      -10.063390   1.000000
   10      -10.040494   1.000000
   11       -8.475697   1.000000
   12       -8.182014   1.000000
   13       -7.373877   1.000000
   14       -6.867925   1.000000
   15       -2.221129   1.000000
   16       -1.677039   1.000000
   17       -1.364110   1.000000
   18       -1.351058   1.000000
   19       -1.222056   1.000000
   20       -1.076770   1.000000
   21       -1.047370   1.000000
   22       -0.132880   1.000000
   23        0.236422   1.000000
   24        0.871669   1.000000
   25        1.177755   1.000000
   26        1.536649   1.000000
   27        1.590641   1.000000
   28        2.516406   1.000000
   29        2.990302   1.000000
   30        3.478649   1.000000
   31        3.894336   1.000000
   32        5.855904   0.000000
   33        6.256431   0.000000
   34        6.989220   0.000000
   35        8.591295   0.000000
   36        8.844749   0.000000
   37        9.708317   0.000000
   38        9.819165   0.000000
   39       10.431453   0.000000
   40       11.087862   0.000000
 
 -0.3333333E+00  0.0000000E+00  0.3333333E+00  0.3086420E-02
    1      -11.080039   1.000000
    2      -10.805094   1.000000
    3      -10.656025   1.000000
    4      -10.585278   1.000000
    5      -10.523664   1.000000
    6      -10.522184   1.000000
    7      -10.192289   1.000000
    8      -10.136821   1.000000
    9      -10.076882   1.000000
   10      -10.050956   1.000000
   11       -8.690989   1.000000
   12       -8.352880   1.000000
   13       -7.465215   1.000000
   14       -6.951583   1.000000
   15       -2.056761   1.000000
   16       -1.506533   1.000000
   17       -1.378455   1.000000
   18       -1.324811   1.000000
   19       -1.177809   1.000000
   20       -1.084915   1.000000
   21       -1.000094   1.000000
   22        0.081105   1.000000
   23        0.483715   1.000000
   24        0.999507   1.000000
   25        1.307065   1.000000
   26        1.653699   1.000000
   27        1.669812   1.000000
   28        2.633485   1.000000
   29        3.040118   1.000000
   30        3.606935   1.000000
   31        3.966236   1.000000
   32        5.970448   0.000000
   33        6.313780   0.000000
   34        7.153806   0.000000
   35        8.672720   0.000000
   36        8.980414   0.000000
   37        9.814471   0.000000
   38        9.874678   0.000000
   39       10.454655   0.000000
   40       11.048959   0.000000
 
 -0.2777778E+00  0.2775558E-16  0.3333333E+00  0.3086420E-02
    1      -11.040433   1.000000
    2      -10.797062   1.000000
    3      -10.665969   1.000000
    4      -10.576704   1.000000
    5      -10.529532   1.000000
    6      -10.479544   1.000000
    7      -10.197930   1.000000
    8      -10.134131   1.000000
    9      -10.092215   1.000000
   10      -10.061823   1.000000
   11       -8.923298   1.000000
   12       -8.546276   1.000000
   13       -7.591692   1.000000
   14       -7.053589   1.000000
   15       -1.959868   1.000000
   16       -1.500912   1.000000
   17       -1.413645   1.000000
   18       -1.232182   1.000000
   19       -1.133827   1.000000
   20       -1.091372   1.000000
   21       -0.700364   1.000000
   22        0.334342   1.000000
   23        0.686630   1.000000
   24        1.277335   1.000000
   25        1.473056   1.000000
   26        1.824387   1.000000
   27        1.844860   1.000000
   28        2.799812   1.000000
   29        3.087942   1.000000
   30        3.780148   1.000000
   31        4.007622   1.000000
   32        6.011313   0.000000
   33        6.475962   0.000000
   34        7.394690   0.000000
   35        8.681667   0.000000
   36        9.068189   0.000000
   37        9.763834   0.000000
   38        9.938771   0.000000
   39       10.357355   0.000000
   40       10.985218   0.000000
 
 -0.2222222E+00  0.0000000E+00  0.3333333E+00  0.3086420E-02
    1      -10.997881   1.000000
    2      -10.788117   1.000000
    3      -10.678498   1.000000
    4      -10.568390   1.000000
    5      -10.535222   1.000000
    6      -10.421875   1.000000
    7      -10.206283   1.000000
    8      -10.140982   1.000000
    9      -10.100826   1.000000
   10      -10.070837   1.000000
   11       -9.148298   1.000000
   12       -8.732837   1.000000
   13       -7.737309   1.000000
   14       -7.160354   1.000000
   15       -1.940642   1.000000
   16       -1.522274   1.000000
   17       -1.451979   1.000000
   18       -1.187404   1.000000
   19       -1.098670   1.000000
   20       -1.095228   1.000000
   21       -0.320056   1.000000
   22        0.635995   1.000000
   23        0.950886   1.000000
   24        1.616818   1.000000
   25        1.660244   1.000000
   26        2.049874   1.000000
   27        2.088597   1.000000
   28        3.050133   1.000000
   29        3.123664   1.000000
   30        3.981152   1.000000
   31        4.001797   1.000000
   32        5.975739   0.000000
   33        6.665963   0.000000
   34        7.683951   0.000000
   35        8.540650   0.000000
   36        9.037258   0.000000
   37        9.559623   0.000000
   38        9.644694   0.000000
   39       10.392202   0.000000
   40       10.656522   0.000000
 
 -0.1666667E+00  0.0000000E+00  0.3333333E+00  0.3086420E-02
    1      -10.960763   1.000000
    2      -10.773028   1.000000
    3      -10.691827   1.000000
    4      -10.559970   1.000000
    5      -10.538837   1.000000
    6      -10.358525   1.000000
    7      -10.216333   1.000000
    8      -10.160363   1.000000
    9      -10.098301   1.000000
   10      -10.076907   1.000000
   11       -9.348776   1.000000
   12       -8.891775   1.000000
   13       -7.881841   1.000000
   14       -7.258539   1.000000
   15       -1.964927   1.000000
   16       -1.535898   1.000000
   17       -1.488152   1.000000
   18       -1.161490   1.000000
   19       -1.096908   1.000000
   20       -1.088458   1.000000
   21       -0.075191   1.000000
   22        1.017476   1.000000
   23        1.365623   1.000000
   24        1.847867   1.000000
   25        1.938408   1.000000
   26        2.269373   1.000000
   27        2.369481   1.000000
   28        3.137790   1.000000
   29        3.425449   1.000000
   30        3.939031   1.000000
   31        4.185568   1.000000
   32        5.860447   0.000000
   33        6.737277   0.000000
   34        7.927335   0.000000
   35        8.352471   0.000000
   36        8.771077   0.000000
   37        9.195377   0.000000
   38        9.467500   0.000000
   39       10.181375   0.000000
   40       10.301860   0.000000
 
 -0.1111111E+00 -0.1387779E-16  0.3333333E+00  0.3086420E-02
    1      -10.936776   1.000000
    2      -10.749133   1.000000
    3      -10.703588   1.000000
    4      -10.551717   1.000000
    5      -10.540781   1.000000
    6      -10.299621   1.000000
    7      -10.225955   1.000000
    8      -10.183046   1.000000
    9      -10.091656   1.000000
   10      -10.080306   1.000000
   11       -9.510379   1.000000
   12       -9.010578   1.000000
   13       -8.004906   1.000000
   14       -7.336917   1.000000
   15       -2.001469   1.000000
   16       -1.541587   1.000000
   17       -1.517462   1.000000
   18       -1.144723   1.000000
   19       -1.097284   1.000000
   20       -1.092677   1.000000
   21        0.006590   1.000000
   22        1.490807   1.000000
   23        1.799920   1.000000
   24        2.010653   1.000000
   25        2.196397   1.000000
   26        2.483666   1.000000
   27        2.675754   1.000000
   28        3.121671   1.000000
   29        3.730118   1.000000
   30        3.954359   1.000000
   31        4.364441   1.000000
   32        5.672853   0.000000
   33        6.580659   0.000000
   34        7.793519   0.000000
   35        8.263112   0.000000
   36        8.567797   0.000000
   37        9.131735   0.000000
   38        9.280519   0.000000
   39        9.859445   0.000000
   40        9.981827   0.000000
 
 -0.5555556E-01 -0.6938894E-17  0.3333333E+00  0.3086420E-02
    1      -10.925903   1.000000
    2      -10.724814   1.000000
    3      -10.711624   1.000000
    4      -10.544809   1.000000
    5      -10.541643   1.000000
    6      -10.255417   1.000000
    7      -10.232844   1.000000
    8      -10.202932   1.000000
    9      -10.085168   1.000000
   10      -10.081861   1.000000
   11       -9.618083   1.000000
   12       -9.083212   1.000000
   13       -8.088028   1.000000
   14       -7.387262   1.000000
   15       -2.030526   1.000000
   16       -1.542927   1.000000
   17       -1.536434   1.000000
   18       -1.137519   1.000000
   19       -1.097162   1.000000
   20       -1.096601   1.000000
   21        0.020724   1.000000
   22        1.888185   1.000000
   23        2.045372   1.000000
   24        2.122082   1.000000
   25        2.526614   1.000000
   26        2.665264   1.000000
   27        2.939940   1.000000
   28        3.074257   1.000000
   29        3.546154   1.000000
   30        4.344076   1.000000
   31        4.488062   1.000000
   32        5.461536   0.000000
   33        6.344103   0.000000
   34        7.446051   0.000000
   35        7.969224   0.000000
   36        8.816899   0.000000
   37        9.142118   0.000000
   38        9.216952   0.000000
   39        9.676416   0.000000
   40        9.760182   0.000000
 
  0.5555556E-01  0.5555556E-01  0.3333333E+00  0.6172840E-02
    1      -10.932749   1.000000
    2      -10.742021   1.000000
    3      -10.706237   1.000000
    4      -10.549570   1.000000
    5      -10.541178   1.000000
    6      -10.284647   1.000000
    7      -10.230625   1.000000
    8      -10.187696   1.000000
    9      -10.089740   1.000000
   10      -10.080919   1.000000
   11       -9.545272   1.000000
   12       -9.034435   1.000000
   13       -8.032006   1.000000
   14       -7.353311   1.000000
   15       -2.010666   1.000000
   16       -1.542245   1.000000
   17       -1.523661   1.000000
   18       -1.140740   1.000000
   19       -1.097357   1.000000
   20       -1.094171   1.000000
   21        0.011051   1.000000
   22        1.609301   1.000000
   23        1.910168   1.000000
   24        2.064110   1.000000
   25        2.292651   1.000000
   26        2.419045   1.000000
   27        2.918390   1.000000
   28        2.998185   1.000000
   29        3.700692   1.000000
   30        4.076181   1.000000
   31        4.398310   1.000000
   32        5.619501   0.000000
   33        6.512794   0.000000
   34        7.712776   0.000000
   35        8.164418   0.000000
   36        8.653340   0.000000
   37        9.066692   0.000000
   38        9.319869   0.000000
   39        9.752740   0.000000
   40        9.918833   0.000000
 
  0.1111111E+00  0.5555556E-01  0.3333333E+00  0.6172840E-02
    1      -10.950380   1.000000
    2      -10.765375   1.000000
    3      -10.696507   1.000000
    4      -10.556680   1.000000
    5      -10.540004   1.000000
    6      -10.333442   1.000000
    7      -10.226346   1.000000
    8      -10.165457   1.000000
    9      -10.096197   1.000000
   10      -10.078474   1.000000
   11       -9.411426   1.000000
   12       -8.937467   1.000000
   13       -7.930038   1.000000
   14       -7.288491   1.000000
   15       -1.978143   1.000000
   16       -1.538739   1.000000
   17       -1.499483   1.000000
   18       -1.150223   1.000000
   19       -1.097466   1.000000
   20       -1.087620   1.000000
   21       -0.044639   1.000000
   22        1.154241   1.000000
   23        1.672311   1.000000
   24        1.912687   1.000000
   25        1.982515   1.000000
   26        2.154814   1.000000
   27        2.677616   1.000000
   28        3.013820   1.000000
   29        3.567933   1.000000
   30        3.961880   1.000000
   31        4.234071   1.000000
   32        5.825527   0.000000
   33        6.711619   0.000000
   34        8.026007   0.000000
   35        8.247776   0.000000
   36        8.746517   0.000000
   37        8.973881   0.000000
   38        9.500624   0.000000
   39        9.929914   0.000000
   40       10.227670   0.000000
 
  0.1666667E+00  0.5555556E-01  0.3333333E+00  0.6172840E-02
    1      -10.981559   1.000000
    2      -10.783171   1.000000
    3      -10.684255   1.000000
    4      -10.564448   1.000000
    5      -10.537540   1.000000
    6      -10.392711   1.000000
    7      -10.219297   1.000000
    8      -10.143615   1.000000
    9      -10.101486   1.000000
   10      -10.073499   1.000000
   11       -9.231289   1.000000
   12       -8.796116   1.000000
   13       -7.798411   1.000000
   14       -7.199336   1.000000
   15       -1.947993   1.000000
   16       -1.528744   1.000000
   17       -1.466663   1.000000
   18       -1.166899   1.000000
   19       -1.096945   1.000000
   20       -1.084114   1.000000
   21       -0.216877   1.000000
   22        0.692990   1.000000
   23        1.336083   1.000000
   24        1.596199   1.000000
   25        1.822688   1.000000
   26        1.913724   1.000000
   27        2.368854   1.000000
   28        3.004531   1.000000
   29        3.205560   1.000000
   30        4.000132   1.000000
   31        4.054449   1.000000
   32        5.996523   0.000000
   33        6.753812   0.000000
   34        7.856901   0.000000
   35        8.563532   0.000000
   36        8.970628   0.000000
   37        9.110273   0.000000
   38        9.728968   0.000000
   39       10.174354   0.000000
   40       10.596352   0.000000
 
  0.2222222E+00  0.5555556E-01  0.3333333E+00  0.6172840E-02
    1      -11.021766   1.000000
    2      -10.793428   1.000000
    3      -10.671761   1.000000
    4      -10.572212   1.000000
    5      -10.533280   1.000000
    6      -10.451898   1.000000
    7      -10.211635   1.000000
    8      -10.130948   1.000000
    9      -10.099320   1.000000
   10      -10.065383   1.000000
   11       -9.018803   1.000000
   12       -8.619911   1.000000
   13       -7.656149   1.000000
   14       -7.095824   1.000000
   15       -1.944946   1.000000
   16       -1.508230   1.000000
   17       -1.429333   1.000000
   18       -1.193721   1.000000
   19       -1.104572   1.000000
   20       -1.091681   1.000000
   21       -0.541650   1.000000
   22        0.326871   1.000000
   23        0.999081   1.000000
   24        1.361551   1.000000
   25        1.581508   1.000000
   26        1.682642   1.000000
   27        2.105613   1.000000
   28        2.838092   1.000000
   29        3.044105   1.000000
   30        3.806477   1.000000
   31        4.042030   1.000000
   32        6.073309   0.000000
   33        6.634620   0.000000
   34        7.630677   0.000000
   35        8.743387   0.000000
   36        9.061416   0.000000
   37        9.406906   0.000000
   38        9.995404   0.000000
   39       10.269886   0.000000
   40       10.777831   0.000000
 
  0.2777778E+00  0.5555556E-01  0.3333333E+00  0.6172840E-02
    1      -11.062635   1.000000
    2      -10.800713   1.000000
    3      -10.661071   1.000000
    4      -10.579932   1.000000
    5      -10.527428   1.000000
    6      -10.501705   1.000000
    7      -10.205379   1.000000
    8      -10.131534   1.000000
    9      -10.086403   1.000000
   10      -10.055016   1.000000
   11       -8.788978   1.000000
   12       -8.426063   1.000000
   13       -7.522816   1.000000
   14       -6.990858   1.000000
   15       -2.002163   1.000000
   16       -1.477009   1.000000
   17       -1.392695   1.000000
   18       -1.269280   1.000000
   19       -1.146483   1.000000
   20       -1.087338   1.000000
   21       -0.889826   1.000000
   22        0.070491   1.000000
   23        0.717175   1.000000
   24        1.090354   1.000000
   25        1.318887   1.000000
   26        1.543088   1.000000
   27        1.927605   1.000000
   28        2.642334   1.000000
   29        2.991805   1.000000
   30        3.610852   1.000000
   31        3.994533   1.000000
   32        6.021521   0.000000
   33        6.511994   0.000000
   34        7.432651   0.000000
   35        8.753717   0.000000
   36        8.995294   0.000000
   37        9.588709   0.000000
   38       10.068315   0.000000
   39       10.369771   0.000000
   40       10.922900   0.000000
 
  0.3333333E+00  0.5555556E-01  0.3333333E+00  0.6172840E-02
    1      -11.097592   1.000000
    2      -10.808469   1.000000
    3      -10.653315   1.000000
    4      -10.588198   1.000000
    5      -10.538000   1.000000
    6      -10.518868   1.000000
    7      -10.201318   1.000000
    8      -10.136135   1.000000
    9      -10.071679   1.000000
   10      -10.044859   1.000000
   11       -8.561744   1.000000
   12       -8.240512   1.000000
   13       -7.416040   1.000000
   14       -6.898473   1.000000
   15       -2.135511   1.000000
   16       -1.532348   1.000000
   17       -1.397043   1.000000
   18       -1.361179   1.000000
   19       -1.190008   1.000000
   20       -1.083106   1.000000
   21       -1.032107   1.000000
   22       -0.109559   1.000000
   23        0.449729   1.000000
   24        0.827677   1.000000
   25        1.154078   1.000000
   26        1.444776   1.000000
   27        1.834439   1.000000
   28        2.507442   1.000000
   29        2.942855   1.000000
   30        3.451586   1.000000
   31        3.916552   1.000000
   32        5.892153   0.000000
   33        6.446594   0.000000
   34        7.270253   0.000000
   35        8.686493   0.000000
   36        8.855917   0.000000
   37        9.643474   0.000000
   38        9.923489   0.000000
   39       10.435344   0.000000
   40       11.101637   0.000000
 
  0.3888889E+00  0.5555556E-01  0.3333333E+00  0.6172840E-02
    1      -11.122663   1.000000
    2      -10.816368   1.000000
    3      -10.648561   1.000000
    4      -10.596871   1.000000
    5      -10.556046   1.000000
    6      -10.512853   1.000000
    7      -10.199157   1.000000
    8      -10.140266   1.000000
    9      -10.059743   1.000000
   10      -10.037303   1.000000
   11       -8.366297   1.000000
   12       -8.096192   1.000000
   13       -7.346897   1.000000
   14       -6.830840   1.000000
   15       -2.299153   1.000000
   16       -1.763294   1.000000
   17       -1.373106   1.000000
   18       -1.340218   1.000000
   19       -1.226997   1.000000
   20       -1.077895   1.000000
   21       -0.994737   1.000000
   22       -0.262996   1.000000
   23        0.164004   1.000000
   24        0.744406   1.000000
   25        1.041853   1.000000
   26        1.380228   1.000000
   27        1.769956   1.000000
   28        2.429578   1.000000
   29        2.902968   1.000000
   30        3.340267   1.000000
   31        3.841726   1.000000
   32        5.782166   0.000000
   33        6.407159   0.000000
   34        7.136915   0.000000
   35        8.627860   0.000000
   36        8.738257   0.000000
   37        9.624713   0.000000
   38        9.799618   0.000000
   39       10.417469   0.000000
   40       11.136173   0.000000
 
  0.4444444E+00  0.5555556E-01  0.3333333E+00  0.6172840E-02
    1      -11.135681   1.000000
    2      -10.821557   1.000000
    3      -10.646364   1.000000
    4      -10.602685   1.000000
    5      -10.562850   1.000000
    6      -10.509113   1.000000
    7      -10.198279   1.000000
    8      -10.142576   1.000000
    9      -10.052961   1.000000
   10      -10.033493   1.000000
   11       -8.245162   1.000000
   12       -8.021614   1.000000
   13       -7.315301   1.000000
   14       -6.795502   1.000000
   15       -2.408960   1.000000
   16       -1.900807   1.000000
   17       -1.357081   1.000000
   18       -1.329294   1.000000
   19       -1.244171   1.000000
   20       -1.071527   1.000000
   21       -0.906864   1.000000
   22       -0.393389   1.000000
   23       -0.020233   1.000000
   24        0.756275   1.000000
   25        0.984090   1.000000
   26        1.372836   1.000000
   27        1.683181   1.000000
   28        2.404961   1.000000
   29        2.879978   1.000000
   30        3.282447   1.000000
   31        3.805777   1.000000
   32        5.738872   0.000000
   33        6.376023   0.000000
   34        7.036245   0.000000
   35        8.611394   0.000000
   36        8.689892   0.000000
   37        9.564817   0.000000
   38        9.763000   0.000000
   39       10.396395   0.000000
   40       11.072423   0.000000
 
  0.5000000E+00  0.5555556E-01  0.3333333E+00  0.6172840E-02
    1      -11.135677   1.000000
    2      -10.821568   1.000000
    3      -10.646365   1.000000
    4      -10.602704   1.000000
    5      -10.562824   1.000000
    6      -10.509111   1.000000
    7      -10.198280   1.000000
    8      -10.142578   1.000000
    9      -10.052961   1.000000
   10      -10.033490   1.000000
   11       -8.244046   1.000000
   12       -8.023316   1.000000
   13       -7.314570   1.000000
   14       -6.795571   1.000000
   15       -2.408166   1.000000
   16       -1.904211   1.000000
   17       -1.355124   1.000000
   18       -1.327873   1.000000
   19       -1.245484   1.000000
   20       -1.071650   1.000000
   21       -0.910299   1.000000
   22       -0.384211   1.000000
   23       -0.028798   1.000000
   24        0.771988   1.000000
   25        0.985003   1.000000
   26        1.420422   1.000000
   27        1.599962   1.000000
   28        2.420138   1.000000
   29        2.874412   1.000000
   30        3.280749   1.000000
   31        3.827270   1.000000
   32        5.771792   0.000000
   33        6.345155   0.000000
   34        6.991797   0.000000
   35        8.623744   0.000000
   36        8.737771   0.000000
   37        9.544103   0.000000
   38        9.766469   0.000000
   39       10.400322   0.000000
   40       11.064031   0.000000
 
 -0.4444444E+00  0.5555556E-01  0.3333333E+00  0.6172840E-02
    1      -11.122657   1.000000
    2      -10.816402   1.000000
    3      -10.648562   1.000000
    4      -10.596922   1.000000
    5      -10.555970   1.000000
    6      -10.512852   1.000000
    7      -10.199158   1.000000
    8      -10.140264   1.000000
    9      -10.059743   1.000000
   10      -10.037300   1.000000
   11       -8.363666   1.000000
   12       -8.100572   1.000000
   13       -7.344226   1.000000
   14       -6.831613   1.000000
   15       -2.296483   1.000000
   16       -1.776227   1.000000
   17       -1.361571   1.000000
   18       -1.336038   1.000000
   19       -1.232674   1.000000
   20       -1.078996   1.000000
   21       -1.005530   1.000000
   22       -0.223597   1.000000
   23        0.127397   1.000000
   24        0.781146   1.000000
   25        1.043035   1.000000
   26        1.481058   1.000000
   27        1.581800   1.000000
   28        2.476360   1.000000
   29        2.888328   1.000000
   30        3.334631   1.000000
   31        3.892475   1.000000
   32        5.869073   0.000000
   33        6.317675   0.000000
   34        7.029465   0.000000
   35        8.669882   0.000000
   36        8.855916   0.000000
   37        9.588076   0.000000
   38        9.790111   0.000000
   39       10.431306   0.000000
   40       11.071074   0.000000
 
 -0.3888889E+00  0.5555556E-01  0.3333333E+00  0.6172840E-02
    1      -11.097581   1.000000
    2      -10.808518   1.000000
    3      -10.653314   1.000000
    4      -10.588264   1.000000
    5      -10.537912   1.000000
    6      -10.518863   1.000000
    7      -10.201318   1.000000
    8      -10.136136   1.000000
    9      -10.071679   1.000000
   10      -10.044856   1.000000
   11       -8.558649   1.000000
   12       -8.246034   1.000000
   13       -7.411533   1.000000
   14       -6.900437   1.000000
   15       -2.130834   1.000000
   16       -1.570389   1.000000
   17       -1.370267   1.000000
   18       -1.347745   1.000000
   19       -1.198867   1.000000
   20       -1.084953   1.000000
   21       -1.045830   1.000000
   22       -0.025600   1.000000
   23        0.371971   1.000000
   24        0.851260   1.000000
   25        1.155727   1.000000
   26        1.513481   1.000000
   27        1.683902   1.000000
   28        2.578069   1.000000
   29        2.921865   1.000000
   30        3.442036   1.000000
   31        3.968627   1.000000
   32        5.990505   0.000000
   33        6.329565   0.000000
   34        7.155418   0.000000
   35        8.739693   0.000000
   36        9.000560   0.000000
   37        9.650675   0.000000
   38        9.861865   0.000000
   39       10.456666   0.000000
   40       11.046499   0.000000
 
 -0.3333333E+00  0.5555556E-01  0.3333333E+00  0.6172840E-02
    1      -11.062620   1.000000
    2      -10.800766   1.000000
    3      -10.661070   1.000000
    4      -10.579977   1.000000
    5      -10.527427   1.000000
    6      -10.501647   1.000000
    7      -10.205379   1.000000
    8      -10.131532   1.000000
    9      -10.086403   1.000000
   10      -10.055015   1.000000
   11       -8.786196   1.000000
   12       -8.431184   1.000000
   13       -7.517928   1.000000
   14       -6.993368   1.000000
   15       -1.997012   1.000000
   16       -1.490200   1.000000
   17       -1.392995   1.000000
   18       -1.273856   1.000000
   19       -1.154509   1.000000
   20       -1.087989   1.000000
   21       -0.883520   1.000000
   22        0.200634   1.000000
   23        0.583988   1.000000
   24        1.064633   1.000000
   25        1.328225   1.000000
   26        1.573936   1.000000
   27        1.884046   1.000000
   28        2.718132   1.000000
   29        2.966031   1.000000
   30        3.598467   1.000000
   31        4.026465   1.000000
   32        6.058412   0.000000
   33        6.442838   0.000000
   34        7.360574   0.000000
   35        8.776207   0.000000
   36        9.118942   0.000000
   37        9.632811   0.000000
   38        9.999244   0.000000
   39       10.378277   0.000000
   40       10.921167   0.000000
 
 -0.2777778E+00  0.5555556E-01  0.3333333E+00  0.6172840E-02
    1      -11.021747   1.000000
    2      -10.793476   1.000000
    3      -10.671760   1.000000
    4      -10.572235   1.000000
    5      -10.533280   1.000000
    6      -10.451886   1.000000
    7      -10.211632   1.000000
    8      -10.130949   1.000000
    9      -10.099317   1.000000
   10      -10.065383   1.000000
   11       -9.016774   1.000000
   12       -8.623646   1.000000
   13       -7.652369   1.000000
   14       -7.097891   1.000000
   15       -1.941450   1.000000
   16       -1.509508   1.000000
   17       -1.429333   1.000000
   18       -1.207093   1.000000
   19       -1.113763   1.000000
   20       -1.093312   1.000000
   21       -0.521941   1.000000
   22        0.470434   1.000000
   23        0.797692   1.000000
   24        1.342664   1.000000
   25        1.577280   1.000000
   26        1.708665   1.000000
   27        2.151584   1.000000
   28        2.904770   1.000000
   29        3.011155   1.000000
   30        3.791562   1.000000
   31        4.048416   1.000000
   32        6.047769   0.000000
   33        6.629129   0.000000
   34        7.627806   0.000000
   35        8.686537   0.000000
   36        9.130629   0.000000
   37        9.479792   0.000000
   38        9.933951   0.000000
   39       10.310880   0.000000
   40       10.771634   0.000000
 
 -0.2222222E+00  0.5555556E-01  0.3333333E+00  0.6172840E-02
    1      -10.981541   1.000000
    2      -10.783203   1.000000
    3      -10.684252   1.000000
    4      -10.564460   1.000000
    5      -10.537541   1.000000
    6      -10.392732   1.000000
    7      -10.219291   1.000000
    8      -10.143611   1.000000
    9      -10.101488   1.000000
   10      -10.073501   1.000000
   11       -9.230138   1.000000
   12       -8.798200   1.000000
   13       -7.796304   1.000000
   14       -7.200495   1.000000
   15       -1.946406   1.000000
   16       -1.528628   1.000000
   17       -1.466659   1.000000
   18       -1.174278   1.000000
   19       -1.096809   1.000000
   20       -1.089701   1.000000
   21       -0.195784   1.000000
   22        0.787030   1.000000
   23        1.132089   1.000000
   24        1.626847   1.000000
   25        1.841132   1.000000
   26        1.909342   1.000000
   27        2.439254   1.000000
   28        3.016893   1.000000
   29        3.211521   1.000000
   30        3.967238   1.000000
   31        4.058435   1.000000
   32        5.966763   0.000000
   33        6.769091   0.000000
   34        7.911295   0.000000
   35        8.489009   0.000000
   36        8.894587   0.000000
   37        9.226384   0.000000
   38        9.698411   0.000000
   39       10.205530   0.000000
   40       10.622180   0.000000
 
 -0.1666667E+00  0.5555556E-01  0.3333333E+00  0.6172840E-02
    1      -10.950373   1.000000
    2      -10.765388   1.000000
    3      -10.696507   1.000000
    4      -10.556683   1.000000
    5      -10.540002   1.000000
    6      -10.333473   1.000000
    7      -10.226345   1.000000
    8      -10.165448   1.000000
    9      -10.096199   1.000000
   10      -10.078472   1.000000
   11       -9.411010   1.000000
   12       -8.938194   1.000000
   13       -7.929324   1.000000
   14       -7.288877   1.000000
   15       -1.977704   1.000000
   16       -1.538658   1.000000
   17       -1.499481   1.000000
   18       -1.153148   1.000000
   19       -1.097424   1.000000
   20       -1.088537   1.000000
   21       -0.035075   1.000000
   22        1.191939   1.000000
   23        1.557340   1.000000
   24        1.902028   1.000000
   25        2.066801   1.000000
   26        2.130016   1.000000
   27        2.716239   1.000000
   28        3.011206   1.000000
   29        3.589086   1.000000
   30        3.927629   1.000000
   31        4.232494   1.000000
   32        5.814223   0.000000
   33        6.722965   0.000000
   34        8.024519   0.000000
   35        8.315911   0.000000
   36        8.626986   0.000000
   37        9.009038   0.000000
   38        9.491753   0.000000
   39        9.966195   0.000000
   40       10.244287   0.000000
 
  0.1111111E+00  0.1111111E+00  0.3333333E+00  0.6172840E-02
    1      -10.975725   1.000000
    2      -10.781136   1.000000
    3      -10.686583   1.000000
    4      -10.562652   1.000000
    5      -10.538709   1.000000
    6      -10.378784   1.000000
    7      -10.229943   1.000000
    8      -10.142789   1.000000
    9      -10.101691   1.000000
   10      -10.074359   1.000000
   11       -9.258263   1.000000
   12       -8.819026   1.000000
   13       -7.818147   1.000000
   14       -7.213934   1.000000
   15       -1.949906   1.000000
   16       -1.530557   1.000000
   17       -1.471715   1.000000
   18       -1.166928   1.000000
   19       -1.097658   1.000000
   20       -1.085125   1.000000
   21       -0.164565   1.000000
   22        0.831134   1.000000
   23        1.293120   1.000000
   24        1.634020   1.000000
   25        1.745246   1.000000
   26        1.940433   1.000000
   27        2.728099   1.000000
   28        2.776571   1.000000
   29        3.286838   1.000000
   30        3.960649   1.000000
   31        4.070841   1.000000
   32        5.983821   0.000000
   33        6.826045   0.000000
   34        8.099859   0.000000
   35        8.534228   0.000000
   36        8.651252   0.000000
   37        9.130670   0.000000
   38        9.697644   0.000000
   39       10.124707   0.000000
   40       10.655207   0.000000
 
  0.1666667E+00  0.1111111E+00  0.3333333E+00  0.6172840E-02
    1      -11.010821   1.000000
    2      -10.791336   1.000000
    3      -10.675772   1.000000
    4      -10.568750   1.000000
    5      -10.536299   1.000000
    6      -10.429539   1.000000
    7      -10.231140   1.000000
    8      -10.124879   1.000000
    9      -10.105340   1.000000
   10      -10.066760   1.000000
   11       -9.064914   1.000000
   12       -8.659706   1.000000
   13       -7.688645   1.000000
   14       -7.120202   1.000000
   15       -1.936640   1.000000
   16       -1.513454   1.000000
   17       -1.437574   1.000000
   18       -1.187849   1.000000
   19       -1.101276   1.000000
   20       -1.089013   1.000000
   21       -0.425667   1.000000
   22        0.485724   1.000000
   23        1.044610   1.000000
   24        1.297971   1.000000
   25        1.490553   1.000000
   26        1.742993   1.000000
   27        2.424741   1.000000
   28        2.728789   1.000000
   29        3.041612   1.000000
   30        3.738825   1.000000
   31        4.086057   1.000000
   32        6.120112   0.000000
   33        6.796433   0.000000
   34        7.943752   0.000000
   35        8.723444   0.000000
   36        8.977152   0.000000
   37        9.275550   0.000000
   38        9.877557   0.000000
   39       10.324952   0.000000
   40       10.731055   0.000000
 
  0.2222222E+00  0.1111111E+00  0.3333333E+00  0.6172840E-02
    1      -11.049306   1.000000
    2      -10.797560   1.000000
    3      -10.666006   1.000000
    4      -10.574680   1.000000
    5      -10.532571   1.000000
    6      -10.477545   1.000000
    7      -10.230334   1.000000
    8      -10.121719   1.000000
    9      -10.097903   1.000000
   10      -10.056655   1.000000
   11       -8.844677   1.000000
   12       -8.473797   1.000000
   13       -7.559748   1.000000
   14       -7.018867   1.000000
   15       -1.964801   1.000000
   16       -1.484862   1.000000
   17       -1.401731   1.000000
   18       -1.231365   1.000000
   19       -1.129293   1.000000
   20       -1.086899   1.000000
   21       -0.764963   1.000000
   22        0.205329   1.000000
   23        0.764887   1.000000
   24        1.081964   1.000000
   25        1.277091   1.000000
   26        1.485267   1.000000
   27        2.170114   1.000000
   28        2.587290   1.000000
   29        2.920732   1.000000
   30        3.503555   1.000000
   31        4.072296   1.000000
   32        6.174585   0.000000
   33        6.679796   0.000000
   34        7.751889   0.000000
   35        8.852930   0.000000
   36        9.257420   0.000000
   37        9.345809   0.000000
   38       10.018057   0.000000
   39       10.395358   0.000000
   40       10.751835   0.000000
 
  0.2777778E+00  0.1111111E+00  0.3333333E+00  0.6172840E-02
    1      -11.084758   1.000000
    2      -10.803045   1.000000
    3      -10.658530   1.000000
    4      -10.580652   1.000000
    5      -10.530059   1.000000
    6      -10.513487   1.000000
    7      -10.229100   1.000000
    8      -10.126492   1.000000
    9      -10.084007   1.000000
   10      -10.047214   1.000000
   11       -8.614556   1.000000
   12       -8.282962   1.000000
   13       -7.449885   1.000000
   14       -6.923082   1.000000
   15       -2.058493   1.000000
   16       -1.465972   1.000000
   17       -1.372242   1.000000
   18       -1.352750   1.000000
   19       -1.165443   1.000000
   20       -1.082160   1.000000
   21       -1.003639   1.000000
   22        0.000302   1.000000
   23        0.501702   1.000000
   24        0.873989   1.000000
   25        1.084523   1.000000
   26        1.296929   1.000000
   27        2.006426   1.000000
   28        2.436120   1.000000
   29        2.857178   1.000000
   30        3.306109   1.000000
   31        4.017017   1.000000
   32        6.124889   0.000000
   33        6.587811   0.000000
   34        7.577360   0.000000
   35        8.873193   0.000000
   36        9.222393   0.000000
   37        9.422738   0.000000
   38       10.046216   0.000000
   39       10.506508   0.000000
   40       10.775707   0.000000
 
  0.3333333E+00  0.1111111E+00  0.3333333E+00  0.6172840E-02
    1      -11.112690   1.000000
    2      -10.809031   1.000000
    3      -10.653633   1.000000
    4      -10.587209   1.000000
    5      -10.544516   1.000000
    6      -10.518522   1.000000
    7      -10.228275   1.000000
    8      -10.131344   1.000000
    9      -10.070120   1.000000
   10      -10.041184   1.000000
   11       -8.398342   1.000000
   12       -8.117066   1.000000
   13       -7.373102   1.000000
   14       -6.845593   1.000000
   15       -2.203708   1.000000
   16       -1.650998   1.000000
   17       -1.377056   1.000000
   18       -1.344334   1.000000
   19       -1.202701   1.000000
   20       -1.092526   1.000000
   21       -1.010718   1.000000
   22       -0.156880   1.000000
   23        0.251725   1.000000
   24        0.697268   1.000000
   25        0.915000   1.000000
   26        1.231623   1.000000
   27        1.903487   1.000000
   28        2.327280   1.000000
   29        2.814811   1.000000
   30        3.158806   1.000000
   31        3.943942   1.000000
   32        6.023630   0.000000
   33        6.548480   0.000000
   34        7.426595   0.000000
   35        8.838347   0.000000
   36        9.116665   0.000000
   37        9.419459   0.000000
   38        9.958541   0.000000
   39       10.507558   0.000000
   40       10.959590   0.000000
 
  0.3888889E+00  0.1111111E+00  0.3333333E+00  0.6172840E-02
    1      -11.130398   1.000000
    2      -10.814198   1.000000
    3      -10.650963   1.000000
    4      -10.593373   1.000000
    5      -10.555672   1.000000
    6      -10.515098   1.000000
    7      -10.227920   1.000000
    8      -10.134668   1.000000
    9      -10.058510   1.000000
   10      -10.039552   1.000000
   11       -8.231362   1.000000
   12       -8.009035   1.000000
   13       -7.332989   1.000000
   14       -6.795900   1.000000
   15       -2.336189   1.000000
   16       -1.838180   1.000000
   17       -1.355330   1.000000
   18       -1.330000   1.000000
   19       -1.227576   1.000000
   20       -1.085174   1.000000
   21       -0.929626   1.000000
   22       -0.301335   1.000000
   23        0.052805   1.000000
   24        0.598576   1.000000
   25        0.805236   1.000000
   26        1.257683   1.000000
   27        1.799452   1.000000
   28        2.275407   1.000000
   29        2.792218   1.000000
   30        3.067624   1.000000
   31        3.886904   1.000000
   32        5.951700   0.000000
   33        6.526314   0.000000
   34        7.308371   0.000000
   35        8.818769   0.000000
   36        9.034742   0.000000
   37        9.391517   0.000000
   38        9.883447   0.000000
   39       10.477105   0.000000
   40       11.038170   0.000000
 
  0.4444444E+00  0.1111111E+00  0.3333333E+00  0.6172840E-02
    1      -11.136451   1.000000
    2      -10.816282   1.000000
    3      -10.650129   1.000000
    4      -10.595975   1.000000
    5      -10.558750   1.000000
    6      -10.513658   1.000000
    7      -10.227841   1.000000
    8      -10.135846   1.000000
    9      -10.053133   1.000000
   10      -10.040289   1.000000
   11       -8.163717   1.000000
   12       -7.975456   1.000000
   13       -7.321442   1.000000
   14       -6.778844   1.000000
   15       -2.388566   1.000000
   16       -1.907942   1.000000
   17       -1.349657   1.000000
   18       -1.322332   1.000000
   19       -1.236190   1.000000
   20       -1.080859   1.000000
   21       -0.869027   1.000000
   22       -0.384494   1.000000
   23       -0.011587   1.000000
   24        0.559851   1.000000
   25        0.758299   1.000000
   26        1.348896   1.000000
   27        1.675733   1.000000
   28        2.283990   1.000000
   29        2.774403   1.000000
   30        3.038680   1.000000
   31        3.877025   1.000000
   32        5.945897   0.000000
   33        6.498102   0.000000
   34        7.244162   0.000000
   35        8.843017   0.000000
   36        8.998298   0.000000
   37        9.384963   0.000000
   38        9.847152   0.000000
   39       10.467175   0.000000
   40       11.025478   0.000000
 
  0.5000000E+00  0.1111111E+00  0.3333333E+00  0.6172840E-02
    1      -11.130394   1.000000
    2      -10.814218   1.000000
    3      -10.650968   1.000000
    4      -10.593409   1.000000
    5      -10.555621   1.000000
    6      -10.515091   1.000000
    7      -10.227926   1.000000
    8      -10.134669   1.000000
    9      -10.058511   1.000000
   10      -10.039544   1.000000
   11       -8.229521   1.000000
   12       -8.011881   1.000000
   13       -7.331707   1.000000
   14       -6.796066   1.000000
   15       -2.334140   1.000000
   16       -1.845791   1.000000
   17       -1.354347   1.000000
   18       -1.321834   1.000000
   19       -1.231325   1.000000
   20       -1.086294   1.000000
   21       -0.936781   1.000000
   22       -0.287842   1.000000
   23        0.070037   1.000000
   24        0.566159   1.000000
   25        0.778270   1.000000
   26        1.460093   1.000000
   27        1.571576   1.000000
   28        2.352378   1.000000
   29        2.751087   1.000000
   30        3.072037   1.000000
   31        3.919942   1.000000
   32        6.008859   0.000000
   33        6.460132   0.000000
   34        7.255710   0.000000
   35        8.884286   0.000000
   36        9.041842   0.000000
   37        9.416484   0.000000
   38        9.842148   0.000000
   39       10.478959   0.000000
   40       11.012047   0.000000
 
 -0.4444444E+00  0.1111111E+00  0.3333333E+00  0.6172840E-02
    1      -11.112685   1.000000
    2      -10.809064   1.000000
    3      -10.653632   1.000000
    4      -10.587264   1.000000
    5      -10.544440   1.000000
    6      -10.518518   1.000000
    7      -10.228278   1.000000
    8      -10.131342   1.000000
    9      -10.070120   1.000000
   10      -10.041181   1.000000
   11       -8.395840   1.000000
   12       -8.121359   1.000000
   13       -7.370242   1.000000
   14       -6.846543   1.000000
   15       -2.199841   1.000000
   16       -1.671312   1.000000
   17       -1.366926   1.000000
   18       -1.329863   1.000000
   19       -1.209865   1.000000
   20       -1.097181   1.000000
   21       -1.020433   1.000000
   22       -0.114453   1.000000
   23        0.272668   1.000000
   24        0.619557   1.000000
   25        0.873185   1.000000
   26        1.456580   1.000000
   27        1.651178   1.000000
   28        2.471614   1.000000
   29        2.735403   1.000000
   30        3.162010   1.000000
   31        3.990286   1.000000
   32        6.114198   0.000000
   33        6.438548   0.000000
   34        7.347734   0.000000
   35        8.915932   0.000000
   36        9.161347   0.000000
   37        9.472062   0.000000
   38        9.881473   0.000000
   39       10.479747   0.000000
   40       10.998981   0.000000
 
 -0.3888889E+00  0.1111111E+00  0.3333333E+00  0.6172840E-02
    1      -11.084751   1.000000
    2      -10.803083   1.000000
    3      -10.658529   1.000000
    4      -10.580698   1.000000
    5      -10.530039   1.000000
    6      -10.513443   1.000000
    7      -10.229102   1.000000
    8      -10.126491   1.000000
    9      -10.084008   1.000000
   10      -10.047213   1.000000
   11       -8.612251   1.000000
   12       -8.287155   1.000000
   13       -7.446286   1.000000
   14       -6.924728   1.000000
   15       -2.053995   1.000000
   16       -1.497222   1.000000
   17       -1.375773   1.000000
   18       -1.323453   1.000000
   19       -1.170598   1.000000
   20       -1.084559   1.000000
   21       -1.008448   1.000000
   22        0.080854   1.000000
   23        0.480331   1.000000
   24        0.777130   1.000000
   25        1.055302   1.000000
   26        1.434454   1.000000
   27        1.862037   1.000000
   28        2.618388   1.000000
   29        2.744073   1.000000
   30        3.304174   1.000000
   31        4.055065   1.000000
   32        6.185737   0.000000
   33        6.500083   0.000000
   34        7.511251   0.000000
   35        8.920939   0.000000
   36        9.267503   0.000000
   37        9.523536   0.000000
   38        9.972664   0.000000
   39       10.402605   0.000000
   40       10.886939   0.000000
 
 -0.3333333E+00  0.1111111E+00  0.3333333E+00  0.6172840E-02
    1      -11.049296   1.000000
    2      -10.797593   1.000000
    3      -10.666001   1.000000
    4      -10.574703   1.000000
    5      -10.532575   1.000000
    6      -10.477518   1.000000
    7      -10.230329   1.000000
    8      -10.121723   1.000000
    9      -10.097902   1.000000
   10      -10.056657   1.000000
   11       -8.843063   1.000000
   12       -8.476788   1.000000
   13       -7.556835   1.000000
   14       -7.020386   1.000000
   15       -1.961590   1.000000
   16       -1.488930   1.000000
   17       -1.401931   1.000000
   18       -1.240166   1.000000
   19       -1.134389   1.000000
   20       -1.088804   1.000000
   21       -0.754773   1.000000
   22        0.305869   1.000000
   23        0.659998   1.000000
   24        1.031477   1.000000
   25        1.309306   1.000000
   26        1.497500   1.000000
   27        2.143210   1.000000
   28        2.725874   1.000000
   29        2.826749   1.000000
   30        3.496486   1.000000
   31        4.091484   1.000000
   32        6.174534   0.000000
   33        6.654362   0.000000
   34        7.731792   0.000000
   35        8.829630   0.000000
   36        9.223130   0.000000
   37        9.538845   0.000000
   38       10.000218   0.000000
   39       10.279820   0.000000
   40       10.748679   0.000000
 
 -0.2777778E+00  0.1111111E+00  0.3333333E+00  0.6172840E-02
    1      -11.010813   1.000000
    2      -10.791356   1.000000
    3      -10.675772   1.000000
    4      -10.568757   1.000000
    5      -10.536297   1.000000
    6      -10.429538   1.000000
    7      -10.231139   1.000000
    8      -10.124882   1.000000
    9      -10.105337   1.000000
   10      -10.066758   1.000000
   11       -9.064162   1.000000
   12       -8.661088   1.000000
   13       -7.687242   1.000000
   14       -7.120970   1.000000
   15       -1.935378   1.000000
   16       -1.513686   1.000000
   17       -1.437565   1.000000
   18       -1.192847   1.000000
   19       -1.102639   1.000000
   20       -1.091916   1.000000
   21       -0.416071   1.000000
   22        0.551710   1.000000
   23        0.926112   1.000000
   24        1.312037   1.000000
   25        1.527987   1.000000
   26        1.713309   1.000000
   27        2.460365   1.000000
   28        2.750340   1.000000
   29        3.023002   1.000000
   30        3.730905   1.000000
   31        4.089687   1.000000
   32        6.105763   0.000000
   33        6.797713   0.000000
   34        7.972276   0.000000
   35        8.646191   0.000000
   36        8.954200   0.000000
   37        9.413164   0.000000
   38        9.849419   0.000000
   39       10.258441   0.000000
   40       10.767731   0.000000
 
  0.1666667E+00  0.1666667E+00  0.3333333E+00  0.6172840E-02
    1      -11.044231   1.000000
    2      -10.796498   1.000000
    3      -10.668049   1.000000
    4      -10.572337   1.000000
    5      -10.534898   1.000000
    6      -10.465801   1.000000
    7      -10.243615   1.000000
    8      -10.110198   1.000000
    9      -10.109776   1.000000
   10      -10.057070   1.000000
   11       -8.862441   1.000000
   12       -8.490510   1.000000
   13       -7.572127   1.000000
   14       -7.029217   1.000000
   15       -1.951329   1.000000
   16       -1.488506   1.000000
   17       -1.404790   1.000000
   18       -1.225854   1.000000
   19       -1.124911   1.000000
   20       -1.087208   1.000000
   21       -0.702313   1.000000
   22        0.317234   1.000000
   23        0.718930   1.000000
   24        1.041383   1.000000
   25        1.223765   1.000000
   26        1.517490   1.000000
   27        2.369820   1.000000
   28        2.473404   1.000000
   29        2.885059   1.000000
   30        3.436458   1.000000
   31        4.109955   1.000000
   32        6.229462   0.000000
   33        6.772542   0.000000
   34        8.002516   0.000000
   35        8.689049   0.000000
   36        9.249926   0.000000
   37        9.549132   0.000000
   38        9.920286   0.000000
   39       10.427378   0.000000
   40       10.696231   0.000000
 
  0.2222222E+00  0.1666667E+00  0.3333333E+00  0.6172840E-02
    1      -11.076788   1.000000
    2      -10.799960   1.000000
    3      -10.662138   1.000000
    4      -10.575294   1.000000
    5      -10.533682   1.000000
    6      -10.497389   1.000000
    7      -10.253848   1.000000
    8      -10.114787   1.000000
    9      -10.097127   1.000000
   10      -10.048062   1.000000
   11       -8.639622   1.000000
   12       -8.304022   1.000000
   13       -7.469128   1.000000
   14       -6.936759   1.000000
   15       -2.014173   1.000000
   16       -1.461060   1.000000
   17       -1.373595   1.000000
   18       -1.306471   1.000000
   19       -1.151915   1.000000
   20       -1.077275   1.000000
   21       -0.959719   1.000000
   22        0.111770   1.000000
   23        0.483768   1.000000
   24        0.799998   1.000000
   25        1.032254   1.000000
   26        1.308613   1.000000
   27        2.181667   1.000000
   28        2.287086   1.000000
   29        2.792812   1.000000
   30        3.181299   1.000000
   31        4.085022   1.000000
   32        6.293666   0.000000
   33        6.698721   0.000000
   34        7.930603   0.000000
   35        8.785292   0.000000
   36        9.407170   0.000000
   37        9.680144   0.000000
   38        9.962421   0.000000
   39       10.499839   0.000000
   40       10.863658   0.000000
 
  0.2777778E+00  0.1666667E+00  0.3333333E+00  0.6172840E-02
    1      -11.104394   1.000000
    2      -10.803111   1.000000
    3      -10.658296   1.000000
    4      -10.578260   1.000000
    5      -10.535927   1.000000
    6      -10.517488   1.000000
    7      -10.261365   1.000000
    8      -10.119392   1.000000
    9      -10.083812   1.000000
   10      -10.042912   1.000000
   11       -8.415387   1.000000
   12       -8.127048   1.000000
   13       -7.394026   1.000000
   14       -6.855721   1.000000
   15       -2.124729   1.000000
   16       -1.556155   1.000000
   17       -1.373074   1.000000
   18       -1.345432   1.000000
   19       -1.177374   1.000000
   20       -1.099849   1.000000
   21       -1.017646   1.000000
   22       -0.045314   1.000000
   23        0.244409   1.000000
   24        0.593642   1.000000
   25        0.863480   1.000000
   26        1.176563   1.000000
   27        2.015084   1.000000
   28        2.154968   1.000000
   29        2.729320   1.000000
   30        2.997230   1.000000
   31        4.026962   1.000000
   32        6.272514   0.000000
   33        6.643603   0.000000
   34        7.814812   0.000000
   35        8.844736   0.000000
   36        9.409726   0.000000
   37        9.652378   0.000000
   38       10.041826   0.000000
   39       10.590062   0.000000
   40       10.845887   0.000000
 
  0.3333333E+00  0.1666667E+00  0.3333333E+00  0.6172840E-02
    1      -11.124208   1.000000
    2      -10.806123   1.000000
    3      -10.656165   1.000000
    4      -10.581769   1.000000
    5      -10.544495   1.000000
    6      -10.521632   1.000000
    7      -10.266295   1.000000
    8      -10.122952   1.000000
    9      -10.070311   1.000000
   10      -10.042867   1.000000
   11       -8.217887   1.000000
   12       -7.991675   1.000000
   13       -7.354189   1.000000
   14       -6.796422   1.000000
   15       -2.247314   1.000000
   16       -1.756447   1.000000
   17       -1.353930   1.000000
   18       -1.328831   1.000000
   19       -1.204302   1.000000
   20       -1.103820   1.000000
   21       -0.948171   1.000000
   22       -0.180320   1.000000
   23        0.062172   1.000000
   24        0.414453   1.000000
   25        0.699909   1.000000
   26        1.168726   1.000000
   27        1.888136   1.000000
   28        2.063138   1.000000
   29        2.691454   1.000000
   30        2.887333   1.000000
   31        3.962217   1.000000
   32        6.206431   0.000000
   33        6.627419   0.000000
   34        7.701213   0.000000
   35        8.866834   0.000000
   36        9.406109   0.000000
   37        9.529643   0.000000
   38       10.056428   0.000000
   39       10.557048   0.000000
   40       11.031380   0.000000
 
  0.3888889E+00  0.1666667E+00  0.3333333E+00  0.6172840E-02
    1      -11.134521   1.000000
    2      -10.808099   1.000000
    3      -10.655254   1.000000
    4      -10.584602   1.000000
    5      -10.549628   1.000000
    6      -10.521352   1.000000
    7      -10.268755   1.000000
    8      -10.124885   1.000000
    9      -10.058302   1.000000
   10      -10.047663   1.000000
   11       -8.089973   1.000000
   12       -7.925726   1.000000
   13       -7.341926   1.000000
   14       -6.765367   1.000000
   15       -2.327145   1.000000
   16       -1.878476   1.000000
   17       -1.345161   1.000000
   18       -1.318288   1.000000
   19       -1.218379   1.000000
   20       -1.095236   1.000000
   21       -0.856384   1.000000
   22       -0.315867   1.000000
   23        0.004253   1.000000
   24        0.302953   1.000000
   25        0.573598   1.000000
   26        1.248395   1.000000
   27        1.764998   1.000000
   28        2.031966   1.000000
   29        2.663747   1.000000
   30        2.847491   1.000000
   31        3.924786   1.000000
   32        6.168473   0.000000
   33        6.614720   0.000000
   34        7.624528   0.000000
   35        8.881179   0.000000
   36        9.403938   0.000000
   37        9.457352   0.000000
   38       10.029900   0.000000
   39       10.544614   0.000000
   40       11.117214   0.000000
 
  0.4444444E+00  0.1666667E+00  0.3333333E+00  0.6172840E-02
    1      -11.134521   1.000000
    2      -10.808107   1.000000
    3      -10.655251   1.000000
    4      -10.584617   1.000000
    5      -10.549605   1.000000
    6      -10.521356   1.000000
    7      -10.268752   1.000000
    8      -10.124885   1.000000
    9      -10.058308   1.000000
   10      -10.047660   1.000000
   11       -8.089062   1.000000
   12       -7.927002   1.000000
   13       -7.341551   1.000000
   14       -6.765331   1.000000
   15       -2.325928   1.000000
   16       -1.882023   1.000000
   17       -1.346398   1.000000
   18       -1.313369   1.000000
   19       -1.219526   1.000000
   20       -1.095875   1.000000
   21       -0.860559   1.000000
   22       -0.316779   1.000000
   23        0.046821   1.000000
   24        0.283574   1.000000
   25        0.523112   1.000000
   26        1.368045   1.000000
   27        1.633056   1.000000
   28        2.078751   1.000000
   29        2.651900   1.000000
   30        2.848860   1.000000
   31        3.937495   1.000000
   32        6.190898   0.000000
   33        6.587094   0.000000
   34        7.610120   0.000000
   35        8.893725   0.000000
   36        9.374828   0.000000
   37        9.502578   0.000000
   38       10.003083   0.000000
   39       10.576659   0.000000
   40       11.110649   0.000000
 
  0.5000000E+00  0.1666667E+00  0.3333333E+00  0.6172840E-02
    1      -11.124207   1.000000
    2      -10.806140   1.000000
    3      -10.656164   1.000000
    4      -10.581808   1.000000
    5      -10.544443   1.000000
    6      -10.521630   1.000000
    7      -10.266299   1.000000
    8      -10.122949   1.000000
    9      -10.070314   1.000000
   10      -10.042864   1.000000
   11       -8.216179   1.000000
   12       -7.994394   1.000000
   13       -7.352885   1.000000
   14       -6.796622   1.000000
   15       -2.244280   1.000000
   16       -1.767297   1.000000
   17       -1.354709   1.000000
   18       -1.315499   1.000000
   19       -1.207293   1.000000
   20       -1.107203   1.000000
   21       -0.955588   1.000000
   22       -0.182606   1.000000
   23        0.178000   1.000000
   24        0.343626   1.000000
   25        0.575155   1.000000
   26        1.442417   1.000000
   27        1.594165   1.000000
   28        2.189909   1.000000
   29        2.648248   1.000000
   30        2.895994   1.000000
   31        3.991143   1.000000
   32        6.266027   0.000000
   33        6.554489   0.000000
   34        7.663595   0.000000
   35        8.895706   0.000000
   36        9.402482   0.000000
   37        9.576065   0.000000
   38       10.011153   0.000000
   39       10.597544   0.000000
   40       11.082133   0.000000
 
 -0.4444444E+00  0.1666667E+00  0.3333333E+00  0.6172840E-02
    1      -11.104389   1.000000
    2      -10.803130   1.000000
    3      -10.658291   1.000000
    4      -10.578299   1.000000
    5      -10.535899   1.000000
    6      -10.517468   1.000000
    7      -10.261367   1.000000
    8      -10.119393   1.000000
    9      -10.083814   1.000000
   10      -10.042913   1.000000
   11       -8.413855   1.000000
   12       -8.129740   1.000000
   13       -7.392139   1.000000
   14       -6.856380   1.000000
   15       -2.121447   1.000000
   16       -1.576544   1.000000
   17       -1.368996   1.000000
   18       -1.328009   1.000000
   19       -1.179418   1.000000
   20       -1.106012   1.000000
   21       -1.022455   1.000000
   22       -0.026321   1.000000
   23        0.366915   1.000000
   24        0.461881   1.000000
   25        0.755381   1.000000
   26        1.377445   1.000000
   27        1.791194   1.000000
   28        2.328191   1.000000
   29        2.658957   1.000000
   30        3.007883   1.000000
   31        4.054328   1.000000
   32        6.330586   0.000000
   33        6.569323   0.000000
   34        7.772451   0.000000
   35        8.871846   0.000000
   36        9.456489   0.000000
   37        9.644818   0.000000
   38       10.065610   0.000000
   39       10.523631   0.000000
   40       10.953338   0.000000
 
 -0.3888889E+00  0.1666667E+00  0.3333333E+00  0.6172840E-02
    1      -11.076788   1.000000
    2      -10.799974   1.000000
    3      -10.662135   1.000000
    4      -10.575308   1.000000
    5      -10.533681   1.000000
    6      -10.497371   1.000000
    7      -10.253850   1.000000
    8      -10.114784   1.000000
    9      -10.097129   1.000000
   10      -10.048062   1.000000
   11       -8.638764   1.000000
   12       -8.305596   1.000000
   13       -7.467748   1.000000
   14       -6.937398   1.000000
   15       -2.012260   1.000000
   16       -1.469229   1.000000
   17       -1.375460   1.000000
   18       -1.301249   1.000000
   19       -1.153260   1.000000
   20       -1.079185   1.000000
   21       -0.958131   1.000000
   22        0.146307   1.000000
   23        0.502789   1.000000
   24        0.722051   1.000000
   25        1.014946   1.000000
   26        1.370966   1.000000
   27        2.068353   1.000000
   28        2.425833   1.000000
   29        2.740895   1.000000
   30        3.184636   1.000000
   31        4.098870   1.000000
   32        6.307310   0.000000
   33        6.672976   0.000000
   34        7.909943   0.000000
   35        8.789723   0.000000
   36        9.445395   0.000000
   37        9.658600   0.000000
   38       10.061561   0.000000
   39       10.403504   0.000000
   40       10.741813   0.000000
 
  0.2222222E+00  0.2222222E+00  0.3333333E+00  0.6172840E-02
    1      -11.101134   1.000000
    2      -10.800937   1.000000
    3      -10.660149   1.000000
    4      -10.574404   1.000000
    5      -10.536582   1.000000
    6      -10.511345   1.000000
    7      -10.276796   1.000000
    8      -10.110558   1.000000
    9      -10.093329   1.000000
   10      -10.043367   1.000000
   11       -8.420232   1.000000
   12       -8.130556   1.000000
   13       -7.401380   1.000000
   14       -6.859578   1.000000
   15       -2.092879   1.000000
   16       -1.529750   1.000000
   17       -1.366603   1.000000
   18       -1.338481   1.000000
   19       -1.165038   1.000000
   20       -1.101221   1.000000
   21       -1.022014   1.000000
   22        0.009890   1.000000
   23        0.273602   1.000000
   24        0.473610   1.000000
   25        0.804297   1.000000
   26        1.267153   1.000000
   27        1.953656   1.000000
   28        2.160936   1.000000
   29        2.655858   1.000000
   30        2.951007   1.000000
   31        4.066766   1.000000
   32        6.391008   0.000000
   33        6.659300   0.000000
   34        8.021961   0.000000
   35        8.760765   0.000000
   36        9.531645   0.000000
   37        9.792316   0.000000
   38       10.237000   0.000000
   39       10.540868   0.000000
   40       10.935801   0.000000
 
  0.2777778E+00  0.2222222E+00  0.3333333E+00  0.6172840E-02
    1      -11.120057   1.000000
    2      -10.801090   1.000000
    3      -10.659511   1.000000
    4      -10.573226   1.000000
    5      -10.539447   1.000000
    6      -10.520627   1.000000
    7      -10.295451   1.000000
    8      -10.110323   1.000000
    9      -10.083732   1.000000
   10      -10.043912   1.000000
   11       -8.210180   1.000000
   12       -7.978769   1.000000
   13       -7.368617   1.000000
   14       -6.796854   1.000000
   15       -2.184619   1.000000
   16       -1.697141   1.000000
   17       -1.351269   1.000000
   18       -1.327177   1.000000
   19       -1.180123   1.000000
   20       -1.122178   1.000000
   21       -0.960309   1.000000
   22       -0.074072   1.000000
   23        0.013534   1.000000
   24        0.267175   1.000000
   25        0.671905   1.000000
   26        1.183398   1.000000
   27        1.840510   1.000000
   28        1.967602   1.000000
   29        2.567777   1.000000
   30        2.837093   1.000000
   31        4.011010   1.000000
   32        6.390291   0.000000
   33        6.654497   0.000000
   34        8.021221   0.000000
   35        8.773428   0.000000
   36        9.593718   0.000000
   37        9.805186   0.000000
   38       10.321111   0.000000
   39       10.655723   0.000000
   40       11.145218   0.000000
 
  0.3333333E+00  0.2222222E+00  0.3333333E+00  0.6172840E-02
    1      -11.132002   1.000000
    2      -10.800967   1.000000
    3      -10.659504   1.000000
    4      -10.572893   1.000000
    5      -10.539829   1.000000
    6      -10.526960   1.000000
    7      -10.307448   1.000000
    8      -10.111269   1.000000
    9      -10.071499   1.000000
   10      -10.049432   1.000000
   11       -8.041753   1.000000
   12       -7.880860   1.000000
   13       -7.366297   1.000000
   14       -6.756571   1.000000
   15       -2.257151   1.000000
   16       -1.837957   1.000000
   17       -1.340903   1.000000
   18       -1.318897   1.000000
   19       -1.195083   1.000000
   20       -1.112495   1.000000
   21       -0.862101   1.000000
   22       -0.212878   1.000000
   23       -0.067250   1.000000
   24        0.093772   1.000000
   25        0.552015   1.000000
   26        1.158846   1.000000
   27        1.770171   1.000000
   28        1.843286   1.000000
   29        2.490963   1.000000
   30        2.810234   1.000000
   31        3.960368   1.000000
   32        6.349449   0.000000
   33        6.663074   0.000000
   34        7.978520   0.000000
   35        8.793848   0.000000
   36        9.637167   0.000000
   37        9.760609   0.000000
   38       10.321696   0.000000
   39       10.707045   0.000000
   40       11.308337   0.000000
 
  0.3888889E+00  0.2222222E+00  0.3333333E+00  0.6172840E-02
    1      -11.136080   1.000000
    2      -10.800892   1.000000
    3      -10.659572   1.000000
    4      -10.573013   1.000000
    5      -10.538913   1.000000
    6      -10.529856   1.000000
    7      -10.311572   1.000000
    8      -10.111717   1.000000
    9      -10.061368   1.000000
   10      -10.057159   1.000000
   11       -7.969229   1.000000
   12       -7.852725   1.000000
   13       -7.371396   1.000000
   14       -6.742705   1.000000
   15       -2.283901   1.000000
   16       -1.892669   1.000000
   17       -1.339747   1.000000
   18       -1.313536   1.000000
   19       -1.200241   1.000000
   20       -1.106837   1.000000
   21       -0.804385   1.000000
   22       -0.303193   1.000000
   23       -0.040928   1.000000
   24        0.028121   1.000000
   25        0.453040   1.000000
   26        1.210502   1.000000
   27        1.687174   1.000000
   28        1.828898   1.000000
   29        2.460335   1.000000
   30        2.808622   1.000000
   31        3.944451   1.000000
   32        6.336538   0.000000
   33        6.658197   0.000000
   34        7.954581   0.000000
   35        8.808480   0.000000
   36        9.593100   0.000000
   37        9.787153   0.000000
   38       10.307920   0.000000
   39       10.768552   0.000000
   40       11.379259   0.000000
 
  0.4444444E+00  0.2222222E+00  0.3333333E+00  0.6172840E-02
    1      -11.132001   1.000000
    2      -10.800972   1.000000
    3      -10.659500   1.000000
    4      -10.572914   1.000000
    5      -10.539802   1.000000
    6      -10.526964   1.000000
    7      -10.307448   1.000000
    8      -10.111268   1.000000
    9      -10.071504   1.000000
   10      -10.049431   1.000000
   11       -8.040867   1.000000
   12       -7.882124   1.000000
   13       -7.365918   1.000000
   14       -6.756528   1.000000
   15       -2.255369   1.000000
   16       -1.842764   1.000000
   17       -1.342936   1.000000
   18       -1.312886   1.000000
   19       -1.194598   1.000000
   20       -1.114183   1.000000
   21       -0.866697   1.000000
   22       -0.235424   1.000000
   23        0.024440   1.000000
   24        0.077138   1.000000
   25        0.449183   1.000000
   26        1.304590   1.000000
   27        1.615200   1.000000
   28        1.900583   1.000000
   29        2.494977   1.000000
   30        2.805404   1.000000
   31        3.971882   1.000000
   32        6.371091   0.000000
   33        6.636700   0.000000
   34        7.968490   0.000000
   35        8.806598   0.000000
   36        9.555438   0.000000
   37        9.819196   0.000000
   38       10.329895   0.000000
   39       10.818279   0.000000
   40       11.275510   0.000000
 
  0.5000000E+00  0.2222222E+00  0.3333333E+00  0.6172840E-02
    1      -11.120058   1.000000
    2      -10.801098   1.000000
    3      -10.659509   1.000000
    4      -10.573241   1.000000
    5      -10.539432   1.000000
    6      -10.520622   1.000000
    7      -10.295452   1.000000
    8      -10.110319   1.000000
    9      -10.083736   1.000000
   10      -10.043910   1.000000
   11       -8.209491   1.000000
   12       -7.979891   1.000000
   13       -7.368051   1.000000
   14       -6.796947   1.000000
   15       -2.182974   1.000000
   16       -1.703311   1.000000
   17       -1.352567   1.000000
   18       -1.319597   1.000000
   19       -1.179096   1.000000
   20       -1.125790   1.000000
   21       -0.963276   1.000000
   22       -0.110006   1.000000
   23        0.138584   1.000000
   24        0.214137   1.000000
   25        0.581480   1.000000
   26        1.313421   1.000000
   27        1.704159   1.000000
   28        2.032858   1.000000
   29        2.560355   1.000000
   30        2.836297   1.000000
   31        4.022416   1.000000
   32        6.417844   0.000000
   33        6.621581   0.000000
   34        8.006674   0.000000
   35        8.787672   0.000000
   36        9.551536   0.000000
   37        9.818550   0.000000
   38       10.390289   0.000000
   39       10.698570   0.000000
   40       11.097615   0.000000
 
  0.2777778E+00  0.2777778E+00  0.3333333E+00  0.6172840E-02
    1      -11.130884   1.000000
    2      -10.798184   1.000000
    3      -10.661128   1.000000
    4      -10.567093   1.000000
    5      -10.540548   1.000000
    6      -10.523785   1.000000
    7      -10.324428   1.000000
    8      -10.101756   1.000000
    9      -10.081239   1.000000
   10      -10.049696   1.000000
   11       -8.025574   1.000000
   12       -7.861602   1.000000
   13       -7.377642   1.000000
   14       -6.753488   1.000000
   15       -2.224681   1.000000
   16       -1.820600   1.000000
   17       -1.338768   1.000000
   18       -1.319266   1.000000
   19       -1.179144   1.000000
   20       -1.124848   1.000000
   21       -0.869027   1.000000
   22       -0.186466   1.000000
   23       -0.065405   1.000000
   24        0.003051   1.000000
   25        0.532839   1.000000
   26        1.179235   1.000000
   27        1.647124   1.000000
   28        1.845159   1.000000
   29        2.426575   1.000000
   30        2.803195   1.000000
   31        3.978170   1.000000
   32        6.427464   0.000000
   33        6.662226   0.000000
   34        8.119725   0.000000
   35        8.761858   0.000000
   36        9.696458   0.000000
   37        9.858270   0.000000
   38       10.684183   0.000000
   39       10.790240   0.000000
   40       11.335881   0.000000
 
  0.3333333E+00  0.2777778E+00  0.3333333E+00  0.6172840E-02
    1      -11.136404   1.000000
    2      -10.796095   1.000000
    3      -10.662223   1.000000
    4      -10.562360   1.000000
    5      -10.541534   1.000000
    6      -10.525220   1.000000
    7      -10.341422   1.000000
    8      -10.097595   1.000000
    9      -10.074610   1.000000
   10      -10.057871   1.000000
   11       -7.904114   1.000000
   12       -7.797381   1.000000
   13       -7.403153   1.000000
   14       -6.730654   1.000000
   15       -2.242702   1.000000
   16       -1.892781   1.000000
   17       -1.333988   1.000000
   18       -1.319521   1.000000
   19       -1.182197   1.000000
   20       -1.116627   1.000000
   21       -0.784608   1.000000
   22       -0.277570   1.000000
   23       -0.156722   1.000000
   24       -0.095943   1.000000
   25        0.512696   1.000000
   26        1.074455   1.000000
   27        1.566833   1.000000
   28        1.824008   1.000000
   29        2.331843   1.000000
   30        2.810138   1.000000
   31        3.948106   1.000000
   32        6.413199   0.000000
   33        6.680432   0.000000
   34        8.149923   0.000000
   35        8.765697   0.000000
   36        9.791951   0.000000
   37        9.860007   0.000000
   38       10.681937   0.000000
   39       10.963737   0.000000
   40       11.598538   0.000000
 
  0.3888889E+00  0.2777778E+00  0.3333333E+00  0.6172840E-02
    1      -11.136404   1.000000
    2      -10.796096   1.000000
    3      -10.662222   1.000000
    4      -10.562364   1.000000
    5      -10.541529   1.000000
    6      -10.525220   1.000000
    7      -10.341422   1.000000
    8      -10.097594   1.000000
    9      -10.074614   1.000000
   10      -10.057869   1.000000
   11       -7.903912   1.000000
   12       -7.797641   1.000000
   13       -7.403103   1.000000
   14       -6.730636   1.000000
   15       -2.242305   1.000000
   16       -1.893683   1.000000
   17       -1.334600   1.000000
   18       -1.318426   1.000000
   19       -1.181799   1.000000
   20       -1.116980   1.000000
   21       -0.785703   1.000000
   22       -0.280262   1.000000
   23       -0.162401   1.000000
   24       -0.077146   1.000000
   25        0.489150   1.000000
   26        1.101703   1.000000
   27        1.555442   1.000000
   28        1.819235   1.000000
   29        2.334739   1.000000
   30        2.809120   1.000000
   31        3.949850   1.000000
   32        6.415802   0.000000
   33        6.677179   0.000000
   34        8.149320   0.000000
   35        8.767871   0.000000
   36        9.744872   0.000000
   37        9.898099   0.000000
   38       10.684140   0.000000
   39       11.029983   0.000000
   40       11.473858   0.000000
 
  0.3333333E+00  0.3333333E+00  0.3333333E+00  0.2057613E-02
    1      -11.137818   1.000000
    2      -10.794103   1.000000
    3      -10.663262   1.000000
    4      -10.551472   1.000000
    5      -10.551361   1.000000
    6      -10.520894   1.000000
    7      -10.355306   1.000000
    8      -10.086359   1.000000
    9      -10.081277   1.000000
   10      -10.061768   1.000000
   11       -7.852230   1.000000
   12       -7.759173   1.000000
   13       -7.428339   1.000000
   14       -6.721687   1.000000
   15       -2.231799   1.000000
   16       -1.913090   1.000000
   17       -1.330765   1.000000
   18       -1.322720   1.000000
   19       -1.177042   1.000000
   20       -1.116926   1.000000
   21       -0.754899   1.000000
   22       -0.277532   1.000000
   23       -0.263189   1.000000
   24       -0.118385   1.000000
   25        0.536861   1.000000
   26        0.998616   1.000000
   27        1.482497   1.000000
   28        1.850703   1.000000
   29        2.266181   1.000000
   30        2.815445   1.000000
   31        3.940982   1.000000
   32        6.426443   0.000000
   33        6.686592   0.000000
   34        8.203669   0.000000
   35        8.760043   0.000000
   36        9.862416   0.000000
   37        9.883780   0.000000
   38       10.797190   0.000000
   39       11.171918   0.000000
   40       11.736434   0.000000
 
  0.0000000E+00  0.0000000E+00  0.5000000E+00  0.5144033E-03
    1      -10.923131   1.000000
    2      -10.714475   1.000000
    3      -10.714473   1.000000
    4      -10.541878   1.000000
    5      -10.541877   1.000000
    6      -10.235340   1.000000
    7      -10.235338   1.000000
    8      -10.214459   1.000000
    9      -10.082293   1.000000
   10      -10.082293   1.000000
   11       -9.653835   1.000000
   12       -9.115481   1.000000
   13       -8.103145   1.000000
   14       -7.414896   1.000000
   15       -2.052363   1.000000
   16       -1.542989   1.000000
   17       -1.542985   1.000000
   18       -1.097060   1.000000
   19       -1.097058   1.000000
   20       -1.051350   1.000000
   21       -0.121584   1.000000
   22        2.160444   1.000000
   23        2.160473   1.000000
   24        2.213440   1.000000
   25        2.758296   1.000000
   26        2.758299   1.000000
   27        3.029434   1.000000
   28        3.029446   1.000000
   29        3.180241   1.000000
   30        4.533277   1.000000
   31        4.533285   1.000000
   32        5.510658   0.000000
   33        6.158120   0.000000
   34        7.308973   0.000000
   35        7.780279   0.000000
   36        9.091641   0.000000
   37        9.091667   0.000000
   38        9.093539   0.000000
   39        9.684293   0.000000
   40        9.684300   0.000000
 
  0.5555556E-01  0.6938894E-17  0.5000000E+00  0.3086420E-02
    1      -10.925934   1.000000
    2      -10.724804   1.000000
    3      -10.711623   1.000000
    4      -10.544805   1.000000
    5      -10.541642   1.000000
    6      -10.255408   1.000000
    7      -10.232843   1.000000
    8      -10.202895   1.000000
    9      -10.085167   1.000000
   10      -10.081860   1.000000
   11       -9.615339   1.000000
   12       -9.091105   1.000000
   13       -8.073815   1.000000
   14       -7.397473   1.000000
   15       -2.042292   1.000000
   16       -1.542951   1.000000
   17       -1.536435   1.000000
   18       -1.104583   1.000000
   19       -1.097158   1.000000
   20       -1.045312   1.000000
   21       -0.116793   1.000000
   22        1.943871   1.000000
   23        2.120437   1.000000
   24        2.205461   1.000000
   25        2.472594   1.000000
   26        2.671667   1.000000
   27        2.918002   1.000000
   28        3.068466   1.000000
   29        3.411045   1.000000
   30        4.351669   1.000000
   31        4.489294   1.000000
   32        5.595901   0.000000
   33        6.269428   0.000000
   34        7.464091   0.000000
   35        7.925286   0.000000
   36        8.819163   0.000000
   37        9.141084   0.000000
   38        9.218558   0.000000
   39        9.691281   0.000000
   40        9.764011   0.000000
 
  0.1111111E+00  0.1387779E-16  0.5000000E+00  0.3086420E-02
    1      -10.936810   1.000000
    2      -10.749110   1.000000
    3      -10.703595   1.000000
    4      -10.551717   1.000000
    5      -10.540782   1.000000
    6      -10.299616   1.000000
    7      -10.225962   1.000000
    8      -10.183042   1.000000
    9      -10.091661   1.000000
   10      -10.080307   1.000000
   11       -9.507528   1.000000
   12       -9.018256   1.000000
   13       -7.991234   1.000000
   14       -7.346764   1.000000
   15       -2.015332   1.000000
   16       -1.541729   1.000000
   17       -1.517462   1.000000
   18       -1.122097   1.000000
   19       -1.097278   1.000000
   20       -1.033726   1.000000
   21       -0.115249   1.000000
   22        1.479704   1.000000
   23        1.950302   1.000000
   24        2.008645   1.000000
   25        2.189264   1.000000
   26        2.489094   1.000000
   27        2.621043   1.000000
   28        3.116708   1.000000
   29        3.686061   1.000000
   30        3.947028   1.000000
   31        4.366290   1.000000
   32        5.757670   0.000000
   33        6.524241   0.000000
   34        7.823371   0.000000
   35        8.181690   0.000000
   36        8.609115   0.000000
   37        9.124303   0.000000
   38        9.276139   0.000000
   39        9.874742   0.000000
   40        9.988495   0.000000
 
  0.1666667E+00  0.0000000E+00  0.5000000E+00  0.3086420E-02
    1      -10.960788   1.000000
    2      -10.772999   1.000000
    3      -10.691825   1.000000
    4      -10.559962   1.000000
    5      -10.538835   1.000000
    6      -10.358521   1.000000
    7      -10.216332   1.000000
    8      -10.160366   1.000000
    9      -10.098296   1.000000
   10      -10.076905   1.000000
   11       -9.345998   1.000000
   12       -8.898806   1.000000
   13       -7.869437   1.000000
   14       -7.267472   1.000000
   15       -1.981504   1.000000
   16       -1.536328   1.000000
   17       -1.488153   1.000000
   18       -1.144746   1.000000
   19       -1.096900   1.000000
   20       -1.027972   1.000000
   21       -0.165796   1.000000
   22        0.960527   1.000000
   23        1.471886   1.000000
   24        1.846291   1.000000
   25        1.993172   1.000000
   26        2.272834   1.000000
   27        2.285217   1.000000
   28        3.134363   1.000000
   29        3.473459   1.000000
   30        3.892916   1.000000
   31        4.187480   1.000000
   32        5.902765   0.000000
   33        6.704790   0.000000
   34        7.908783   0.000000
   35        8.341604   0.000000
   36        8.819232   0.000000
   37        9.160504   0.000000
   38        9.458276   0.000000
   39       10.186986   0.000000
   40       10.315584   0.000000
 
  0.2222222E+00  0.0000000E+00  0.5000000E+00  0.3086420E-02
    1      -10.997898   1.000000
    2      -10.788097   1.000000
    3      -10.678498   1.000000
    4      -10.568381   1.000000
    5      -10.535218   1.000000
    6      -10.421874   1.000000
    7      -10.206282   1.000000
    8      -10.140987   1.000000
    9      -10.100825   1.000000
   10      -10.070832   1.000000
   11       -9.145879   1.000000
   12       -8.738736   1.000000
   13       -7.727105   1.000000
   14       -7.167623   1.000000
   15       -1.959051   1.000000
   16       -1.523009   1.000000
   17       -1.451981   1.000000
   18       -1.171748   1.000000
   19       -1.095223   1.000000
   20       -1.045122   1.000000
   21       -0.364510   1.000000
   22        0.536223   1.000000
   23        1.055024   1.000000
   24        1.659711   1.000000
   25        1.659937   1.000000
   26        2.006133   1.000000
   27        2.050897   1.000000
   28        3.096613   1.000000
   29        3.122405   1.000000
   30        3.982153   1.000000
   31        3.985016   1.000000
   32        5.990018   0.000000
   33        6.663673   0.000000
   34        7.651822   0.000000
   35        8.592198   0.000000
   36        8.992230   0.000000
   37        9.560566   0.000000
   38        9.633214   0.000000
   39       10.369696   0.000000
   40       10.682309   0.000000
 
  0.2777778E+00 -0.2775558E-16  0.5000000E+00  0.3086420E-02
    1      -11.040441   1.000000
    2      -10.797049   1.000000
    3      -10.665961   1.000000
    4      -10.576688   1.000000
    5      -10.529532   1.000000
    6      -10.479558   1.000000
    7      -10.197924   1.000000
    8      -10.134131   1.000000
    9      -10.092218   1.000000
   10      -10.061823   1.000000
   11       -8.921457   1.000000
   12       -8.550618   1.000000
   13       -7.584484   1.000000
   14       -7.058539   1.000000
   15       -1.976966   1.000000
   16       -1.499992   1.000000
   17       -1.413646   1.000000
   18       -1.213872   1.000000
   19       -1.100592   1.000000
   20       -1.091367   1.000000
   21       -0.715468   1.000000
   22        0.244092   1.000000
   23        0.772696   1.000000
   24        1.291514   1.000000
   25        1.473905   1.000000
   26        1.769183   1.000000
   27        1.843299   1.000000
   28        2.833495   1.000000
   29        3.089879   1.000000
   30        3.778926   1.000000
   31        3.994873   1.000000
   32        6.003332   0.000000
   33        6.507952   0.000000
   34        7.396803   0.000000
   35        8.704357   0.000000
   36        8.977212   0.000000
   37        9.756007   0.000000
   38       10.010969   0.000000
   39       10.271215   0.000000
   40       10.986736   0.000000
 
  0.3333333E+00  0.0000000E+00  0.5000000E+00  0.3086420E-02
    1      -11.080040   1.000000
    2      -10.805089   1.000000
    3      -10.656028   1.000000
    4      -10.585234   1.000000
    5      -10.523699   1.000000
    6      -10.522188   1.000000
    7      -10.192293   1.000000
    8      -10.136819   1.000000
    9      -10.076881   1.000000
   10      -10.050958   1.000000
   11       -8.689830   1.000000
   12       -8.355566   1.000000
   13       -7.461112   1.000000
   14       -6.954216   1.000000
   15       -2.067859   1.000000
   16       -1.493002   1.000000
   17       -1.378463   1.000000
   18       -1.326867   1.000000
   19       -1.166228   1.000000
   20       -1.084917   1.000000
   21       -0.996692   1.000000
   22        0.019941   1.000000
   23        0.541961   1.000000
   24        0.999364   1.000000
   25        1.309366   1.000000
   26        1.636129   1.000000
   27        1.665734   1.000000
   28        2.649163   1.000000
   29        3.046478   1.000000
   30        3.601980   1.000000
   31        3.936778   1.000000
   32        5.941143   0.000000
   33        6.383112   0.000000
   34        7.199287   0.000000
   35        8.653564   0.000000
   36        8.853946   0.000000
   37        9.815487   0.000000
   38        9.969639   0.000000
   39       10.351922   0.000000
   40       11.173591   0.000000
 
  0.3888889E+00  0.0000000E+00  0.5000000E+00  0.3086420E-02
    1      -11.111238   1.000000
    2      -10.813948   1.000000
    3      -10.649356   1.000000
    4      -10.594631   1.000000
    5      -10.550316   1.000000
    6      -10.514641   1.000000
    7      -10.189163   1.000000
    8      -10.141116   1.000000
    9      -10.063393   1.000000
   10      -10.040496   1.000000
   11       -8.475035   1.000000
   12       -8.183468   1.000000
   13       -7.371917   1.000000
   14       -6.869137   1.000000
   15       -2.224345   1.000000
   16       -1.668665   1.000000
   17       -1.368236   1.000000
   18       -1.351069   1.000000
   19       -1.219826   1.000000
   20       -1.076777   1.000000
   21       -1.041961   1.000000
   22       -0.173619   1.000000
   23        0.253599   1.000000
   24        0.895194   1.000000
   25        1.181451   1.000000
   26        1.530279   1.000000
   27        1.600839   1.000000
   28        2.514470   1.000000
   29        3.001996   1.000000
   30        3.468926   1.000000
   31        3.840736   1.000000
   32        5.835781   0.000000
   33        6.329819   0.000000
   34        7.072170   0.000000
   35        8.549939   0.000000
   36        8.688060   0.000000
   37        9.794498   0.000000
   38        9.830516   0.000000
   39       10.368524   0.000000
   40       11.145834   0.000000
 
  0.4444444E+00  0.0000000E+00  0.5000000E+00  0.3086420E-02
    1      -11.130982   1.000000
    2      -10.821524   1.000000
    3      -10.645697   1.000000
    4      -10.602875   1.000000
    5      -10.562073   1.000000
    6      -10.508959   1.000000
    7      -10.187743   1.000000
    8      -10.144287   1.000000
    9      -10.054693   1.000000
   10      -10.032977   1.000000
   11       -8.312647   1.000000
   12       -8.067860   1.000000
   13       -7.321982   1.000000
   14       -6.814678   1.000000
   15       -2.372375   1.000000
   16       -1.858523   1.000000
   17       -1.351174   1.000000
   18       -1.334171   1.000000
   19       -1.249896   1.000000
   20       -1.069635   1.000000
   21       -0.963377   1.000000
   22       -0.350640   1.000000
   23        0.004125   1.000000
   24        0.915193   1.000000
   25        1.100656   1.000000
   26        1.445545   1.000000
   27        1.591202   1.000000
   28        2.434273   1.000000
   29        2.967624   1.000000
   30        3.388573   1.000000
   31        3.750922   1.000000
   32        5.748846   0.000000
   33        6.313980   0.000000
   34        7.008500   0.000000
   35        8.469981   0.000000
   36        8.553889   0.000000
   37        9.677604   0.000000
   38        9.827318   0.000000
   39       10.339851   0.000000
   40       11.095853   0.000000
 
  0.5000000E+00 -0.8326673E-16  0.5000000E+00  0.1543210E-02
    1      -11.137717   1.000000
    2      -10.824536   1.000000
    3      -10.644547   1.000000
    4      -10.606087   1.000000
    5      -10.565146   1.000000
    6      -10.506842   1.000000
    7      -10.187348   1.000000
    8      -10.145423   1.000000
    9      -10.051712   1.000000
   10      -10.030242   1.000000
   11       -8.249264   1.000000
   12       -8.028851   1.000000
   13       -7.306650   1.000000
   14       -6.796193   1.000000
   15       -2.431950   1.000000
   16       -1.927516   1.000000
   17       -1.345525   1.000000
   18       -1.328535   1.000000
   19       -1.258427   1.000000
   20       -1.066757   1.000000
   21       -0.893444   1.000000
   22       -0.450939   1.000000
   23       -0.087870   1.000000
   24        0.940055   1.000000
   25        1.073068   1.000000
   26        1.416721   1.000000
   27        1.583343   1.000000
   28        2.410209   1.000000
   29        2.954507   1.000000
   30        3.362054   1.000000
   31        3.713740   1.000000
   32        5.716670   0.000000
   33        6.310493   0.000000
   34        6.990664   0.000000
   35        8.442298   0.000000
   36        8.502083   0.000000
   37        9.637572   0.000000
   38        9.824176   0.000000
   39       10.326393   0.000000
   40       11.071147   0.000000
 
  0.5555556E-01  0.5555556E-01  0.5000000E+00  0.3086420E-02
    1      -10.932779   1.000000
    2      -10.742009   1.000000
    3      -10.706237   1.000000
    4      -10.549573   1.000000
    5      -10.541176   1.000000
    6      -10.284669   1.000000
    7      -10.230622   1.000000
    8      -10.187676   1.000000
    9      -10.089748   1.000000
   10      -10.080917   1.000000
   11       -9.542304   1.000000
   12       -9.042424   1.000000
   13       -8.017922   1.000000
   14       -7.363407   1.000000
   15       -2.023755   1.000000
   16       -1.542319   1.000000
   17       -1.523663   1.000000
   18       -1.116719   1.000000
   19       -1.097340   1.000000
   20       -1.036753   1.000000
   21       -0.113380   1.000000
   22        1.629757   1.000000
   23        1.977370   1.000000
   24        2.139796   1.000000
   25        2.248542   1.000000
   26        2.413416   1.000000
   27        2.918371   1.000000
   28        2.979705   1.000000
   29        3.632628   1.000000
   30        4.069465   1.000000
   31        4.398443   1.000000
   32        5.714750   0.000000
   33        6.455758   0.000000
   34        7.730574   0.000000
   35        8.135571   0.000000
   36        8.638335   0.000000
   37        9.056305   0.000000
   38        9.316895   0.000000
   39        9.792355   0.000000
   40        9.926203   0.000000
 
  0.1111111E+00  0.5555556E-01  0.5000000E+00  0.6172840E-02
    1      -10.950398   1.000000
    2      -10.765365   1.000000
    3      -10.696506   1.000000
    4      -10.556683   1.000000
    5      -10.540002   1.000000
    6      -10.333484   1.000000
    7      -10.226341   1.000000
    8      -10.165446   1.000000
    9      -10.096203   1.000000
   10      -10.078472   1.000000
   11       -9.408002   1.000000
   12       -8.945824   1.000000
   13       -7.916064   1.000000
   14       -7.298378   1.000000
   15       -1.993144   1.000000
   16       -1.538926   1.000000
   17       -1.499486   1.000000
   18       -1.136072   1.000000
   19       -1.097383   1.000000
   20       -1.028145   1.000000
   21       -0.135547   1.000000
   22        1.167933   1.000000
   23        1.636155   1.000000
   24        1.904370   1.000000
   25        2.085442   1.000000
   26        2.128605   1.000000
   27        2.684740   1.000000
   28        3.010647   1.000000
   29        3.642936   1.000000
   30        3.856678   1.000000
   31        4.232124   1.000000
   32        5.863575   0.000000
   33        6.686114   0.000000
   34        8.056223   0.000000
   35        8.249418   0.000000
   36        8.671385   0.000000
   37        8.966279   0.000000
   38        9.489259   0.000000
   39       10.014550   0.000000
   40       10.244177   0.000000
 
  0.1666667E+00  0.5555556E-01  0.5000000E+00  0.6172840E-02
    1      -10.981558   1.000000
    2      -10.783183   1.000000
    3      -10.684253   1.000000
    4      -10.564455   1.000000
    5      -10.537542   1.000000
    6      -10.392735   1.000000
    7      -10.219291   1.000000
    8      -10.143611   1.000000
    9      -10.101488   1.000000
   10      -10.073502   1.000000
   11       -9.227345   1.000000
   12       -8.804969   1.000000
   13       -7.784752   1.000000
   14       -7.208713   1.000000
   15       -1.964103   1.000000
   16       -1.529271   1.000000
   17       -1.466665   1.000000
   18       -1.159988   1.000000
   19       -1.096564   1.000000
   20       -1.032956   1.000000
   21       -0.256821   1.000000
   22        0.716648   1.000000
   23        1.225678   1.000000
   24        1.612526   1.000000
   25        1.852774   1.000000
   26        1.914560   1.000000
   27        2.397254   1.000000
   28        3.023049   1.000000
   29        3.251949   1.000000
   30        3.969010   1.000000
   31        4.035329   1.000000
   32        5.982883   0.000000
   33        6.757262   0.000000
   34        7.876468   0.000000
   35        8.524792   0.000000
   36        8.944234   0.000000
   37        9.124755   0.000000
   38        9.704716   0.000000
   39       10.269395   0.000000
   40       10.608195   0.000000
 
  0.2222222E+00  0.5555556E-01  0.5000000E+00  0.6172840E-02
    1      -11.021758   1.000000
    2      -10.793463   1.000000
    3      -10.671762   1.000000
    4      -10.572229   1.000000
    5      -10.533282   1.000000
    6      -10.451893   1.000000
    7      -10.211634   1.000000
    8      -10.130952   1.000000
    9      -10.099321   1.000000
   10      -10.065385   1.000000
   11       -9.014476   1.000000
   12       -8.629053   1.000000
   13       -7.643476   1.000000
   14       -7.104053   1.000000
   15       -1.959479   1.000000
   16       -1.510028   1.000000
   17       -1.429332   1.000000
   18       -1.191230   1.000000
   19       -1.094385   1.000000
   20       -1.068844   1.000000
   21       -0.546833   1.000000
   22        0.379644   1.000000
   23        0.893413   1.000000
   24        1.334890   1.000000
   25        1.597599   1.000000
   26        1.673219   1.000000
   27        2.124771   1.000000
   28        2.930607   1.000000
   29        3.020522   1.000000
   30        3.801429   1.000000
   31        4.035151   1.000000
   32        6.043900   0.000000
   33        6.644536   0.000000
   34        7.609872   0.000000
   35        8.728766   0.000000
   36        9.086962   0.000000
   37        9.422363   0.000000
   38        9.964388   0.000000
   39       10.330585   0.000000
   40       10.803729   0.000000
 
  0.2777778E+00  0.5555556E-01  0.5000000E+00  0.6172840E-02
    1      -11.062624   1.000000
    2      -10.800761   1.000000
    3      -10.661069   1.000000
    4      -10.579951   1.000000
    5      -10.527427   1.000000
    6      -10.501665   1.000000
    7      -10.205377   1.000000
    8      -10.131534   1.000000
    9      -10.086401   1.000000
   10      -10.055015   1.000000
   11       -8.784573   1.000000
   12       -8.434907   1.000000
   13       -7.512239   1.000000
   14       -6.997080   1.000000
   15       -2.011357   1.000000
   16       -1.485373   1.000000
   17       -1.392788   1.000000
   18       -1.261092   1.000000
   19       -1.135209   1.000000
   20       -1.087447   1.000000
   21       -0.889278   1.000000
   22        0.130954   1.000000
   23        0.653741   1.000000
   24        1.076767   1.000000
   25        1.330730   1.000000
   26        1.520791   1.000000
   27        1.892851   1.000000
   28        2.725367   1.000000
   29        2.974474   1.000000
   30        3.603988   1.000000
   31        4.010607   1.000000
   32        6.036098   0.000000
   33        6.491726   0.000000
   34        7.380286   0.000000
   35        8.776855   0.000000
   36        9.019254   0.000000
   37        9.617680   0.000000
   38       10.081018   0.000000
   39       10.326847   0.000000
   40       10.952985   0.000000
 
  0.3333333E+00  0.5555556E-01  0.5000000E+00  0.6172840E-02
    1      -11.097581   1.000000
    2      -10.808518   1.000000
    3      -10.653311   1.000000
    4      -10.588217   1.000000
    5      -10.537952   1.000000
    6      -10.518863   1.000000
    7      -10.201314   1.000000
    8      -10.136136   1.000000
    9      -10.071676   1.000000
   10      -10.044857   1.000000
   11       -8.557679   1.000000
   12       -8.248184   1.000000
   13       -7.408641   1.000000
   14       -6.902176   1.000000
   15       -2.137848   1.000000
   16       -1.555710   1.000000
   17       -1.373366   1.000000
   18       -1.355260   1.000000
   19       -1.191644   1.000000
   20       -1.083998   1.000000
   21       -1.039912   1.000000
   22       -0.072569   1.000000
   23        0.398691   1.000000
   24        0.888999   1.000000
   25        1.155115   1.000000
   26        1.443967   1.000000
   27        1.737200   1.000000
   28        2.569328   1.000000
   29        2.928654   1.000000
   30        3.443124   1.000000
   31        3.933851   1.000000
   32        5.959882   0.000000
   33        6.404375   0.000000
   34        7.212452   0.000000
   35        8.705063   0.000000
   36        8.866036   0.000000
   37        9.655925   0.000000
   38        9.949424   0.000000
   39       10.390117   0.000000
   40       11.077644   0.000000
 
  0.3888889E+00  0.5555556E-01  0.5000000E+00  0.6172840E-02
    1      -11.122654   1.000000
    2      -10.816410   1.000000
    3      -10.648560   1.000000
    4      -10.596868   1.000000
    5      -10.556016   1.000000
    6      -10.512852   1.000000
    7      -10.199155   1.000000
    8      -10.140264   1.000000
    9      -10.059742   1.000000
   10      -10.037302   1.000000
   11       -8.363026   1.000000
   12       -8.101851   1.000000
   13       -7.342770   1.000000
   14       -6.832491   1.000000
   15       -2.296710   1.000000
   16       -1.772674   1.000000
   17       -1.358850   1.000000
   18       -1.337141   1.000000
   19       -1.233871   1.000000
   20       -1.078737   1.000000
   21       -1.002609   1.000000
   22       -0.255058   1.000000
   23        0.121444   1.000000
   24        0.836431   1.000000
   25        1.042587   1.000000
   26        1.412928   1.000000
   27        1.657884   1.000000
   28        2.458433   1.000000
   29        2.891476   1.000000
   30        3.330912   1.000000
   31        3.839673   1.000000
   32        5.862552   0.000000
   33        6.381759   0.000000
   34        7.108967   0.000000
   35        8.613076   0.000000
   36        8.713526   0.000000
   37        9.603315   0.000000
   38        9.877711   0.000000
   39       10.373962   0.000000
   40       11.154243   0.000000
 
  0.4444444E+00  0.5555556E-01  0.5000000E+00  0.6172840E-02
    1      -11.135676   1.000000
    2      -10.821589   1.000000
    3      -10.646366   1.000000
    4      -10.602664   1.000000
    5      -10.562858   1.000000
    6      -10.509113   1.000000
    7      -10.198281   1.000000
    8      -10.142579   1.000000
    9      -10.052966   1.000000
   10      -10.033493   1.000000
   11       -8.243024   1.000000
   12       -8.025010   1.000000
   13       -7.313241   1.000000
   14       -6.796323   1.000000
   15       -2.404639   1.000000
   16       -1.905704   1.000000
   17       -1.346396   1.000000
   18       -1.327415   1.000000
   19       -1.251633   1.000000
   20       -1.071763   1.000000
   21       -0.907915   1.000000
   22       -0.410073   1.000000
   23       -0.049837   1.000000
   24        0.839422   1.000000
   25        0.984782   1.000000
   26        1.414396   1.000000
   27        1.613747   1.000000
   28        2.402924   1.000000
   29        2.872360   1.000000
   30        3.273129   1.000000
   31        3.774104   1.000000
   32        5.801701   0.000000
   33        6.380717   0.000000
   34        7.062144   0.000000
   35        8.553809   0.000000
   36        8.625595   0.000000
   37        9.549428   0.000000
   38        9.859966   0.000000
   39       10.355402   0.000000
   40       11.143068   0.000000
 
  0.1111111E+00  0.1111111E+00  0.5000000E+00  0.3086420E-02
    1      -10.975731   1.000000
    2      -10.781127   1.000000
    3      -10.686580   1.000000
    4      -10.562653   1.000000
    5      -10.538705   1.000000
    6      -10.378799   1.000000
    7      -10.229934   1.000000
    8      -10.142782   1.000000
    9      -10.101691   1.000000
   10      -10.074356   1.000000
   11       -9.254906   1.000000
   12       -8.826896   1.000000
   13       -7.805340   1.000000
   14       -7.222904   1.000000
   15       -1.966702   1.000000
   16       -1.531075   1.000000
   17       -1.471723   1.000000
   18       -1.155799   1.000000
   19       -1.097251   1.000000
   20       -1.029507   1.000000
   21       -0.223695   1.000000
   22        0.818587   1.000000
   23        1.290826   1.000000
   24        1.626864   1.000000
   25        1.736293   1.000000
   26        1.976757   1.000000
   27        2.712130   1.000000
   28        2.792122   1.000000
   29        3.327359   1.000000
   30        3.959581   1.000000
   31        4.038407   1.000000
   32        5.986950   0.000000
   33        6.818504   0.000000
   34        8.116291   0.000000
   35        8.525036   0.000000
   36        8.615958   0.000000
   37        9.119762   0.000000
   38        9.688903   0.000000
   39       10.211345   0.000000
   40       10.630092   0.000000
 
  0.1666667E+00  0.1111111E+00  0.5000000E+00  0.6172840E-02
    1      -11.010818   1.000000
    2      -10.791350   1.000000
    3      -10.675773   1.000000
    4      -10.568758   1.000000
    5      -10.536299   1.000000
    6      -10.429542   1.000000
    7      -10.231135   1.000000
    8      -10.124878   1.000000
    9      -10.105339   1.000000
   10      -10.066760   1.000000
   11       -9.061178   1.000000
   12       -8.667879   1.000000
   13       -7.676633   1.000000
   14       -7.128210   1.000000
   15       -1.952932   1.000000
   16       -1.514629   1.000000
   17       -1.437572   1.000000
   18       -1.181415   1.000000
   19       -1.096196   1.000000
   20       -1.051670   1.000000
   21       -0.444920   1.000000
   22        0.507425   1.000000
   23        0.981486   1.000000
   24        1.280363   1.000000
   25        1.501290   1.000000
   26        1.737903   1.000000
   27        2.442796   1.000000
   28        2.762087   1.000000
   29        3.045955   1.000000
   30        3.748302   1.000000
   31        4.078349   1.000000
   32        6.089608   0.000000
   33        6.807773   0.000000
   34        7.952792   0.000000
   35        8.656134   0.000000
   36        8.975034   0.000000
   37        9.334741   0.000000
   38        9.860059   0.000000
   39       10.369517   0.000000
   40       10.818825   0.000000
 
  0.2222222E+00  0.1111111E+00  0.5000000E+00  0.6172840E-02
    1      -11.049298   1.000000
    2      -10.797592   1.000000
    3      -10.666004   1.000000
    4      -10.574695   1.000000
    5      -10.532575   1.000000
    6      -10.477524   1.000000
    7      -10.230329   1.000000
    8      -10.121726   1.000000
    9      -10.097901   1.000000
   10      -10.056657   1.000000
   11       -8.840702   1.000000
   12       -8.482000   1.000000
   13       -7.549299   1.000000
   14       -7.025237   1.000000
   15       -1.977192   1.000000
   16       -1.488571   1.000000
   17       -1.401722   1.000000
   18       -1.226100   1.000000
   19       -1.110449   1.000000
   20       -1.084170   1.000000
   21       -0.766973   1.000000
   22        0.250567   1.000000
   23        0.727337   1.000000
   24        1.026567   1.000000
   25        1.320670   1.000000
   26        1.441210   1.000000
   27        2.156101   1.000000
   28        2.690739   1.000000
   29        2.860821   1.000000
   30        3.514915   1.000000
   31        4.091567   1.000000
   32        6.151034   0.000000
   33        6.681895   0.000000
   34        7.729831   0.000000
   35        8.826922   0.000000
   36        9.260812   0.000000
   37        9.412393   0.000000
   38       10.018830   0.000000
   39       10.372379   0.000000
   40       10.801603   0.000000
 
  0.2777778E+00  0.1111111E+00  0.5000000E+00  0.6172840E-02
    1      -11.084749   1.000000
    2      -10.803084   1.000000
    3      -10.658527   1.000000
    4      -10.580669   1.000000
    5      -10.530051   1.000000
    6      -10.513450   1.000000
    7      -10.229098   1.000000
    8      -10.126490   1.000000
    9      -10.084004   1.000000
   10      -10.047212   1.000000
   11       -8.610645   1.000000
   12       -8.290587   1.000000
   13       -7.441978   1.000000
   14       -6.927225   1.000000
   15       -2.064147   1.000000
   16       -1.485042   1.000000
   17       -1.373171   1.000000
   18       -1.330545   1.000000
   19       -1.160010   1.000000
   20       -1.082919   1.000000
   21       -1.006598   1.000000
   22        0.037238   1.000000
   23        0.494332   1.000000
   24        0.835462   1.000000
   25        1.091188   1.000000
   26        1.311873   1.000000
   27        1.925195   1.000000
   28        2.562217   1.000000
   29        2.770515   1.000000
   30        3.320640   1.000000
   31        4.046848   1.000000
   32        6.154550   0.000000
   33        6.552589   0.000000
   34        7.539154   0.000000
   35        8.887967   0.000000
   36        9.225857   0.000000
   37        9.460285   0.000000
   38       10.036963   0.000000
   39       10.424418   0.000000
   40       10.843488   0.000000
 
  0.3333333E+00  0.1111111E+00  0.5000000E+00  0.6172840E-02
    1      -11.112682   1.000000
    2      -10.809068   1.000000
    3      -10.653629   1.000000
    4      -10.587221   1.000000
    5      -10.544480   1.000000
    6      -10.518517   1.000000
    7      -10.228274   1.000000
    8      -10.131342   1.000000
    9      -10.070119   1.000000
   10      -10.041182   1.000000
   11       -8.394857   1.000000
   12       -8.123295   1.000000
   13       -7.368244   1.000000
   14       -6.847576   1.000000
   15       -2.203252   1.000000
   16       -1.664088   1.000000
   17       -1.367077   1.000000
   18       -1.335956   1.000000
   19       -1.205446   1.000000
   20       -1.095256   1.000000
   21       -1.016506   1.000000
   22       -0.143631   1.000000
   23        0.246587   1.000000
   24        0.701504   1.000000
   25        0.889505   1.000000
   26        1.319676   1.000000
   27        1.776715   1.000000
   28        2.433320   1.000000
   29        2.726581   1.000000
   30        3.174612   1.000000
   31        3.965326   1.000000
   32        6.090209   0.000000
   33        6.502795   0.000000
   34        7.396645   0.000000
   35        8.852124   0.000000
   36        9.086481   0.000000
   37        9.434056   0.000000
   38        9.977481   0.000000
   39       10.437768   0.000000
   40       10.976931   0.000000
 
  0.3888889E+00  0.1111111E+00  0.5000000E+00  0.6172840E-02
    1      -11.130395   1.000000
    2      -10.814230   1.000000
    3      -10.650966   1.000000
    4      -10.593368   1.000000
    5      -10.555661   1.000000
    6      -10.515093   1.000000
    7      -10.227924   1.000000
    8      -10.134671   1.000000
    9      -10.058513   1.000000
   10      -10.039549   1.000000
   11       -8.228693   1.000000
   12       -8.013305   1.000000
   13       -7.330573   1.000000
   14       -6.796671   1.000000
   15       -2.332557   1.000000
   16       -1.845465   1.000000
   17       -1.350182   1.000000
   18       -1.322584   1.000000
   19       -1.232869   1.000000
   20       -1.086291   1.000000
   21       -0.933697   1.000000
   22       -0.310463   1.000000
   23        0.043724   1.000000
   24        0.625838   1.000000
   25        0.779465   1.000000
   26        1.367949   1.000000
   27        1.691494   1.000000
   28        2.337959   1.000000
   29        2.713509   1.000000
   30        3.081693   1.000000
   31        3.885505   1.000000
   32        6.014179   0.000000
   33        6.508188   0.000000
   34        7.306871   0.000000
   35        8.791172   0.000000
   36        8.984490   0.000000
   37        9.385859   0.000000
   38        9.944368   0.000000
   39       10.433705   0.000000
   40       11.018888   0.000000
 
  0.4444444E+00  0.1111111E+00  0.5000000E+00  0.3086420E-02
    1      -11.136447   1.000000
    2      -10.816302   1.000000
    3      -10.650132   1.000000
    4      -10.595946   1.000000
    5      -10.558764   1.000000
    6      -10.513660   1.000000
    7      -10.227844   1.000000
    8      -10.135845   1.000000
    9      -10.053134   1.000000
   10      -10.040291   1.000000
   11       -8.162144   1.000000
   12       -7.977827   1.000000
   13       -7.320143   1.000000
   14       -6.779385   1.000000
   15       -2.384632   1.000000
   16       -1.911614   1.000000
   17       -1.344605   1.000000
   18       -1.318853   1.000000
   19       -1.240739   1.000000
   20       -1.081299   1.000000
   21       -0.866531   1.000000
   22       -0.406542   1.000000
   23       -0.028447   1.000000
   24        0.600449   1.000000
   25        0.744844   1.000000
   26        1.401923   1.000000
   27        1.655332   1.000000
   28        2.302289   1.000000
   29        2.713589   1.000000
   30        3.049271   1.000000
   31        3.851721   1.000000
   32        5.983547   0.000000
   33        6.516020   0.000000
   34        7.275774   0.000000
   35        8.763016   0.000000
   36        8.950117   0.000000
   37        9.364878   0.000000
   38        9.936795   0.000000
   39       10.434353   0.000000
   40       11.017096   0.000000
 
  0.1666667E+00  0.1666667E+00  0.5000000E+00  0.3086420E-02
    1      -11.044230   1.000000
    2      -10.796511   1.000000
    3      -10.668047   1.000000
    4      -10.572341   1.000000
    5      -10.534898   1.000000
    6      -10.465792   1.000000
    7      -10.243612   1.000000
    8      -10.110200   1.000000
    9      -10.109778   1.000000
   10      -10.057067   1.000000
   11       -8.859218   1.000000
   12       -8.497367   1.000000
   13       -7.562840   1.000000
   14       -7.035045   1.000000
   15       -1.966089   1.000000
   16       -1.490211   1.000000
   17       -1.404672   1.000000
   18       -1.216632   1.000000
   19       -1.104580   1.000000
   20       -1.078318   1.000000
   21       -0.712337   1.000000
   22        0.318131   1.000000
   23        0.731479   1.000000
   24        1.012867   1.000000
   25        1.223317   1.000000
   26        1.488861   1.000000
   27        2.391041   1.000000
   28        2.480049   1.000000
   29        2.870355   1.000000
   30        3.460359   1.000000
   31        4.123172   1.000000
   32        6.196765   0.000000
   33        6.789012   0.000000
   34        8.001739   0.000000
   35        8.645934   0.000000
   36        9.291906   0.000000
   37        9.537596   0.000000
   38        9.918524   0.000000
   39       10.487417   0.000000
   40       10.706150   0.000000
 
  0.2222222E+00  0.1666667E+00  0.5000000E+00  0.6172840E-02
    1      -11.076788   1.000000
    2      -10.799989   1.000000
    3      -10.662140   1.000000
    4      -10.575305   1.000000
    5      -10.533688   1.000000
    6      -10.497370   1.000000
    7      -10.253851   1.000000
    8      -10.114790   1.000000
    9      -10.097132   1.000000
   10      -10.048067   1.000000
   11       -8.636303   1.000000
   12       -8.310699   1.000000
   13       -7.461788   1.000000
   14       -6.940734   1.000000
   15       -2.023157   1.000000
   16       -1.467263   1.000000
   17       -1.373098   1.000000
   18       -1.297766   1.000000
   19       -1.141337   1.000000
   20       -1.075722   1.000000
   21       -0.961789   1.000000
   22        0.128427   1.000000
   23        0.508200   1.000000
   24        0.740775   1.000000
   25        1.080338   1.000000
   26        1.257314   1.000000
   27        2.133153   1.000000
   28        2.378024   1.000000
   29        2.721311   1.000000
   30        3.216485   1.000000
   31        4.114103   1.000000
   32        6.279099   0.000000
   33        6.695803   0.000000
   34        7.920325   0.000000
   35        8.758548   0.000000
   36        9.529834   0.000000
   37        9.572447   0.000000
   38       10.004233   0.000000
   39       10.487234   0.000000
   40       10.753643   0.000000
 
  0.2777778E+00  0.1666667E+00  0.5000000E+00  0.6172840E-02
    1      -11.104388   1.000000
    2      -10.803138   1.000000
    3      -10.658293   1.000000
    4      -10.578276   1.000000
    5      -10.535915   1.000000
    6      -10.517467   1.000000
    7      -10.261366   1.000000
    8      -10.119392   1.000000
    9      -10.083814   1.000000
   10      -10.042912   1.000000
   11       -8.412193   1.000000
   12       -8.132975   1.000000
   13       -7.389146   1.000000
   14       -6.857759   1.000000
   15       -2.127097   1.000000
   16       -1.568506   1.000000
   17       -1.367562   1.000000
   18       -1.337763   1.000000
   19       -1.173317   1.000000
   20       -1.102588   1.000000
   21       -1.019586   1.000000
   22       -0.039758   1.000000
   23        0.289736   1.000000
   24        0.544136   1.000000
   25        0.830714   1.000000
   26        1.239650   1.000000
   27        1.907042   1.000000
   28        2.277175   1.000000
   29        2.626321   1.000000
   30        3.035120   1.000000
   31        4.058591   1.000000
   32        6.303520   0.000000
   33        6.604066   0.000000
   34        7.801789   0.000000
   35        8.851178   0.000000
   36        9.466271   0.000000
   37        9.567744   0.000000
   38       10.042843   0.000000
   39       10.551939   0.000000
   40       10.911013   0.000000
 
  0.3333333E+00  0.1666667E+00  0.5000000E+00  0.6172840E-02
    1      -11.124206   1.000000
    2      -10.806147   1.000000
    3      -10.656166   1.000000
    4      -10.581776   1.000000
    5      -10.544474   1.000000
    6      -10.521630   1.000000
    7      -10.266299   1.000000
    8      -10.122951   1.000000
    9      -10.070312   1.000000
   10      -10.042866   1.000000
   11       -8.215118   1.000000
   12       -7.996232   1.000000
   13       -7.351609   1.000000
   14       -6.797121   1.000000
   15       -2.245154   1.000000
   16       -1.765259   1.000000
   17       -1.353039   1.000000
   18       -1.319839   1.000000
   19       -1.204662   1.000000
   20       -1.106159   1.000000
   21       -0.951668   1.000000
   22       -0.191839   1.000000
   23        0.108454   1.000000
   24        0.405610   1.000000
   25        0.619649   1.000000
   26        1.290890   1.000000
   27        1.768294   1.000000
   28        2.166570   1.000000
   29        2.600191   1.000000
   30        2.908217   1.000000
   31        3.982643   1.000000
   32        6.252028   0.000000
   33        6.587159   0.000000
   34        7.700180   0.000000
   35        8.889620   0.000000
   36        9.370520   0.000000
   37        9.491084   0.000000
   38       10.034696   0.000000
   39       10.582237   0.000000
   40       11.064603   0.000000
 
  0.3888889E+00  0.1666667E+00  0.5000000E+00  0.6172840E-02
    1      -11.134517   1.000000
    2      -10.808115   1.000000
    3      -10.655252   1.000000
    4      -10.584589   1.000000
    5      -10.549627   1.000000
    6      -10.521354   1.000000
    7      -10.268752   1.000000
    8      -10.124884   1.000000
    9      -10.058302   1.000000
   10      -10.047663   1.000000
   11       -8.087926   1.000000
   12       -7.928677   1.000000
   13       -7.340729   1.000000
   14       -6.765653   1.000000
   15       -2.323547   1.000000
   16       -1.884160   1.000000
   17       -1.344521   1.000000
   18       -1.312491   1.000000
   19       -1.219741   1.000000
   20       -1.096221   1.000000
   21       -0.856772   1.000000
   22       -0.332240   1.000000
   23        0.025100   1.000000
   24        0.318990   1.000000
   25        0.512196   1.000000
   26        1.334565   1.000000
   27        1.710307   1.000000
   28        2.092959   1.000000
   29        2.602605   1.000000
   30        2.841705   1.000000
   31        3.926819   1.000000
   32        6.199086   0.000000
   33        6.601709   0.000000
   34        7.640636   0.000000
   35        8.899566   0.000000
   36        9.319614   0.000000
   37        9.435229   0.000000
   38       10.023243   0.000000
   39       10.604298   0.000000
   40       11.083889   0.000000
 
  0.2222222E+00  0.2222222E+00  0.5000000E+00  0.3086420E-02
    1      -11.101132   1.000000
    2      -10.800951   1.000000
    3      -10.660152   1.000000
    4      -10.574406   1.000000
    5      -10.536587   1.000000
    6      -10.511334   1.000000
    7      -10.276801   1.000000
    8      -10.110559   1.000000
    9      -10.093332   1.000000
   10      -10.043367   1.000000
   11       -8.417732   1.000000
   12       -8.135327   1.000000
   13       -7.397245   1.000000
   14       -6.861363   1.000000
   15       -2.097989   1.000000
   16       -1.530820   1.000000
   17       -1.361173   1.000000
   18       -1.343403   1.000000
   19       -1.158763   1.000000
   20       -1.099975   1.000000
   21       -1.021341   1.000000
   22        0.009963   1.000000
   23        0.283297   1.000000
   24        0.452266   1.000000
   25        0.855596   1.000000
   26        1.205319   1.000000
   27        2.013155   1.000000
   28        2.137885   1.000000
   29        2.587863   1.000000
   30        2.987853   1.000000
   31        4.092039   1.000000
   32        6.381221   0.000000
   33        6.655372   0.000000
   34        8.034105   0.000000
   35        8.755370   0.000000
   36        9.555702   0.000000
   37        9.729025   0.000000
   38       10.230879   0.000000
   39       10.545909   0.000000
   40       10.848586   0.000000
 
  0.2777778E+00  0.2222222E+00  0.5000000E+00  0.6172840E-02
    1      -11.120054   1.000000
    2      -10.801102   1.000000
    3      -10.659509   1.000000
    4      -10.573229   1.000000
    5      -10.539438   1.000000
    6      -10.520620   1.000000
    7      -10.295452   1.000000
    8      -10.110319   1.000000
    9      -10.083731   1.000000
   10      -10.043912   1.000000
   11       -8.207836   1.000000
   12       -7.982761   1.000000
   13       -7.366267   1.000000
   14       -6.797451   1.000000
   15       -2.184830   1.000000
   16       -1.702946   1.000000
   17       -1.351197   1.000000
   18       -1.324089   1.000000
   19       -1.175399   1.000000
   20       -1.124368   1.000000
   21       -0.960516   1.000000
   22       -0.093912   1.000000
   23        0.073195   1.000000
   24        0.240984   1.000000
   25        0.632393   1.000000
   26        1.218446   1.000000
   27        1.817893   1.000000
   28        2.013803   1.000000
   29        2.518862   1.000000
   30        2.834987   1.000000
   31        4.037571   1.000000
   32        6.403839   0.000000
   33        6.620305   0.000000
   34        8.034914   0.000000
   35        8.820473   0.000000
   36        9.509826   0.000000
   37        9.766306   0.000000
   38       10.336578   0.000000
   39       10.689857   0.000000
   40       11.159077   0.000000
 
  0.3333333E+00  0.2222222E+00  0.5000000E+00  0.6172840E-02
    1      -11.131999   1.000000
    2      -10.800974   1.000000
    3      -10.659502   1.000000
    4      -10.572895   1.000000
    5      -10.539817   1.000000
    6      -10.526963   1.000000
    7      -10.307448   1.000000
    8      -10.111268   1.000000
    9      -10.071499   1.000000
   10      -10.049431   1.000000
   11       -8.039800   1.000000
   12       -7.883700   1.000000
   13       -7.365258   1.000000
   14       -6.756673   1.000000
   15       -2.254834   1.000000
   16       -1.843800   1.000000
   17       -1.342367   1.000000
   18       -1.314776   1.000000
   19       -1.192305   1.000000
   20       -1.114052   1.000000
   21       -0.863224   1.000000
   22       -0.229195   1.000000
   23       -0.014192   1.000000
   24        0.100132   1.000000
   25        0.459467   1.000000
   26        1.220724   1.000000
   27        1.699776   1.000000
   28        1.942660   1.000000
   29        2.494535   1.000000
   30        2.749655   1.000000
   31        3.979818   1.000000
   32        6.356228   0.000000
   33        6.631622   0.000000
   34        7.999357   0.000000
   35        8.878597   0.000000
   36        9.479804   0.000000
   37        9.758054   0.000000
   38       10.304685   0.000000
   39       10.823384   0.000000
   40       11.338012   0.000000
 
  0.3888889E+00  0.2222222E+00  0.5000000E+00  0.3086420E-02
    1      -11.136078   1.000000
    2      -10.800897   1.000000
    3      -10.659570   1.000000
    4      -10.573001   1.000000
    5      -10.538917   1.000000
    6      -10.529857   1.000000
    7      -10.311570   1.000000
    8      -10.111716   1.000000
    9      -10.061366   1.000000
   10      -10.057156   1.000000
   11       -7.967923   1.000000
   12       -7.854437   1.000000
   13       -7.370917   1.000000
   14       -6.742798   1.000000
   15       -2.281705   1.000000
   16       -1.896207   1.000000
   17       -1.340166   1.000000
   18       -1.312278   1.000000
   19       -1.198223   1.000000
   20       -1.107555   1.000000
   21       -0.803197   1.000000
   22       -0.308780   1.000000
   23       -0.032337   1.000000
   24        0.058905   1.000000
   25        0.387716   1.000000
   26        1.215042   1.000000
   27        1.661952   1.000000
   28        1.929166   1.000000
   29        2.480021   1.000000
   30        2.728242   1.000000
   31        3.954650   1.000000
   32        6.329667   0.000000
   33        6.640983   0.000000
   34        7.981749   0.000000
   35        8.901403   0.000000
   36        9.469328   0.000000
   37        9.751402   0.000000
   38       10.287775   0.000000
   39       10.867017   0.000000
   40       11.346892   0.000000
 
  0.2777778E+00  0.2777778E+00  0.5000000E+00  0.3086420E-02
    1      -11.130879   1.000000
    2      -10.798184   1.000000
    3      -10.661127   1.000000
    4      -10.567089   1.000000
    5      -10.540544   1.000000
    6      -10.523785   1.000000
    7      -10.324426   1.000000
    8      -10.101755   1.000000
    9      -10.081237   1.000000
   10      -10.049692   1.000000
   11       -8.024128   1.000000
   12       -7.863745   1.000000
   13       -7.376835   1.000000
   14       -6.753542   1.000000
   15       -2.224145   1.000000
   16       -1.823529   1.000000
   17       -1.339217   1.000000
   18       -1.319791   1.000000
   19       -1.175275   1.000000
   20       -1.125708   1.000000
   21       -0.867817   1.000000
   22       -0.168637   1.000000
   23       -0.068012   1.000000
   24        0.003583   1.000000
   25        0.502276   1.000000
   26        1.151473   1.000000
   27        1.650298   1.000000
   28        1.925365   1.000000
   29        2.442712   1.000000
   30        2.731810   1.000000
   31        3.999135   1.000000
   32        6.410809   0.000000
   33        6.637723   0.000000
   34        8.147093   0.000000
   35        8.864003   0.000000
   36        9.557441   0.000000
   37        9.829985   0.000000
   38       10.754324   0.000000
   39       10.783607   0.000000
   40       11.366477   0.000000
 
  0.3333333E+00  0.2777778E+00  0.5000000E+00  0.6172840E-02
    1      -11.136402   1.000000
    2      -10.796095   1.000000
    3      -10.662222   1.000000
    4      -10.562355   1.000000
    5      -10.541529   1.000000
    6      -10.525228   1.000000
    7      -10.341420   1.000000
    8      -10.097593   1.000000
    9      -10.074609   1.000000
   10      -10.057867   1.000000
   11       -7.903249   1.000000
   12       -7.798457   1.000000
   13       -7.402955   1.000000
   14       -6.730646   1.000000
   15       -2.241587   1.000000
   16       -1.895675   1.000000
   17       -1.334992   1.000000
   18       -1.319678   1.000000
   19       -1.178566   1.000000
   20       -1.117629   1.000000
   21       -0.785867   1.000000
   22       -0.267813   1.000000
   23       -0.150765   1.000000
   24       -0.068531   1.000000
   25        0.434871   1.000000
   26        1.073736   1.000000
   27        1.521467   1.000000
   28        1.957444   1.000000
   29        2.375915   1.000000
   30        2.702957   1.000000
   31        3.969164   1.000000
   32        6.383248   0.000000
   33        6.652740   0.000000
   34        8.177986   0.000000
   35        8.908129   0.000000
   36        9.609282   0.000000
   37        9.845495   0.000000
   38       10.776587   0.000000
   39       11.048826   0.000000
   40       11.570864   0.000000
 
  0.3333333E+00  0.3333333E+00  0.5000000E+00  0.1028807E-02
    1      -11.137817   1.000000
    2      -10.794102   1.000000
    3      -10.663263   1.000000
    4      -10.551469   1.000000
    5      -10.551354   1.000000
    6      -10.520901   1.000000
    7      -10.355305   1.000000
    8      -10.086357   1.000000
    9      -10.081274   1.000000
   10      -10.061764   1.000000
   11       -7.852141   1.000000
   12       -7.759178   1.000000
   13       -7.428465   1.000000
   14       -6.721690   1.000000
   15       -2.231482   1.000000
   16       -1.914684   1.000000
   17       -1.330223   1.000000
   18       -1.325357   1.000000
   19       -1.173423   1.000000
   20       -1.117798   1.000000
   21       -0.757869   1.000000
   22       -0.271775   1.000000
   23       -0.236458   1.000000
   24       -0.104333   1.000000
   25        0.458441   1.000000
   26        0.987797   1.000000
   27        1.435364   1.000000
   28        2.007215   1.000000
   29        2.311017   1.000000
   30        2.696640   1.000000
   31        3.963794   1.000000
   32        6.382735   0.000000
   33        6.658478   0.000000
   34        8.231057   0.000000
   35        8.924963   0.000000
   36        9.691875   0.000000
   37        9.851743   0.000000
   38       11.057103   0.000000
   39       11.165252   0.000000
   40       11.496926   0.000000
