       N       E                     dE             d eps       ncg     rms          rms(c)
DAV:   1     0.583981106005E+03    0.58398E+03   -0.27662E+04 16160   0.176E+03
DAV:   2     0.589088844013E+02   -0.52507E+03   -0.50418E+03 16200   0.457E+02
DAV:   3    -0.219105374384E+02   -0.80819E+02   -0.78453E+02 19880   0.175E+02
DAV:   4    -0.264448534476E+02   -0.45343E+01   -0.45039E+01 19536   0.420E+01
DAV:   5    -0.266347804019E+02   -0.18993E+00   -0.18985E+00 23656   0.907E+00
DAV:   6    -0.266392198421E+02   -0.44394E-02   -0.44391E-02 23976   0.113E+00
DAV:   7    -0.266393368563E+02   -0.11701E-03   -0.11701E-03 24784   0.194E-01
DAV:   8    -0.266393399536E+02   -0.30973E-05   -0.30972E-05 24440   0.299E-02
DAV:   9    -0.266393400550E+02   -0.10141E-06   -0.10145E-06 23264   0.561E-03
DAV:  10    -0.266393400576E+02   -0.26539E-08   -0.26540E-08 13248   0.112E-03
   1 F= -.28755588E+02 E0= -.28755588E+02  d E =0.000000E+00
