In2 S4 Zn                               
   1.00000000000000     
    10.6174974479824620   -0.0000000000000000   -0.0000000000000000
    -0.0000000000000000   10.6174974479824620   -0.0000000000000000
     0.0000000000000000    0.0000000000000000   10.6174974479824620
   S    Zn   In
    32     8    16
Direct
  0.3712228943578549  0.3712228943578549  0.3712228943578549
  0.6287770756421498  0.1287771056421452  0.8712229243578502
  0.1287771056421452  0.8712229243578502  0.6287770756421498
  0.8712229243578502  0.6287770756421498  0.1287771056421452
  0.1212228943578548  0.6212229243578502  0.3787771056421451
  0.8787770756421498  0.8787770756421498  0.8787770756421498
  0.6212229243578502  0.3787771056421451  0.1212228943578549
  0.3787771056421451  0.1212228943578548  0.6212229243578502
  0.6212229243578502  0.1212228943578549  0.3787771056421451
  0.1212228943578548  0.3787771056421451  0.6212229243578502
  0.3787771056421451  0.6212229243578502  0.1212228943578549
  0.1287771056421452  0.6287770756421498  0.8712229243578502
  0.6287770756421498  0.8712229243578502  0.1287771056421452
  0.8712229243578502  0.1287771056421452  0.6287770756421498
  0.3712228943578549  0.8712229243578502  0.8712229243578502
  0.6287770756421498  0.6287770756421498  0.3712228943578549
  0.1287771056421452  0.3712228943578549  0.1287771056421452
  0.1212228943578549  0.1212228943578549  0.8787770756421498
  0.8787770756421498  0.3787771056421451  0.3787771056421451
  0.6212229243578502  0.8787770756421498  0.6212229243578502
  0.6212229243578502  0.6212229243578502  0.8787770756421498
  0.1212228943578548  0.8787770756421498  0.1212228943578549
  0.1287771056421452  0.1287771056421452  0.3712228943578549
  0.6287770756421498  0.3712228943578549  0.6287770756421498
  0.8712229243578502  0.3712228943578549  0.8712229243578502
  0.3712228943578549  0.6287770756421498  0.6287770756421498
  0.3787771056421451  0.8787770756421498  0.3787771056421451
  0.8787770756421498  0.1212228943578549  0.1212228943578549
  0.8787770756421498  0.6212229243578502  0.6212229243578502
  0.3712228943578549  0.1287771056421452  0.1287771056421452
  0.8712229243578502  0.8712229243578502  0.3712228943578549
  0.3787771056421451  0.3787771056421451  0.8787770756421498
  0.5000000000000000  0.5000000000000000  0.5000000000000000
  0.5000000000000000  0.0000000000000000 -0.0000000000000000
  0.0000000000000000  0.0000000000000000  0.5000000000000000
  0.0000000000000000  0.5000000000000000 -0.0000000000000000
  0.2500000000000000  0.7500000000000000  0.2500000000000000
  0.7500000000000000  0.7500000000000000  0.7500000000000000
  0.7500000000000000  0.2500000000000000  0.2500000000000000
  0.2500000000000000  0.2500000000000000  0.7500000000000000
  0.1250000000000000  0.1250000000000000  0.1250000000000000
  0.8750000000000000  0.3750000000000000  0.6250000000000000
  0.3750000000000000  0.6250000000000000  0.8750000000000000
  0.6250000000000000  0.8750000000000000  0.3750000000000000
  0.3750000000000000  0.8750000000000000  0.6250000000000000
  0.8750000000000000  0.6250000000000000  0.3750000000000000
  0.6250000000000000  0.3750000000000000  0.8750000000000000
  0.1250000000000000  0.6250000000000000  0.6250000000000000
  0.8750000000000000  0.8750000000000000  0.1250000000000000
  0.3750000000000000  0.1250000000000000  0.3750000000000000
  0.3750000000000000  0.3750000000000000  0.1250000000000000
  0.8750000000000000  0.1250000000000000  0.8750000000000000
  0.6250000000000000  0.1250000000000000  0.6250000000000000
  0.1250000000000000  0.8750000000000000  0.8750000000000000
  0.1250000000000000  0.3750000000000000  0.3750000000000000
  0.6250000000000000  0.6250000000000000  0.1250000000000000
 
  0.00000000E+00  0.00000000E+00  0.00000000E+00
  0.00000000E+00  0.00000000E+00  0.00000000E+00
  0.00000000E+00  0.00000000E+00  0.00000000E+00
  0.00000000E+00  0.00000000E+00  0.00000000E+00
  0.00000000E+00  0.00000000E+00  0.00000000E+00
  0.00000000E+00  0.00000000E+00  0.00000000E+00
  0.00000000E+00  0.00000000E+00  0.00000000E+00
  0.00000000E+00  0.00000000E+00  0.00000000E+00
  0.00000000E+00  0.00000000E+00  0.00000000E+00
  0.00000000E+00  0.00000000E+00  0.00000000E+00
  0.00000000E+00  0.00000000E+00  0.00000000E+00
  0.00000000E+00  0.00000000E+00  0.00000000E+00
  0.00000000E+00  0.00000000E+00  0.00000000E+00
  0.00000000E+00  0.00000000E+00  0.00000000E+00
  0.00000000E+00  0.00000000E+00  0.00000000E+00
  0.00000000E+00  0.00000000E+00  0.00000000E+00
  0.00000000E+00  0.00000000E+00  0.00000000E+00
  0.00000000E+00  0.00000000E+00  0.00000000E+00
  0.00000000E+00  0.00000000E+00  0.00000000E+00
  0.00000000E+00  0.00000000E+00  0.00000000E+00
  0.00000000E+00  0.00000000E+00  0.00000000E+00
  0.00000000E+00  0.00000000E+00  0.00000000E+00
  0.00000000E+00  0.00000000E+00  0.00000000E+00
  0.00000000E+00  0.00000000E+00  0.00000000E+00
  0.00000000E+00  0.00000000E+00  0.00000000E+00
  0.00000000E+00  0.00000000E+00  0.00000000E+00
  0.00000000E+00  0.00000000E+00  0.00000000E+00
  0.00000000E+00  0.00000000E+00  0.00000000E+00
  0.00000000E+00  0.00000000E+00  0.00000000E+00
  0.00000000E+00  0.00000000E+00  0.00000000E+00
  0.00000000E+00  0.00000000E+00  0.00000000E+00
  0.00000000E+00  0.00000000E+00  0.00000000E+00
  0.00000000E+00  0.00000000E+00  0.00000000E+00
  0.00000000E+00  0.00000000E+00  0.00000000E+00
  0.00000000E+00  0.00000000E+00  0.00000000E+00
  0.00000000E+00  0.00000000E+00  0.00000000E+00
  0.00000000E+00  0.00000000E+00  0.00000000E+00
  0.00000000E+00  0.00000000E+00  0.00000000E+00
  0.00000000E+00  0.00000000E+00  0.00000000E+00
  0.00000000E+00  0.00000000E+00  0.00000000E+00
  0.00000000E+00  0.00000000E+00  0.00000000E+00
  0.00000000E+00  0.00000000E+00  0.00000000E+00
  0.00000000E+00  0.00000000E+00  0.00000000E+00
  0.00000000E+00  0.00000000E+00  0.00000000E+00
  0.00000000E+00  0.00000000E+00  0.00000000E+00
  0.00000000E+00  0.00000000E+00  0.00000000E+00
  0.00000000E+00  0.00000000E+00  0.00000000E+00
  0.00000000E+00  0.00000000E+00  0.00000000E+00
  0.00000000E+00  0.00000000E+00  0.00000000E+00
  0.00000000E+00  0.00000000E+00  0.00000000E+00
  0.00000000E+00  0.00000000E+00  0.00000000E+00
  0.00000000E+00  0.00000000E+00  0.00000000E+00
  0.00000000E+00  0.00000000E+00  0.00000000E+00
  0.00000000E+00  0.00000000E+00  0.00000000E+00
  0.00000000E+00  0.00000000E+00  0.00000000E+00
  0.00000000E+00  0.00000000E+00  0.00000000E+00
