  56  56   0   0
  0.2120801E+02  0.1059000E-08  0.1059000E-08  0.1059000E-08  0.5000000E-15
  1.000000000000000E-004
  CAR 
 ZnIn2S4 bulk PBE-D3BJ relaxation        
     12.46631394    -11.02015094  301      4.41241369      1.00000000
    -11.020  0.0000E+00  0.0000E+00
    -10.942  0.0000E+00  0.0000E+00
    -10.864  0.0000E+00  0.0000E+00
    -10.785  0.0000E+00  0.0000E+00
    -10.707  0.0000E+00  0.0000E+00
    -10.629  0.0000E+00  0.0000E+00
    -10.550  0.0000E+00  0.0000E+00
    -10.472  0.0000E+00  0.0000E+00
    -10.394  0.0000E+00  0.0000E+00
    -10.316  0.0000E+00  0.0000E+00
    -10.237  0.1141E-16  0.8934E-18
    -10.159  0.1267E-09  0.9920E-11
    -10.081  0.1061E-04  0.8308E-06
    -10.002  0.1080E-01  0.8464E-03
     -9.924  0.2586E+00  0.2109E-01
     -9.846  0.5778E+00  0.6632E-01
     -9.768  0.5329E+00  0.1080E+00
     -9.689  0.3227E+00  0.1333E+00
     -9.611  0.4130E+00  0.1656E+00
     -9.533  0.4977E+00  0.2046E+00
     -9.454  0.9101E+00  0.2759E+00
     -9.376  0.1536E+01  0.3961E+00
     -9.298  0.3012E+01  0.6319E+00
     -9.220  0.1961E+01  0.7855E+00
     -9.141  0.1848E+00  0.7999E+00
     -9.063  0.7807E-03  0.8000E+00
     -8.985  0.4144E-05  0.8000E+00
     -8.906  0.8409E-03  0.8001E+00
     -8.828  0.1293E-01  0.8011E+00
     -8.750  0.3182E-01  0.8036E+00
     -8.672  0.4187E-01  0.8068E+00
     -8.593  0.6859E-01  0.8122E+00
     -8.515  0.6024E-01  0.8169E+00
     -8.437  0.9650E-01  0.8245E+00
     -8.358  0.1097E+00  0.8331E+00
     -8.280  0.3383E-01  0.8357E+00
     -8.202  0.5589E-01  0.8401E+00
     -8.123  0.1004E+00  0.8480E+00
     -8.045  0.1308E+00  0.8582E+00
     -7.967  0.1089E+00  0.8667E+00
     -7.889  0.6778E-01  0.8720E+00
     -7.810  0.5677E-01  0.8765E+00
     -7.732  0.6326E-01  0.8814E+00
     -7.654  0.1336E+00  0.8919E+00
     -7.575  0.2327E+00  0.9101E+00
     -7.497  0.1387E+00  0.9210E+00
     -7.419  0.1312E+00  0.9312E+00
     -7.341  0.1954E+00  0.9465E+00
     -7.262  0.1965E+00  0.9619E+00
     -7.184  0.1953E+00  0.9772E+00
     -7.106  0.1273E+00  0.9872E+00
     -7.027  0.1991E+00  0.1003E+01
     -6.949  0.1669E+00  0.1016E+01
     -6.871  0.1996E+00  0.1031E+01
     -6.793  0.1599E+00  0.1044E+01
     -6.714  0.2337E+00  0.1062E+01
     -6.636  0.4124E+00  0.1095E+01
     -6.558  0.2629E+00  0.1115E+01
     -6.479  0.5993E-01  0.1120E+01
     -6.401  0.2323E-02  0.1120E+01
     -6.323  0.2722E-05  0.1120E+01
     -6.245  0.4174E-10  0.1120E+01
     -6.166  0.5318E-17  0.1120E+01
     -6.088  0.0000E+00  0.1120E+01
     -6.010  0.0000E+00  0.1120E+01
     -5.931  0.0000E+00  0.1120E+01
     -5.853  0.0000E+00  0.1120E+01
     -5.775  0.0000E+00  0.1120E+01
     -5.697  0.0000E+00  0.1120E+01
     -5.618  0.0000E+00  0.1120E+01
     -5.540  0.0000E+00  0.1120E+01
     -5.462  0.0000E+00  0.1120E+01
     -5.383  0.0000E+00  0.1120E+01
     -5.305  0.0000E+00  0.1120E+01
     -5.227  0.0000E+00  0.1120E+01
     -5.149  0.0000E+00  0.1120E+01
     -5.070  0.0000E+00  0.1120E+01
     -4.992  0.0000E+00  0.1120E+01
     -4.914  0.0000E+00  0.1120E+01
     -4.835  0.0000E+00  0.1120E+01
     -4.757  0.0000E+00  0.1120E+01
     -4.679  0.0000E+00  0.1120E+01
     -4.601  0.0000E+00  0.1120E+01
     -4.522  0.0000E+00  0.1120E+01
     -4.444  0.0000E+00  0.1120E+01
     -4.366  0.0000E+00  0.1120E+01
     -4.287  0.0000E+00  0.1120E+01
     -4.209  0.0000E+00  0.1120E+01
     -4.131  0.0000E+00  0.1120E+01
     -4.052  0.0000E+00  0.1120E+01
     -3.974  0.0000E+00  0.1120E+01
     -3.896  0.0000E+00  0.1120E+01
     -3.818  0.0000E+00  0.1120E+01
     -3.739  0.0000E+00  0.1120E+01
     -3.661  0.0000E+00  0.1120E+01
     -3.583  0.0000E+00  0.1120E+01
     -3.504  0.0000E+00  0.1120E+01
     -3.426  0.0000E+00  0.1120E+01
     -3.348  0.0000E+00  0.1120E+01
     -3.270  0.0000E+00  0.1120E+01
     -3.191  0.0000E+00  0.1120E+01
     -3.113  0.0000E+00  0.1120E+01
     -3.035  0.0000E+00  0.1120E+01
     -2.956  0.0000E+00  0.1120E+01
     -2.878  0.0000E+00  0.1120E+01
     -2.800  0.0000E+00  0.1120E+01
     -2.722  0.0000E+00  0.1120E+01
     -2.643  0.0000E+00  0.1120E+01
     -2.565  0.0000E+00  0.1120E+01
     -2.487  0.0000E+00  0.1120E+01
     -2.408  0.9064E-14  0.1120E+01
     -2.330  0.1741E-07  0.1120E+01
     -2.252  0.3170E-03  0.1120E+01
     -2.174  0.7430E-01  0.1126E+01
     -2.095  0.5081E+00  0.1166E+01
     -2.017  0.3878E+00  0.1196E+01
     -1.939  0.5591E+00  0.1240E+01
     -1.860  0.9340E+00  0.1313E+01
     -1.782  0.1536E+01  0.1433E+01
     -1.704  0.1071E+01  0.1517E+01
     -1.626  0.7105E-01  0.1523E+01
     -1.547  0.1915E-01  0.1524E+01
     -1.469  0.7910E-02  0.1525E+01
     -1.391  0.8897E-01  0.1532E+01
     -1.312  0.9039E-01  0.1539E+01
     -1.234  0.8248E-01  0.1545E+01
     -1.156  0.1297E+00  0.1555E+01
     -1.078  0.1185E+00  0.1565E+01
     -0.999  0.1103E+00  0.1573E+01
     -0.921  0.1864E+00  0.1588E+01
     -0.843  0.2476E+00  0.1607E+01
     -0.764  0.1988E+00  0.1623E+01
     -0.686  0.1595E+00  0.1635E+01
     -0.608  0.1222E+00  0.1645E+01
     -0.530  0.1381E+00  0.1656E+01
     -0.451  0.1599E+00  0.1668E+01
     -0.373  0.1188E+00  0.1677E+01
     -0.295  0.6184E-01  0.1682E+01
     -0.216  0.1000E+00  0.1690E+01
     -0.138  0.9076E-01  0.1697E+01
     -0.060  0.2457E-01  0.1699E+01
      0.018  0.1166E-02  0.1699E+01
      0.097  0.2354E-01  0.1701E+01
      0.175  0.9803E-01  0.1709E+01
      0.253  0.7063E-01  0.1714E+01
      0.332  0.4257E-01  0.1718E+01
      0.410  0.6256E-01  0.1723E+01
      0.488  0.8504E-01  0.1729E+01
      0.567  0.9753E-01  0.1737E+01
      0.645  0.1302E+00  0.1747E+01
      0.723  0.2168E+00  0.1764E+01
      0.801  0.2825E+00  0.1786E+01
      0.880  0.1332E+00  0.1797E+01
      0.958  0.8593E-01  0.1803E+01
      1.036  0.1958E+00  0.1819E+01
      1.115  0.1754E+00  0.1832E+01
      1.193  0.2106E+00  0.1849E+01
      1.271  0.1472E+00  0.1860E+01
      1.349  0.1084E+00  0.1869E+01
      1.428  0.1393E+00  0.1880E+01
      1.506  0.1434E+00  0.1891E+01
      1.584  0.2217E+00  0.1908E+01
      1.663  0.2461E+00  0.1928E+01
      1.741  0.2004E+00  0.1943E+01
      1.819  0.1663E+00  0.1956E+01
      1.897  0.1786E+00  0.1970E+01
      1.976  0.9286E-01  0.1978E+01
      2.054  0.1394E+00  0.1988E+01
      2.132  0.1975E+00  0.2004E+01
      2.211  0.2290E+00  0.2022E+01
      2.289  0.1315E+00  0.2032E+01
      2.367  0.2534E+00  0.2052E+01
      2.445  0.3490E+00  0.2079E+01
      2.524  0.2978E+00  0.2103E+01
      2.602  0.1394E+00  0.2114E+01
      2.680  0.1137E+00  0.2122E+01
      2.759  0.1461E+00  0.2134E+01
      2.837  0.1053E+00  0.2142E+01
      2.915  0.2889E+00  0.2165E+01
      2.993  0.2847E+00  0.2187E+01
      3.072  0.2813E+00  0.2209E+01
      3.150  0.2524E+00  0.2229E+01
      3.228  0.3073E+00  0.2253E+01
      3.307  0.2877E+00  0.2275E+01
      3.385  0.1294E+00  0.2286E+01
      3.463  0.2372E+00  0.2304E+01
      3.541  0.3738E+00  0.2333E+01
      3.620  0.2651E+00  0.2354E+01
      3.698  0.2165E+00  0.2371E+01
      3.776  0.2091E+00  0.2387E+01
      3.855  0.1931E+00  0.2403E+01
      3.933  0.1713E+00  0.2416E+01
      4.011  0.2636E+00  0.2437E+01
      4.089  0.2378E+00  0.2455E+01
      4.168  0.2537E+00  0.2475E+01
      4.246  0.6156E-01  0.2480E+01
      4.324  0.1261E-02  0.2480E+01
      4.403  0.6463E-06  0.2480E+01
      4.481  0.3902E-11  0.2480E+01
      4.559  0.0000E+00  0.2480E+01
      4.637  0.0000E+00  0.2480E+01
      4.716  0.0000E+00  0.2480E+01
      4.794  0.0000E+00  0.2480E+01
      4.872  0.0000E+00  0.2480E+01
      4.951  0.0000E+00  0.2480E+01
      5.029  0.0000E+00  0.2480E+01
      5.107  0.0000E+00  0.2480E+01
      5.186  0.0000E+00  0.2480E+01
      5.264  0.3622E-13  0.2480E+01
      5.342  0.1060E-07  0.2480E+01
      5.420  0.2847E-04  0.2480E+01
      5.499  0.9890E-03  0.2480E+01
      5.577  0.9533E-03  0.2480E+01
      5.655  0.2510E-04  0.2480E+01
      5.734  0.9719E-08  0.2480E+01
      5.812  0.1340E-04  0.2480E+01
      5.890  0.1579E-02  0.2480E+01
      5.968  0.6312E-02  0.2481E+01
      6.047  0.1741E-01  0.2482E+01
      6.125  0.8366E-02  0.2483E+01
      6.203  0.3079E-01  0.2485E+01
      6.282  0.5820E-01  0.2490E+01
      6.360  0.2241E-01  0.2492E+01
      6.438  0.2592E-01  0.2494E+01
      6.516  0.3869E-01  0.2497E+01
      6.595  0.3313E-01  0.2499E+01
      6.673  0.6234E-01  0.2504E+01
      6.751  0.6526E-01  0.2509E+01
      6.830  0.1165E+00  0.2518E+01
      6.908  0.9862E-01  0.2526E+01
      6.986  0.7196E-01  0.2532E+01
      7.064  0.5872E-01  0.2536E+01
      7.143  0.2052E+00  0.2552E+01
      7.221  0.1309E+00  0.2563E+01
      7.299  0.1068E+00  0.2571E+01
      7.378  0.1369E+00  0.2582E+01
      7.456  0.1480E+00  0.2593E+01
      7.534  0.2081E+00  0.2610E+01
      7.612  0.1798E+00  0.2624E+01
      7.691  0.9553E-01  0.2631E+01
      7.769  0.1437E+00  0.2642E+01
      7.847  0.1391E+00  0.2653E+01
      7.926  0.4962E-01  0.2657E+01
      8.004  0.1755E-01  0.2658E+01
      8.082  0.1641E-01  0.2660E+01
      8.160  0.4812E-01  0.2664E+01
      8.239  0.4622E-01  0.2667E+01
      8.317  0.3316E-01  0.2670E+01
      8.395  0.2468E-01  0.2672E+01
      8.474  0.1603E-01  0.2673E+01
      8.552  0.6415E-01  0.2678E+01
      8.630  0.9320E-01  0.2685E+01
      8.708  0.7881E-01  0.2691E+01
      8.787  0.1195E+00  0.2701E+01
      8.865  0.1148E+00  0.2710E+01
      8.943  0.1147E+00  0.2719E+01
      9.022  0.9281E-01  0.2726E+01
      9.100  0.1036E+00  0.2734E+01
      9.178  0.1511E+00  0.2746E+01
      9.256  0.1467E+00  0.2757E+01
      9.335  0.1208E+00  0.2767E+01
      9.413  0.1608E+00  0.2779E+01
      9.491  0.1348E+00  0.2790E+01
      9.570  0.7980E-01  0.2796E+01
      9.648  0.6050E-01  0.2801E+01
      9.726  0.8893E-01  0.2808E+01
      9.805  0.1777E+00  0.2822E+01
      9.883  0.1476E+00  0.2833E+01
      9.961  0.1413E+00  0.2844E+01
     10.039  0.1324E+00  0.2855E+01
     10.118  0.1592E+00  0.2867E+01
     10.196  0.2041E+00  0.2883E+01
     10.274  0.1474E+00  0.2895E+01
     10.353  0.1406E+00  0.2906E+01
     10.431  0.2594E+00  0.2926E+01
     10.509  0.2627E+00  0.2947E+01
     10.587  0.1612E+00  0.2959E+01
     10.666  0.1798E+00  0.2973E+01
     10.744  0.1648E+00  0.2986E+01
     10.822  0.2551E+00  0.3006E+01
     10.901  0.2236E+00  0.3024E+01
     10.979  0.1294E+00  0.3034E+01
     11.057  0.3646E-01  0.3037E+01
     11.135  0.2112E-01  0.3038E+01
     11.214  0.6146E-02  0.3039E+01
     11.292  0.8088E-02  0.3040E+01
     11.370  0.3712E-02  0.3040E+01
     11.449  0.1814E-02  0.3040E+01
     11.527  0.1591E-03  0.3040E+01
     11.605  0.2901E-06  0.3040E+01
     11.683  0.5280E-11  0.3040E+01
     11.762  0.8863E-18  0.3040E+01
     11.840  0.0000E+00  0.3040E+01
     11.918  0.0000E+00  0.3040E+01
     11.997  0.0000E+00  0.3040E+01
     12.075  0.0000E+00  0.3040E+01
     12.153  0.0000E+00  0.3040E+01
     12.231  0.0000E+00  0.3040E+01
     12.310  0.0000E+00  0.3040E+01
     12.388  0.0000E+00  0.3040E+01
     12.466  0.0000E+00  0.3040E+01
