       N       E                     dE             d eps       ncg     rms          rms(c)
DAV:   1     0.600779068086E+04    0.60078E+04   -0.19969E+05  6080   0.189E+03
DAV:   2     0.111281638331E+04   -0.48950E+04   -0.47462E+04  6080   0.522E+02
DAV:   3    -0.562336289987E+02   -0.11691E+04   -0.10859E+04  6688   0.234E+02
DAV:   4    -0.211313333112E+03   -0.15508E+03   -0.15096E+03  7808   0.789E+01
DAV:   5    -0.217408030591E+03   -0.60947E+01   -0.60411E+01  7040   0.179E+01    0.441E+01
DAV:   6    -0.203233197417E+03    0.14175E+02   -0.25234E+01  8664   0.552E+01    0.295E+01
DAV:   7    -0.204400875472E+03   -0.11677E+01   -0.39515E+01  8392   0.145E+01    0.985E+00
DAV:   8    -0.203769504514E+03    0.63137E+00   -0.30840E+00  7992   0.746E+00    0.634E+00
DAV:   9    -0.203732584033E+03    0.36920E-01   -0.11747E+00  8952   0.356E+00    0.221E+00
DAV:  10    -0.203725181840E+03    0.74022E-02   -0.20136E-01  8928   0.241E+00    0.150E+00
DAV:  11    -0.203730933342E+03   -0.57515E-02   -0.40874E-02  8488   0.110E+00    0.463E-01
DAV:  12    -0.203728854257E+03    0.20791E-02   -0.14672E-02  9136   0.488E-01    0.272E-01
DAV:  13    -0.203729184176E+03   -0.32992E-03   -0.43343E-03  8584   0.137E-01    0.286E-01
DAV:  14    -0.203729066841E+03    0.11734E-03   -0.12816E-03  7504   0.180E-01    0.128E-01
DAV:  15    -0.203729068856E+03   -0.20153E-05   -0.34271E-04  8992   0.431E-02    0.325E-02
DAV:  16    -0.203729070591E+03   -0.17348E-05   -0.50264E-05  7168   0.288E-02    0.284E-02
DAV:  17    -0.203729075827E+03   -0.52355E-05   -0.23215E-05  6608   0.812E-03    0.590E-03
DAV:  18    -0.203729074949E+03    0.87792E-06   -0.14811E-06  4032   0.360E-03
   1 F= -.22188782E+03 E0= -.22188782E+03  d E =-.221888E+03
       N       E                     dE             d eps       ncg     rms          rms(c)
DAV:   1    -0.206378186192E+03   -0.26491E+01   -0.97692E+02  6408   0.541E+01    0.666E+01
DAV:   2    -0.216461942939E+03   -0.10084E+02   -0.12585E+02  8344   0.251E+01    0.248E+01
DAV:   3    -0.215786794090E+03    0.67515E+00   -0.45949E+00  8192   0.770E+00    0.208E+01
DAV:   4    -0.215537574874E+03    0.24922E+00   -0.16676E+00  8336   0.407E+00    0.112E+01
DAV:   5    -0.215496767824E+03    0.40807E-01   -0.33233E-01  8368   0.227E+00    0.320E+00
DAV:   6    -0.215496938714E+03   -0.17089E-03   -0.57044E-02  7816   0.592E-01    0.142E+00
DAV:   7    -0.215495132844E+03    0.18059E-02   -0.74204E-03  8544   0.321E-01    0.743E-01
DAV:   8    -0.215493653966E+03    0.14789E-02   -0.74966E-03  8344   0.443E-01    0.101E-01
DAV:   9    -0.215493769093E+03   -0.11513E-03   -0.16584E-03  8744   0.107E-01    0.105E-01
DAV:  10    -0.215493783621E+03   -0.14529E-04   -0.16009E-04  6392   0.279E-02    0.108E-01
DAV:  11    -0.215493784211E+03   -0.59033E-06   -0.54119E-06  5016   0.524E-03
   2 F= -.23327771E+03 E0= -.23327771E+03  d E =-.113899E+02
       N       E                     dE             d eps       ncg     rms          rms(c)
DAV:   1    -0.215473964229E+03    0.19819E-01   -0.67081E+01  6320   0.132E+01    0.708E+00
DAV:   2    -0.216059670844E+03   -0.58571E+00   -0.75225E+00  8456   0.618E+00    0.241E+00
DAV:   3    -0.216010636053E+03    0.49035E-01   -0.25509E-01  8064   0.189E+00    0.189E+00
DAV:   4    -0.216002497125E+03    0.81389E-02   -0.83990E-02  9160   0.962E-01    0.125E+00
DAV:   5    -0.216000839747E+03    0.16574E-02   -0.14230E-02  7880   0.363E-01    0.517E-01
DAV:   6    -0.216000570450E+03    0.26930E-03   -0.37284E-03  8584   0.210E-01    0.177E-01
DAV:   7    -0.216000527920E+03    0.42530E-04   -0.77161E-04  7488   0.700E-02    0.168E-01
DAV:   8    -0.216000489277E+03    0.38644E-04   -0.11253E-04  7304   0.206E-02    0.109E-01
DAV:   9    -0.216000481374E+03    0.79024E-05   -0.42335E-05  8464   0.259E-02    0.463E-02
DAV:  10    -0.216000477666E+03    0.37085E-05   -0.99221E-06  6560   0.859E-03    0.133E-02
DAV:  11    -0.216000475070E+03    0.25961E-05   -0.24989E-06  4472   0.463E-03    0.703E-03
DAV:  12    -0.216000474129E+03    0.94037E-06   -0.13962E-06  3552   0.290E-03
   3 F= -.23368878E+03 E0= -.23368878E+03  d E =-.118010E+02
       N       E                     dE             d eps       ncg     rms          rms(c)
DAV:   1    -0.215995775239E+03    0.46998E-02   -0.15666E-01  6504   0.627E-01    0.297E-01
DAV:   2    -0.215997083032E+03   -0.13078E-02   -0.17151E-02  8496   0.296E-01    0.112E-01
DAV:   3    -0.215996969213E+03    0.11382E-03   -0.53948E-04  8088   0.883E-02    0.832E-02
DAV:   4    -0.215996954509E+03    0.14704E-04   -0.18596E-04  9208   0.445E-02    0.480E-02
DAV:   5    -0.215996954748E+03   -0.23918E-06   -0.35155E-05  7648   0.193E-02    0.176E-02
DAV:   6    -0.215996958090E+03   -0.33420E-05   -0.78239E-06  6408   0.777E-03    0.979E-03
DAV:   7    -0.215996958966E+03   -0.87662E-06   -0.11741E-06  3664   0.391E-03
   4 F= -.23368985E+03 E0= -.23368985E+03  d E =-.118020E+02
       N       E                     dE             d eps       ncg     rms          rms(c)
DAV:   1    -0.217282718237E+03   -0.12858E+01   -0.38091E+01  9104   0.313E+01    0.978E+00
DAV:   2    -0.215883683158E+03    0.13990E+01   -0.41473E+00  8664   0.161E+01    0.337E+00
DAV:   3    -0.215656600183E+03    0.22708E+00   -0.65617E-01  8176   0.394E+00    0.149E+00
DAV:   4    -0.215639487742E+03    0.17112E-01   -0.47646E-02  9056   0.808E-01    0.109E+00
DAV:   5    -0.215633969630E+03    0.55181E-02   -0.78025E-03  8288   0.320E-01    0.328E-01
DAV:   6    -0.215633079364E+03    0.89027E-03   -0.16144E-03  9416   0.252E-01    0.109E-01
DAV:   7    -0.215633224854E+03   -0.14549E-03   -0.11088E-03  6880   0.811E-02    0.699E-02
DAV:   8    -0.215633199794E+03    0.25059E-04   -0.70284E-05  7544   0.291E-02    0.357E-02
DAV:   9    -0.215633193650E+03    0.61444E-05   -0.20872E-05  7192   0.266E-02    0.107E-02
DAV:  10    -0.215633200291E+03   -0.66415E-05   -0.74710E-06  5688   0.938E-03    0.381E-03
DAV:  11    -0.215633200494E+03   -0.20244E-06   -0.10390E-06  3520   0.298E-03
   5 F= -.23371610E+03 E0= -.23371610E+03  d E =-.262486E-01
       N       E                     dE             d eps       ncg     rms          rms(c)
DAV:   1    -0.216060299475E+03   -0.42710E+00   -0.60087E+00  9024   0.129E+01    0.372E+00
DAV:   2    -0.215850392178E+03    0.20991E+00   -0.62354E-01  8896   0.522E+00    0.134E+00
DAV:   3    -0.215812683235E+03    0.37709E-01   -0.87023E-02  8352   0.144E+00    0.542E-01
DAV:   4    -0.215809409007E+03    0.32742E-02   -0.71415E-03  8512   0.298E-01    0.353E-01
DAV:   5    -0.215808273263E+03    0.11357E-02   -0.11455E-03  8872   0.143E-01    0.680E-02
DAV:   6    -0.215808236635E+03    0.36628E-04   -0.51384E-04  8040   0.697E-02    0.561E-02
DAV:   7    -0.215808245984E+03   -0.93484E-05   -0.37724E-05  7776   0.236E-02    0.380E-02
DAV:   8    -0.215808237555E+03    0.84289E-05   -0.16290E-05  6272   0.141E-02    0.143E-02
DAV:   9    -0.215808242290E+03   -0.47354E-05   -0.41497E-06  4504   0.116E-02    0.258E-03
DAV:  10    -0.215808242359E+03   -0.68663E-07   -0.11298E-06  3544   0.278E-03
   6 F= -.23373634E+03 E0= -.23373634E+03  d E =-.464914E-01
       N       E                     dE             d eps       ncg     rms          rms(c)
DAV:   1    -0.215806594145E+03    0.16481E-02   -0.68317E-04  9104   0.135E-01    0.411E-02
DAV:   2    -0.215806566514E+03    0.27631E-04   -0.71998E-05  8864   0.581E-02    0.148E-02
DAV:   3    -0.215806563251E+03    0.32624E-05   -0.88517E-06  5912   0.157E-02    0.513E-03
DAV:   4    -0.215806565447E+03   -0.21960E-05   -0.29850E-06  4080   0.427E-03    0.386E-03
DAV:   5    -0.215806567062E+03   -0.16144E-05   -0.46372E-07  3384   0.229E-03    0.174E-03
DAV:   6    -0.215806568121E+03   -0.10595E-05   -0.20615E-07  3376   0.274E-03    0.501E-04
DAV:   7    -0.215806568383E+03   -0.26193E-06   -0.11149E-07  3352   0.163E-03
   7 F= -.23373634E+03 E0= -.23373634E+03  d E =-.464890E-01
       N       E                     dE             d eps       ncg     rms          rms(c)
DAV:   1    -0.215796040212E+03    0.10528E-01   -0.19211E-01  7136   0.121E+00    0.365E-01
DAV:   2    -0.215795659106E+03    0.38111E-03   -0.19656E-02  8512   0.558E-01    0.170E-01
DAV:   3    -0.215795515408E+03    0.14370E-03   -0.19748E-03  8224   0.167E-01    0.893E-02
DAV:   4    -0.215795472363E+03    0.43045E-04   -0.36683E-04  8904   0.734E-02    0.563E-02
DAV:   5    -0.215795480152E+03   -0.77897E-05   -0.67919E-05  7696   0.266E-02    0.210E-02
DAV:   6    -0.215795484466E+03   -0.43137E-05   -0.66309E-06  5560   0.109E-02    0.154E-02
DAV:   7    -0.215795487578E+03   -0.31116E-05   -0.33111E-06  4528   0.653E-03    0.343E-03
DAV:   8    -0.215795488427E+03   -0.84970E-06   -0.62643E-07  3520   0.257E-03
   8 F= -.23373864E+03 E0= -.23373864E+03  d E =-.230024E-02
       N       E                     dE             d eps       ncg     rms          rms(c)
DAV:   1    -0.215787501265E+03    0.79863E-02   -0.78830E-02  7168   0.773E-01    0.234E-01
DAV:   2    -0.215787339372E+03    0.16189E-03   -0.80729E-03  8480   0.357E-01    0.109E-01
DAV:   3    -0.215787283485E+03    0.55887E-04   -0.82156E-04  8264   0.107E-01    0.572E-02
DAV:   4    -0.215787268954E+03    0.14531E-04   -0.14972E-04  8880   0.469E-02    0.363E-02
DAV:   5    -0.215787276173E+03   -0.72186E-05   -0.28151E-05  7680   0.172E-02    0.135E-02
DAV:   6    -0.215787279049E+03   -0.28767E-05   -0.27745E-06  4512   0.710E-03    0.958E-03
DAV:   7    -0.215787281097E+03   -0.20475E-05   -0.13615E-06  3504   0.413E-03    0.222E-03
DAV:   8    -0.215787281599E+03   -0.50166E-06   -0.35388E-07  3464   0.176E-03
   9 F= -.23373901E+03 E0= -.23373901E+03  d E =-.267284E-02
