In2 S4 Zn
1.0
       10.5900001526         0.0000000000         0.0000000000
        0.0000000000        10.5900001526         0.0000000000
        0.0000000000         0.0000000000        10.5900001526
    S   Zn   In
   32    8   16
Direct
     0.382999986         0.382999986         0.382999986
     0.616999984         0.117000014         0.883000016
     0.117000014         0.883000016         0.616999984
     0.883000016         0.616999984         0.117000014
     0.132999986         0.633000016         0.367000014
     0.866999984         0.866999984         0.866999984
     0.633000016         0.367000014         0.132999986
     0.367000014         0.132999986         0.633000016
     0.633000016         0.132999986         0.367000014
     0.132999986         0.367000014         0.633000016
     0.367000014         0.633000016         0.132999986
     0.117000014         0.616999984         0.883000016
     0.616999984         0.883000016         0.117000014
     0.883000016         0.117000014         0.616999984
     0.382999986         0.883000016         0.883000016
     0.616999984         0.616999984         0.382999986
     0.117000014         0.382999986         0.117000014
     0.132999986         0.132999986         0.866999984
     0.866999984         0.367000014         0.367000014
     0.633000016         0.866999984         0.633000016
     0.633000016         0.633000016         0.866999984
     0.132999986         0.866999984         0.132999986
     0.117000014         0.117000014         0.382999986
     0.616999984         0.382999986         0.616999984
     0.883000016         0.382999986         0.883000016
     0.382999986         0.616999984         0.616999984
     0.367000014         0.866999984         0.367000014
     0.866999984         0.132999986         0.132999986
     0.866999984         0.633000016         0.633000016
     0.382999986         0.117000014         0.117000014
     0.883000016         0.883000016         0.382999986
     0.367000014         0.367000014         0.866999984
     0.500000000         0.500000000         0.500000000
     0.500000000         0.000000000         0.000000000
     0.000000000         0.000000000         0.500000000
     0.000000000         0.500000000         0.000000000
     0.250000000         0.750000000         0.250000000
     0.750000000         0.750000000         0.750000000
     0.750000000         0.250000000         0.250000000
     0.250000000         0.250000000         0.750000000
     0.125000000         0.125000000         0.125000000
     0.875000000         0.375000000         0.625000000
     0.375000000         0.625000000         0.875000000
     0.625000000         0.875000000         0.375000000
     0.375000000         0.875000000         0.625000000
     0.875000000         0.625000000         0.375000000
     0.625000000         0.375000000         0.875000000
     0.125000000         0.625000000         0.625000000
     0.875000000         0.875000000         0.125000000
     0.375000000         0.125000000         0.375000000
     0.375000000         0.375000000         0.125000000
     0.875000000         0.125000000         0.875000000
     0.625000000         0.125000000         0.625000000
     0.125000000         0.875000000         0.875000000
     0.125000000         0.375000000         0.375000000
     0.625000000         0.625000000         0.125000000
