ZnIn2S4 bulk PBE-D3BJ relaxation        
           1
    10.590000    0.000000    0.000000
     0.000000   10.590000    0.000000
     0.000000    0.000000   10.590000
   S    Zn   In
  32   8  16
Direct configuration=     1
   0.38299999  0.38299999  0.38299999
   0.61699998  0.11700001  0.88300002
   0.11700001  0.88300002  0.61699998
   0.88300002  0.61699998  0.11700001
   0.13299999  0.63300002  0.36700001
   0.86699998  0.86699998  0.86699998
   0.63300002  0.36700001  0.13299999
   0.36700001  0.13299999  0.63300002
   0.63300002  0.13299999  0.36700001
   0.13299999  0.36700001  0.63300002
   0.36700001  0.63300002  0.13299999
   0.11700001  0.61699998  0.88300002
   0.61699998  0.88300002  0.11700001
   0.88300002  0.11700001  0.61699998
   0.38299999  0.88300002  0.88300002
   0.61699998  0.61699998  0.38299999
   0.11700001  0.38299999  0.11700001
   0.13299999  0.13299999  0.86699998
   0.86699998  0.36700001  0.36700001
   0.63300002  0.86699998  0.63300002
   0.63300002  0.63300002  0.86699998
   0.13299999  0.86699998  0.13299999
   0.11700001  0.11700001  0.38299999
   0.61699998  0.38299999  0.61699998
   0.88300002  0.38299999  0.88300002
   0.38299999  0.61699998  0.61699998
   0.36700001  0.86699998  0.36700001
   0.86699998  0.13299999  0.13299999
   0.86699998  0.63300002  0.63300002
   0.38299999  0.11700001  0.11700001
   0.88300002  0.88300002  0.38299999
   0.36700001  0.36700001  0.86699998
   0.50000000  0.50000000  0.50000000
   0.50000000  0.00000000  0.00000000
   0.00000000  0.00000000  0.50000000
   0.00000000  0.50000000  0.00000000
   0.25000000  0.75000000  0.25000000
   0.75000000  0.75000000  0.75000000
   0.75000000  0.25000000  0.25000000
   0.25000000  0.25000000  0.75000000
   0.12500000  0.12500000  0.12500000
   0.87500000  0.37500000  0.62500000
   0.37500000  0.62500000  0.87500000
   0.62500000  0.87500000  0.37500000
   0.37500000  0.87500000  0.62500000
   0.87500000  0.62500000  0.37500000
   0.62500000  0.37500000  0.87500000
   0.12500000  0.62500000  0.62500000
   0.87500000  0.87500000  0.12500000
   0.37500000  0.12500000  0.37500000
   0.37500000  0.37500000  0.12500000
   0.87500000  0.12500000  0.87500000
   0.62500000  0.12500000  0.62500000
   0.12500000  0.87500000  0.87500000
   0.12500000  0.37500000  0.37500000
   0.62500000  0.62500000  0.12500000
ZnIn2S4 bulk PBE-D3BJ relaxation        
           1
    10.650106    0.000000   -0.000000
    -0.000000   10.650106   -0.000000
     0.000000   -0.000000   10.650106
   S    Zn   In
  32   8  16
Direct configuration=     2
   0.37345342  0.37345342  0.37345342
   0.62654655  0.12654658  0.87345345
   0.12654658  0.87345345  0.62654655
   0.87345345  0.62654655  0.12654658
   0.12345342  0.62345345  0.37654658
   0.87654655  0.87654655  0.87654655
   0.62345345  0.37654658  0.12345342
   0.37654658  0.12345342  0.62345345
   0.62345345  0.12345342  0.37654658
   0.12345342  0.37654658  0.62345345
   0.37654658  0.62345345  0.12345342
   0.12654658  0.62654655  0.87345345
   0.62654655  0.87345345  0.12654658
   0.87345345  0.12654658  0.62654655
   0.37345342  0.87345345  0.87345345
   0.62654655  0.62654655  0.37345342
   0.12654658  0.37345342  0.12654658
   0.12345342  0.12345342  0.87654655
   0.87654655  0.37654658  0.37654658
   0.62345345  0.87654655  0.62345345
   0.62345345  0.62345345  0.87654655
   0.12345342  0.87654655  0.12345342
   0.12654658  0.12654658  0.37345342
   0.62654655  0.37345342  0.62654655
   0.87345345  0.37345342  0.87345345
   0.37345342  0.62654655  0.62654655
   0.37654658  0.87654655  0.37654658
   0.87654655  0.12345342  0.12345342
   0.87654655  0.62345345  0.62345345
   0.37345342  0.12654658  0.12654658
   0.87345345  0.87345345  0.37345342
   0.37654658  0.37654658  0.87654655
   0.50000000  0.50000000  0.50000000
   0.50000000  0.00000000 -0.00000000
   0.00000000  0.00000000  0.50000000
   0.00000000  0.50000000 -0.00000000
   0.25000000  0.75000000  0.25000000
   0.75000000  0.75000000  0.75000000
   0.75000000  0.25000000  0.25000000
   0.25000000  0.25000000  0.75000000
   0.12500000  0.12500000  0.12500000
   0.87500000  0.37500000  0.62500000
   0.37500000  0.62500000  0.87500000
   0.62500000  0.87500000  0.37500000
   0.37500000  0.87500000  0.62500000
   0.87500000  0.62500000  0.37500000
   0.62500000  0.37500000  0.87500000
   0.12500000  0.62500000  0.62500000
   0.87500000  0.87500000  0.12500000
   0.37500000  0.12500000  0.37500000
   0.37500000  0.37500000  0.12500000
   0.87500000  0.12500000  0.87500000
   0.62500000  0.12500000  0.62500000
   0.12500000  0.87500000  0.87500000
   0.12500000  0.37500000  0.37500000
   0.62500000  0.62500000  0.12500000
ZnIn2S4 bulk PBE-D3BJ relaxation        
           1
    10.665693    0.000000   -0.000000
    -0.000000   10.665693   -0.000000
     0.000000   -0.000000   10.665693
   S    Zn   In
  32   8  16
Direct configuration=     3
   0.37099157  0.37099157  0.37099157
   0.62900840  0.12900843  0.87099160
   0.12900843  0.87099160  0.62900840
   0.87099160  0.62900840  0.12900843
   0.12099157  0.62099160  0.37900843
   0.87900840  0.87900840  0.87900840
   0.62099160  0.37900843  0.12099157
   0.37900843  0.12099157  0.62099160
   0.62099160  0.12099157  0.37900843
   0.12099157  0.37900843  0.62099160
   0.37900843  0.62099160  0.12099157
   0.12900843  0.62900840  0.87099160
   0.62900840  0.87099160  0.12900843
   0.87099160  0.12900843  0.62900840
   0.37099157  0.87099160  0.87099160
   0.62900840  0.62900840  0.37099157
   0.12900843  0.37099157  0.12900843
   0.12099157  0.12099157  0.87900840
   0.87900840  0.37900843  0.37900843
   0.62099160  0.87900840  0.62099160
   0.62099160  0.62099160  0.87900840
   0.12099157  0.87900840  0.12099157
   0.12900843  0.12900843  0.37099157
   0.62900840  0.37099157  0.62900840
   0.87099160  0.37099157  0.87099160
   0.37099157  0.62900840  0.62900840
   0.37900843  0.87900840  0.37900843
   0.87900840  0.12099157  0.12099157
   0.87900840  0.62099160  0.62099160
   0.37099157  0.12900843  0.12900843
   0.87099160  0.87099160  0.37099157
   0.37900843  0.37900843  0.87900840
   0.50000000  0.50000000  0.50000000
   0.50000000  0.00000000 -0.00000000
   0.00000000  0.00000000  0.50000000
   0.00000000  0.50000000 -0.00000000
   0.25000000  0.75000000  0.25000000
   0.75000000  0.75000000  0.75000000
   0.75000000  0.25000000  0.25000000
   0.25000000  0.25000000  0.75000000
   0.12500000  0.12500000  0.12500000
   0.87500000  0.37500000  0.62500000
   0.37500000  0.62500000  0.87500000
   0.62500000  0.87500000  0.37500000
   0.37500000  0.87500000  0.62500000
   0.87500000  0.62500000  0.37500000
   0.62500000  0.37500000  0.87500000
   0.12500000  0.62500000  0.62500000
   0.87500000  0.87500000  0.12500000
   0.37500000  0.12500000  0.37500000
   0.37500000  0.37500000  0.12500000
   0.87500000  0.12500000  0.87500000
   0.62500000  0.12500000  0.62500000
   0.12500000  0.87500000  0.87500000
   0.12500000  0.37500000  0.37500000
   0.62500000  0.62500000  0.12500000
ZnIn2S4 bulk PBE-D3BJ relaxation        
           1
    10.664943    0.000000   -0.000000
    -0.000000   10.664943   -0.000000
     0.000000   -0.000000   10.664943
   S    Zn   In
  32   8  16
Direct configuration=     4
   0.37110994  0.37110994  0.37110994
   0.62889003  0.12889006  0.87110997
   0.12889006  0.87110997  0.62889003
   0.87110997  0.62889003  0.12889006
   0.12110994  0.62110997  0.37889006
   0.87889003  0.87889003  0.87889003
   0.62110997  0.37889006  0.12110994
   0.37889006  0.12110994  0.62110997
   0.62110997  0.12110994  0.37889006
   0.12110994  0.37889006  0.62110997
   0.37889006  0.62110997  0.12110994
   0.12889006  0.62889003  0.87110997
   0.62889003  0.87110997  0.12889006
   0.87110997  0.12889006  0.62889003
   0.37110994  0.87110997  0.87110997
   0.62889003  0.62889003  0.37110994
   0.12889006  0.37110994  0.12889006
   0.12110994  0.12110994  0.87889003
   0.87889003  0.37889006  0.37889006
   0.62110997  0.87889003  0.62110997
   0.62110997  0.62110997  0.87889003
   0.12110994  0.87889003  0.12110994
   0.12889006  0.12889006  0.37110994
   0.62889003  0.37110994  0.62889003
   0.87110997  0.37110994  0.87110997
   0.37110994  0.62889003  0.62889003
   0.37889006  0.87889003  0.37889006
   0.87889003  0.12110994  0.12110994
   0.87889003  0.62110997  0.62110997
   0.37110994  0.12889006  0.12889006
   0.87110997  0.87110997  0.37110994
   0.37889006  0.37889006  0.87889003
   0.50000000  0.50000000  0.50000000
   0.50000000  0.00000000 -0.00000000
   0.00000000  0.00000000  0.50000000
   0.00000000  0.50000000 -0.00000000
   0.25000000  0.75000000  0.25000000
   0.75000000  0.75000000  0.75000000
   0.75000000  0.25000000  0.25000000
   0.25000000  0.25000000  0.75000000
   0.12500000  0.12500000  0.12500000
   0.87500000  0.37500000  0.62500000
   0.37500000  0.62500000  0.87500000
   0.62500000  0.87500000  0.37500000
   0.37500000  0.87500000  0.62500000
   0.87500000  0.62500000  0.37500000
   0.62500000  0.37500000  0.87500000
   0.12500000  0.62500000  0.62500000
   0.87500000  0.87500000  0.12500000
   0.37500000  0.12500000  0.37500000
   0.37500000  0.37500000  0.12500000
   0.87500000  0.12500000  0.87500000
   0.62500000  0.12500000  0.62500000
   0.12500000  0.87500000  0.87500000
   0.12500000  0.37500000  0.37500000
   0.62500000  0.62500000  0.12500000
ZnIn2S4 bulk PBE-D3BJ relaxation        
           1
    10.593492   -0.000000   -0.000000
     0.000000   10.593492   -0.000000
     0.000000   -0.000000   10.593492
   S    Zn   In
  32   8  16
Direct configuration=     5
   0.37097754  0.37097754  0.37097754
   0.62902243  0.12902246  0.87097757
   0.12902246  0.87097757  0.62902243
   0.87097757  0.62902243  0.12902246
   0.12097754  0.62097757  0.37902246
   0.87902243  0.87902243  0.87902243
   0.62097757  0.37902246  0.12097754
   0.37902246  0.12097754  0.62097757
   0.62097757  0.12097754  0.37902246
   0.12097754  0.37902246  0.62097757
   0.37902246  0.62097757  0.12097754
   0.12902246  0.62902243  0.87097757
   0.62902243  0.87097757  0.12902246
   0.87097757  0.12902246  0.62902243
   0.37097754  0.87097757  0.87097757
   0.62902243  0.62902243  0.37097754
   0.12902246  0.37097754  0.12902246
   0.12097754  0.12097754  0.87902243
   0.87902243  0.37902246  0.37902246
   0.62097757  0.87902243  0.62097757
   0.62097757  0.62097757  0.87902243
   0.12097754  0.87902243  0.12097754
   0.12902246  0.12902246  0.37097754
   0.62902243  0.37097754  0.62902243
   0.87097757  0.37097754  0.87097757
   0.37097754  0.62902243  0.62902243
   0.37902246  0.87902243  0.37902246
   0.87902243  0.12097754  0.12097754
   0.87902243  0.62097757  0.62097757
   0.37097754  0.12902246  0.12902246
   0.87097757  0.87097757  0.37097754
   0.37902246  0.37902246  0.87902243
   0.50000000  0.50000000  0.50000000
   0.50000000  0.00000000 -0.00000000
   0.00000000  0.00000000  0.50000000
   0.00000000  0.50000000 -0.00000000
   0.25000000  0.75000000  0.25000000
   0.75000000  0.75000000  0.75000000
   0.75000000  0.25000000  0.25000000
   0.25000000  0.25000000  0.75000000
   0.12500000  0.12500000  0.12500000
   0.87500000  0.37500000  0.62500000
   0.37500000  0.62500000  0.87500000
   0.62500000  0.87500000  0.37500000
   0.37500000  0.87500000  0.62500000
   0.87500000  0.62500000  0.37500000
   0.62500000  0.37500000  0.87500000
   0.12500000  0.62500000  0.62500000
   0.87500000  0.87500000  0.12500000
   0.37500000  0.12500000  0.37500000
   0.37500000  0.37500000  0.12500000
   0.87500000  0.12500000  0.87500000
   0.62500000  0.12500000  0.62500000
   0.12500000  0.87500000  0.87500000
   0.12500000  0.37500000  0.37500000
   0.62500000  0.62500000  0.12500000
ZnIn2S4 bulk PBE-D3BJ relaxation        
           1
    10.621639   -0.000000   -0.000000
     0.000000   10.621639   -0.000000
     0.000000   -0.000000   10.621639
   S    Zn   In
  32   8  16
Direct configuration=     6
   0.37103005  0.37103005  0.37103005
   0.62896992  0.12896995  0.87103008
   0.12896995  0.87103008  0.62896992
   0.87103008  0.62896992  0.12896995
   0.12103005  0.62103008  0.37896995
   0.87896992  0.87896992  0.87896992
   0.62103008  0.37896995  0.12103005
   0.37896995  0.12103005  0.62103008
   0.62103008  0.12103005  0.37896995
   0.12103005  0.37896995  0.62103008
   0.37896995  0.62103008  0.12103005
   0.12896995  0.62896992  0.87103008
   0.62896992  0.87103008  0.12896995
   0.87103008  0.12896995  0.62896992
   0.37103005  0.87103008  0.87103008
   0.62896992  0.62896992  0.37103005
   0.12896995  0.37103005  0.12896995
   0.12103005  0.12103005  0.87896992
   0.87896992  0.37896995  0.37896995
   0.62103008  0.87896992  0.62103008
   0.62103008  0.62103008  0.87896992
   0.12103005  0.87896992  0.12103005
   0.12896995  0.12896995  0.37103005
   0.62896992  0.37103005  0.62896992
   0.87103008  0.37103005  0.87103008
   0.37103005  0.62896992  0.62896992
   0.37896995  0.87896992  0.37896995
   0.87896992  0.12103005  0.12103005
   0.87896992  0.62103008  0.62103008
   0.37103005  0.12896995  0.12896995
   0.87103008  0.87103008  0.37103005
   0.37896995  0.37896995  0.87896992
   0.50000000  0.50000000  0.50000000
   0.50000000  0.00000000 -0.00000000
   0.00000000  0.00000000  0.50000000
   0.00000000  0.50000000 -0.00000000
   0.25000000  0.75000000  0.25000000
   0.75000000  0.75000000  0.75000000
   0.75000000  0.25000000  0.25000000
   0.25000000  0.25000000  0.75000000
   0.12500000  0.12500000  0.12500000
   0.87500000  0.37500000  0.62500000
   0.37500000  0.62500000  0.87500000
   0.62500000  0.87500000  0.37500000
   0.37500000  0.87500000  0.62500000
   0.87500000  0.62500000  0.37500000
   0.62500000  0.37500000  0.87500000
   0.12500000  0.62500000  0.62500000
   0.87500000  0.87500000  0.12500000
   0.37500000  0.12500000  0.37500000
   0.37500000  0.37500000  0.12500000
   0.87500000  0.12500000  0.87500000
   0.62500000  0.12500000  0.62500000
   0.12500000  0.87500000  0.87500000
   0.12500000  0.37500000  0.37500000
   0.62500000  0.62500000  0.12500000
ZnIn2S4 bulk PBE-D3BJ relaxation        
           1
    10.621334   -0.000000   -0.000000
     0.000000   10.621334   -0.000000
     0.000000   -0.000000   10.621334
   S    Zn   In
  32   8  16
Direct configuration=     7
   0.37102948  0.37102948  0.37102948
   0.62897049  0.12897052  0.87102951
   0.12897052  0.87102951  0.62897049
   0.87102951  0.62897049  0.12897052
   0.12102948  0.62102951  0.37897052
   0.87897049  0.87897049  0.87897049
   0.62102951  0.37897052  0.12102948
   0.37897052  0.12102948  0.62102951
   0.62102951  0.12102948  0.37897052
   0.12102948  0.37897052  0.62102951
   0.37897052  0.62102951  0.12102948
   0.12897052  0.62897049  0.87102951
   0.62897049  0.87102951  0.12897052
   0.87102951  0.12897052  0.62897049
   0.37102948  0.87102951  0.87102951
   0.62897049  0.62897049  0.37102948
   0.12897052  0.37102948  0.12897052
   0.12102948  0.12102948  0.87897049
   0.87897049  0.37897052  0.37897052
   0.62102951  0.87897049  0.62102951
   0.62102951  0.62102951  0.87897049
   0.12102948  0.87897049  0.12102948
   0.12897052  0.12897052  0.37102948
   0.62897049  0.37102948  0.62897049
   0.87102951  0.37102948  0.87102951
   0.37102948  0.62897049  0.62897049
   0.37897052  0.87897049  0.37897052
   0.87897049  0.12102948  0.12102948
   0.87897049  0.62102951  0.62102951
   0.37102948  0.12897052  0.12897052
   0.87102951  0.87102951  0.37102948
   0.37897052  0.37897052  0.87897049
   0.50000000  0.50000000  0.50000000
   0.50000000  0.00000000 -0.00000000
   0.00000000  0.00000000  0.50000000
   0.00000000  0.50000000 -0.00000000
   0.25000000  0.75000000  0.25000000
   0.75000000  0.75000000  0.75000000
   0.75000000  0.25000000  0.25000000
   0.25000000  0.25000000  0.75000000
   0.12500000  0.12500000  0.12500000
   0.87500000  0.37500000  0.62500000
   0.37500000  0.62500000  0.87500000
   0.62500000  0.87500000  0.37500000
   0.37500000  0.87500000  0.62500000
   0.87500000  0.62500000  0.37500000
   0.62500000  0.37500000  0.87500000
   0.12500000  0.62500000  0.62500000
   0.87500000  0.87500000  0.12500000
   0.37500000  0.12500000  0.37500000
   0.37500000  0.37500000  0.12500000
   0.87500000  0.12500000  0.87500000
   0.62500000  0.12500000  0.62500000
   0.12500000  0.87500000  0.87500000
   0.12500000  0.37500000  0.37500000
   0.62500000  0.62500000  0.12500000
ZnIn2S4 bulk PBE-D3BJ relaxation        
           1
    10.618995   -0.000000   -0.000000
    -0.000000   10.618995   -0.000000
     0.000000    0.000000   10.618995
   S    Zn   In
  32   8  16
Direct configuration=     8
   0.37114737  0.37114737  0.37114737
   0.62885260  0.12885263  0.87114740
   0.12885263  0.87114740  0.62885260
   0.87114740  0.62885260  0.12885263
   0.12114737  0.62114740  0.37885263
   0.87885260  0.87885260  0.87885260
   0.62114740  0.37885263  0.12114737
   0.37885263  0.12114737  0.62114740
   0.62114740  0.12114737  0.37885263
   0.12114737  0.37885263  0.62114740
   0.37885263  0.62114740  0.12114737
   0.12885263  0.62885260  0.87114740
   0.62885260  0.87114740  0.12885263
   0.87114740  0.12885263  0.62885260
   0.37114737  0.87114740  0.87114740
   0.62885260  0.62885260  0.37114737
   0.12885263  0.37114737  0.12885263
   0.12114737  0.12114737  0.87885260
   0.87885260  0.37885263  0.37885263
   0.62114740  0.87885260  0.62114740
   0.62114740  0.62114740  0.87885260
   0.12114737  0.87885260  0.12114737
   0.12885263  0.12885263  0.37114737
   0.62885260  0.37114737  0.62885260
   0.87114740  0.37114737  0.87114740
   0.37114737  0.62885260  0.62885260
   0.37885263  0.87885260  0.37885263
   0.87885260  0.12114737  0.12114737
   0.87885260  0.62114740  0.62114740
   0.37114737  0.12885263  0.12885263
   0.87114740  0.87114740  0.37114737
   0.37885263  0.37885263  0.87885260
   0.50000000  0.50000000  0.50000000
   0.50000000  0.00000000 -0.00000000
   0.00000000  0.00000000  0.50000000
   0.00000000  0.50000000 -0.00000000
   0.25000000  0.75000000  0.25000000
   0.75000000  0.75000000  0.75000000
   0.75000000  0.25000000  0.25000000
   0.25000000  0.25000000  0.75000000
   0.12500000  0.12500000  0.12500000
   0.87500000  0.37500000  0.62500000
   0.37500000  0.62500000  0.87500000
   0.62500000  0.87500000  0.37500000
   0.37500000  0.87500000  0.62500000
   0.87500000  0.62500000  0.37500000
   0.62500000  0.37500000  0.87500000
   0.12500000  0.62500000  0.62500000
   0.87500000  0.87500000  0.12500000
   0.37500000  0.12500000  0.37500000
   0.37500000  0.37500000  0.12500000
   0.87500000  0.12500000  0.87500000
   0.62500000  0.12500000  0.62500000
   0.12500000  0.87500000  0.87500000
   0.12500000  0.37500000  0.37500000
   0.62500000  0.62500000  0.12500000
ZnIn2S4 bulk PBE-D3BJ relaxation        
           1
    10.617497   -0.000000   -0.000000
    -0.000000   10.617497   -0.000000
     0.000000    0.000000   10.617497
   S    Zn   In
  32   8  16
Direct configuration=     9
   0.37122289  0.37122289  0.37122289
   0.62877708  0.12877711  0.87122292
   0.12877711  0.87122292  0.62877708
   0.87122292  0.62877708  0.12877711
   0.12122289  0.62122292  0.37877711
   0.87877708  0.87877708  0.87877708
   0.62122292  0.37877711  0.12122289
   0.37877711  0.12122289  0.62122292
   0.62122292  0.12122289  0.37877711
   0.12122289  0.37877711  0.62122292
   0.37877711  0.62122292  0.12122289
   0.12877711  0.62877708  0.87122292
   0.62877708  0.87122292  0.12877711
   0.87122292  0.12877711  0.62877708
   0.37122289  0.87122292  0.87122292
   0.62877708  0.62877708  0.37122289
   0.12877711  0.37122289  0.12877711
   0.12122289  0.12122289  0.87877708
   0.87877708  0.37877711  0.37877711
   0.62122292  0.87877708  0.62122292
   0.62122292  0.62122292  0.87877708
   0.12122289  0.87877708  0.12122289
   0.12877711  0.12877711  0.37122289
   0.62877708  0.37122289  0.62877708
   0.87122292  0.37122289  0.87122292
   0.37122289  0.62877708  0.62877708
   0.37877711  0.87877708  0.37877711
   0.87877708  0.12122289  0.12122289
   0.87877708  0.62122292  0.62122292
   0.37122289  0.12877711  0.12877711
   0.87122292  0.87122292  0.37122289
   0.37877711  0.37877711  0.87877708
   0.50000000  0.50000000  0.50000000
   0.50000000  0.00000000 -0.00000000
   0.00000000  0.00000000  0.50000000
   0.00000000  0.50000000 -0.00000000
   0.25000000  0.75000000  0.25000000
   0.75000000  0.75000000  0.75000000
   0.75000000  0.25000000  0.25000000
   0.25000000  0.25000000  0.75000000
   0.12500000  0.12500000  0.12500000
   0.87500000  0.37500000  0.62500000
   0.37500000  0.62500000  0.87500000
   0.62500000  0.87500000  0.37500000
   0.37500000  0.87500000  0.62500000
   0.87500000  0.62500000  0.37500000
   0.62500000  0.37500000  0.87500000
   0.12500000  0.62500000  0.62500000
   0.87500000  0.87500000  0.12500000
   0.37500000  0.12500000  0.37500000
   0.37500000  0.37500000  0.12500000
   0.87500000  0.12500000  0.87500000
   0.62500000  0.12500000  0.62500000
   0.12500000  0.87500000  0.87500000
   0.12500000  0.37500000  0.37500000
   0.62500000  0.62500000  0.12500000
