In2 S4 Zn
1.0
        3.8499999046         0.0000000000         0.0000000000
       -1.9249999523         3.3341977220         0.0000000000
        0.0000000000         0.0000000000        12.3400001526
    S   In   Zn
    4    2    1
Direct
     0.000000000         0.000000000         0.125000000
     0.333333343         0.666666687         0.388000011
     0.000000000         0.000000000         0.611999989
     0.666666687         0.333333343         0.875999987
     0.333333343         0.666666687         0.187999994
     0.666666687         0.333333343         0.500000000
     0.000000000         0.000000000         0.811999977
