ZnIn2S4 bulk PBE-D3BJ relaxation        
           1
     3.850000    0.000000    0.000000
    -1.925000    3.334198    0.000000
     0.000000    0.000000   12.340000
   S    In   Zn
   4   2   1
Direct configuration=     1
   0.00000000  0.00000000  0.12500000
   0.33333334  0.66666669  0.38800001
   0.00000000  0.00000000  0.61199999
   0.66666669  0.33333334  0.87599999
   0.33333334  0.66666669  0.18799999
   0.66666669  0.33333334  0.50000000
   0.00000000  0.00000000  0.81199998
ZnIn2S4 bulk PBE-D3BJ relaxation        
           1
     3.953090   -0.000000    0.000000
    -1.976545    3.423476   -0.000000
     0.000000    0.000000   12.393541
   S    In   Zn
   4   2   1
Direct configuration=     2
   0.00000000 -0.00000000  0.11747311
   0.33333334  0.66666669  0.38601396
   0.00000000 -0.00000000  0.61071869
   0.66666669  0.33333334  0.87458973
   0.33333334  0.66666669  0.19331701
   0.66666669  0.33333334  0.50476310
   0.00000000 -0.00000000  0.81412435
ZnIn2S4 bulk PBE-D3BJ relaxation        
           1
     3.941924   -0.000000    0.000000
    -1.970962    3.413806   -0.000000
     0.000000    0.000000   12.387742
   S    In   Zn
   4   2   1
Direct configuration=     3
  -0.00000000 -0.00000000  0.11828485
   0.33333334  0.66666669  0.38622815
  -0.00000000 -0.00000000  0.61085687
   0.66666669  0.33333334  0.87474182
   0.33333334  0.66666669  0.19274359
   0.66666669  0.33333334  0.50424943
   0.00000000 -0.00000000  0.81389524
ZnIn2S4 bulk PBE-D3BJ relaxation        
           1
     3.913277   -0.000000    0.000000
    -1.956638    3.388997   -0.000000
     0.000000   -0.000000   12.409903
   S    In   Zn
   4   2   1
Direct configuration=     4
   0.00000000  0.00000000  0.11296857
   0.33333334  0.66666669  0.38785767
   0.00000000 -0.00000000  0.60934579
   0.66666669  0.33333334  0.87211005
   0.33333334  0.66666669  0.19377681
   0.66666669  0.33333334  0.50800409
  -0.00000000 -0.00000000  0.81693698
ZnIn2S4 bulk PBE-D3BJ relaxation        
           1
     3.885039   -0.000000    0.000000
    -1.942519    3.364542   -0.000000
     0.000000   -0.000000   12.431747
   S    In   Zn
   4   2   1
Direct configuration=     5
  -0.00000000 -0.00000000  0.10773751
   0.33333334  0.66666669  0.38946106
  -0.00000000 -0.00000000  0.60785893
   0.66666669  0.33333334  0.86952046
   0.33333334  0.66666669  0.19479347
   0.66666669  0.33333334  0.51169856
   0.00000000  0.00000000  0.81992996
ZnIn2S4 bulk PBE-D3BJ relaxation        
           1
     3.874182   -0.000000   -0.000000
    -1.937091    3.355140   -0.000000
     0.000000   -0.000000   12.450529
   S    In   Zn
   4   2   1
Direct configuration=     6
  -0.00000000 -0.00000000  0.10630680
   0.33333334  0.66666669  0.38987482
  -0.00000000 -0.00000000  0.61056135
   0.66666669  0.33333334  0.86800997
   0.33333334  0.66666669  0.19401600
   0.66666669  0.33333334  0.51103968
   0.00000000  0.00000000  0.82119134
ZnIn2S4 bulk PBE-D3BJ relaxation        
           1
     3.866082   -0.000000   -0.000000
    -1.933041    3.348125   -0.000000
     0.000000   -0.000000   12.464541
   S    In   Zn
   4   2   1
Direct configuration=     7
  -0.00000000 -0.00000000  0.10524103
   0.33333334  0.66666669  0.39018304
  -0.00000000 -0.00000000  0.61257444
   0.66666669  0.33333334  0.86688477
   0.33333334  0.66666669  0.19343685
   0.66666669  0.33333334  0.51054886
   0.00000000  0.00000000  0.82213097
ZnIn2S4 bulk PBE-D3BJ relaxation        
           1
     3.872941   -0.000000   -0.000000
    -1.936471    3.354065   -0.000000
     0.000000   -0.000000   12.404546
   S    In   Zn
   4   2   1
Direct configuration=     8
  -0.00000000 -0.00000000  0.10389311
   0.33333334  0.66666669  0.38891058
  -0.00000000 -0.00000000  0.61448360
   0.66666669  0.33333334  0.86622425
   0.33333334  0.66666669  0.19327572
   0.66666669  0.33333334  0.51148332
   0.00000000  0.00000000  0.82272938
ZnIn2S4 bulk PBE-D3BJ relaxation        
           1
     3.873753   -0.000000   -0.000000
    -1.936877    3.354769   -0.000000
     0.000000   -0.000000   12.397444
   S    In   Zn
   4   2   1
Direct configuration=     9
  -0.00000000 -0.00000000  0.10373278
   0.33333334  0.66666669  0.38875922
  -0.00000000 -0.00000000  0.61471069
   0.66666669  0.33333334  0.86614568
   0.33333334  0.66666669  0.19325655
   0.66666669  0.33333334  0.51159447
   0.00000000  0.00000000  0.82280056
ZnIn2S4 bulk PBE-D3BJ relaxation        
           1
     3.871721   -0.000000   -0.000000
    -1.935860    3.353008   -0.000000
     0.000000   -0.000000   12.340731
   S    In   Zn
   4   2   1
Direct configuration=    10
  -0.00000000 -0.00000000  0.10272267
   0.33333334  0.66666669  0.38852825
  -0.00000000 -0.00000000  0.61557413
   0.66666669  0.33333334  0.86601260
   0.33333334  0.66666669  0.19161081
   0.66666669  0.33333334  0.51326898
   0.00000000  0.00000000  0.82328251
ZnIn2S4 bulk PBE-D3BJ relaxation        
           1
     3.870588   -0.000000    0.000000
    -1.935294    3.352028   -0.000000
     0.000000   -0.000000   12.309132
   S    In   Zn
   4   2   1
Direct configuration=    11
  -0.00000000 -0.00000000  0.10215728
   0.33333334  0.66666669  0.38839897
  -0.00000000 -0.00000000  0.61605742
   0.66666669  0.33333334  0.86593812
   0.33333334  0.66666669  0.19068962
   0.66666669  0.33333334  0.51420628
   0.00000000  0.00000000  0.82355227
ZnIn2S4 bulk PBE-D3BJ relaxation        
           1
     3.882293   -0.000000   -0.000000
    -1.941147    3.362165   -0.000000
     0.000000   -0.000000   12.278683
   S    In   Zn
   4   2   1
Direct configuration=    12
  -0.00000000 -0.00000000  0.10062208
   0.33333334  0.66666669  0.38904789
  -0.00000000 -0.00000000  0.61678773
   0.66666669  0.33333334  0.86654105
   0.33333334  0.66666669  0.18931701
   0.66666669  0.33333334  0.51475768
   0.00000000  0.00000000  0.82392651
ZnIn2S4 bulk PBE-D3BJ relaxation        
           1
     3.883494   -0.000000   -0.000000
    -1.941747    3.363204   -0.000000
     0.000000   -0.000000   12.275560
   S    In   Zn
   4   2   1
Direct configuration=    13
  -0.00000000 -0.00000000  0.10046422
   0.33333334  0.66666669  0.38911462
  -0.00000000 -0.00000000  0.61686283
   0.66666669  0.33333334  0.86660305
   0.33333334  0.66666669  0.18917587
   0.66666669  0.33333334  0.51481438
   0.00000000  0.00000000  0.82396499
ZnIn2S4 bulk PBE-D3BJ relaxation        
           1
     3.882669   -0.000000   -0.000000
    -1.941335    3.362490   -0.000000
     0.000000   -0.000000   12.196687
   S    In   Zn
   4   2   1
Direct configuration=    14
  -0.00000000 -0.00000000  0.09898160
   0.33333334  0.66666669  0.38953519
  -0.00000000 -0.00000000  0.61734584
   0.66666669  0.33333334  0.86764737
   0.33333334  0.66666669  0.18854362
   0.66666669  0.33333334  0.51459436
   0.00000000  0.00000000  0.82435197
ZnIn2S4 bulk PBE-D3BJ relaxation        
           1
     3.882313   -0.000000   -0.000000
    -1.941157    3.362182   -0.000000
     0.000000   -0.000000   12.162672
   S    In   Zn
   4   2   1
Direct configuration=    15
  -0.00000000 -0.00000000  0.09833807
   0.33333334  0.66666669  0.38971774
  -0.00000000 -0.00000000  0.61755549
   0.66666669  0.33333334  0.86810067
   0.33333334  0.66666669  0.18826919
   0.66666669  0.33333334  0.51449886
   0.00000000  0.00000000  0.82451994
ZnIn2S4 bulk PBE-D3BJ relaxation        
           1
     3.879801   -0.000000   -0.000000
    -1.939900    3.360006   -0.000000
     0.000000   -0.000000   12.157163
   S    In   Zn
   4   2   1
Direct configuration=    16
  -0.00000000 -0.00000000  0.09762816
   0.33333334  0.66666669  0.38944251
  -0.00000000 -0.00000000  0.61775841
   0.66666669  0.33333334  0.86931958
   0.33333334  0.66666669  0.18758937
   0.66666669  0.33333334  0.51434819
   0.00000000  0.00000000  0.82491374
ZnIn2S4 bulk PBE-D3BJ relaxation        
           1
     3.875138   -0.000000   -0.000000
    -1.937569    3.355968   -0.000000
     0.000000   -0.000000   12.146941
   S    In   Zn
   4   2   1
Direct configuration=    17
  -0.00000000 -0.00000000  0.09631023
   0.33333334  0.66666669  0.38893155
  -0.00000000 -0.00000000  0.61813513
   0.66666669  0.33333334  0.87158244
   0.33333334  0.66666669  0.18632730
   0.66666669  0.33333334  0.51406849
   0.00000000  0.00000000  0.82564482
ZnIn2S4 bulk PBE-D3BJ relaxation        
           1
     3.881339   -0.000000   -0.000000
    -1.940669    3.361338   -0.000000
    -0.000000   -0.000000   12.141156
   S    In   Zn
   4   2   1
Direct configuration=    18
  -0.00000000 -0.00000000  0.09617991
   0.33333334  0.66666669  0.38777336
  -0.00000000 -0.00000000  0.61831088
   0.66666669  0.33333334  0.87250218
   0.33333334  0.66666669  0.18625577
   0.66666669  0.33333334  0.51391136
   0.00000000  0.00000000  0.82606650
ZnIn2S4 bulk PBE-D3BJ relaxation        
           1
     3.878076   -0.000000   -0.000000
    -1.939038    3.358513   -0.000000
     0.000000   -0.000000   12.144200
   S    In   Zn
   4   2   1
Direct configuration=    19
  -0.00000000 -0.00000000  0.09624851
   0.33333334  0.66666669  0.38838301
  -0.00000000 -0.00000000  0.61821837
   0.66666669  0.33333334  0.87201804
   0.33333334  0.66666669  0.18629342
   0.66666669  0.33333334  0.51399407
   0.00000000  0.00000000  0.82584454
ZnIn2S4 bulk PBE-D3BJ relaxation        
           1
     3.876690   -0.000000   -0.000000
    -1.938345    3.357312   -0.000000
    -0.000000   -0.000000   12.148989
   S    In   Zn
   4   2   1
Direct configuration=    20
  -0.00000000 -0.00000000  0.09662562
   0.33333334  0.66666669  0.38798761
  -0.00000000 -0.00000000  0.61809500
   0.66666669  0.33333334  0.87220251
   0.33333334  0.66666669  0.18604962
   0.66666669  0.33333334  0.51384038
   0.00000000  0.00000000  0.82619923
ZnIn2S4 bulk PBE-D3BJ relaxation        
           1
     3.876699   -0.000000   -0.000000
    -1.938350    3.357320   -0.000000
    -0.000000   -0.000000   12.148958
   S    In   Zn
   4   2   1
Direct configuration=    21
  -0.00000000 -0.00000000  0.09662310
   0.33333334  0.66666669  0.38799024
  -0.00000000 -0.00000000  0.61809582
   0.66666669  0.33333334  0.87220128
   0.33333334  0.66666669  0.18605124
   0.66666669  0.33333334  0.51384140
   0.00000000  0.00000000  0.82619687
ZnIn2S4 bulk PBE-D3BJ relaxation        
           1
     3.878029    0.000000   -0.000000
    -1.939014    3.358471   -0.000000
    -0.000000   -0.000000   12.149495
   S    In   Zn
   4   2   1
Direct configuration=    22
  -0.00000000 -0.00000000  0.09672520
   0.33333334  0.66666669  0.38793404
  -0.00000000 -0.00000000  0.61794803
   0.66666669  0.33333334  0.87223356
   0.33333334  0.66666669  0.18613165
   0.66666669  0.33333334  0.51359926
   0.00000000  0.00000000  0.82642822
ZnIn2S4 bulk PBE-D3BJ relaxation        
           1
     3.878251    0.000000   -0.000000
    -1.939125    3.358664   -0.000000
    -0.000000   -0.000000   12.149585
   S    In   Zn
   4   2   1
Direct configuration=    23
  -0.00000000 -0.00000000  0.09674225
   0.33333334  0.66666669  0.38792465
  -0.00000000 -0.00000000  0.61792335
   0.66666669  0.33333334  0.87223895
   0.33333334  0.66666669  0.18614508
   0.66666669  0.33333334  0.51355883
   0.00000000  0.00000000  0.82646685
ZnIn2S4 bulk PBE-D3BJ relaxation        
           1
     3.877757    0.000000   -0.000000
    -1.938879    3.358236   -0.000000
    -0.000000   -0.000000   12.150809
   S    In   Zn
   4   2   1
Direct configuration=    24
  -0.00000000 -0.00000000  0.09678238
   0.33333334  0.66666669  0.38800478
  -0.00000000 -0.00000000  0.61774914
   0.66666669  0.33333334  0.87221314
   0.33333334  0.66666669  0.18615853
   0.66666669  0.33333334  0.51353958
   0.00000000  0.00000000  0.82655241
ZnIn2S4 bulk PBE-D3BJ relaxation        
           1
     3.877914    0.000000   -0.000000
    -1.938957    3.358372   -0.000000
    -0.000000   -0.000000   12.150421
   S    In   Zn
   4   2   1
Direct configuration=    25
  -0.00000000 -0.00000000  0.09676966
   0.33333334  0.66666669  0.38797938
  -0.00000000 -0.00000000  0.61780436
   0.66666669  0.33333334  0.87222132
   0.33333334  0.66666669  0.18615426
   0.66666669  0.33333334  0.51354568
   0.00000000  0.00000000  0.82652529
ZnIn2S4 bulk PBE-D3BJ relaxation        
           1
     3.878284    0.000000   -0.000000
    -1.939142    3.358693   -0.000000
    -0.000000   -0.000000   12.148433
   S    In   Zn
   4   2   1
Direct configuration=    26
  -0.00000000 -0.00000000  0.09678648
   0.33333334  0.66666669  0.38799482
  -0.00000000 -0.00000000  0.61769726
   0.66666669  0.33333334  0.87218345
   0.33333334  0.66666669  0.18624456
   0.66666669  0.33333334  0.51353990
   0.00000000  0.00000000  0.82655349
