       N       E                     dE             d eps       ncg     rms          rms(c)
DAV:   1     0.601877777384E+04    0.60188E+04   -0.20024E+05 12168   0.190E+03
DAV:   2     0.109507746067E+04   -0.49237E+04   -0.47803E+04 12160   0.528E+02
DAV:   3    -0.621309101226E+02   -0.11572E+04   -0.10711E+04 13336   0.233E+02
DAV:   4    -0.209529006951E+03   -0.14740E+03   -0.14393E+03 15440   0.770E+01
DAV:   5    -0.215387425199E+03   -0.58584E+01   -0.58054E+01 14224   0.172E+01
DAV:   6    -0.215785762142E+03   -0.39834E+00   -0.39804E+00 18728   0.436E+00
DAV:   7    -0.215792711426E+03   -0.69493E-02   -0.69456E-02 18008   0.517E-01
DAV:   8    -0.215793048301E+03   -0.33688E-03   -0.33681E-03 18368   0.119E-01
DAV:   9    -0.215793058288E+03   -0.99865E-05   -0.99859E-05 18416   0.213E-02
DAV:  10    -0.215793058744E+03   -0.45677E-06   -0.45650E-06 18200   0.467E-03
DAV:  11    -0.215793058758E+03   -0.13752E-07   -0.13238E-07  9576   0.915E-04
   1 F= -.23374479E+03 E0= -.23374479E+03  d E =0.000000E+00
