ZnIn2S4 DOS/PDOS                        
           1
    10.617497    0.000000    0.000000
     0.000000   10.617497    0.000000
     0.000000    0.000000   10.617497
   S    Zn   In
  32   8  16
Direct configuration=     1
   0.37122289  0.37122289  0.37122289
   0.62877708  0.12877711  0.87122292
   0.12877711  0.87122292  0.62877708
   0.87122292  0.62877708  0.12877711
   0.12122289  0.62122292  0.37877711
   0.87877708  0.87877708  0.87877708
   0.62122292  0.37877711  0.12122289
   0.37877711  0.12122289  0.62122292
   0.62122292  0.12122289  0.37877711
   0.12122289  0.37877711  0.62122292
   0.37877711  0.62122292  0.12122289
   0.12877711  0.62877708  0.87122292
   0.62877708  0.87122292  0.12877711
   0.87122292  0.12877711  0.62877708
   0.37122289  0.87122292  0.87122292
   0.62877708  0.62877708  0.37122289
   0.12877711  0.37122289  0.12877711
   0.12122289  0.12122289  0.87877708
   0.87877708  0.37877711  0.37877711
   0.62122292  0.87877708  0.62122292
   0.62122292  0.62122292  0.87877708
   0.12122289  0.87877708  0.12122289
   0.12877711  0.12877711  0.37122289
   0.62877708  0.37122289  0.62877708
   0.87122292  0.37122289  0.87122292
   0.37122289  0.62877708  0.62877708
   0.37877711  0.87877708  0.37877711
   0.87877708  0.12122289  0.12122289
   0.87877708  0.62122292  0.62122292
   0.37122289  0.12877711  0.12877711
   0.87122292  0.87122292  0.37122289
   0.37877711  0.37877711  0.87877708
   0.50000000  0.50000000  0.50000000
   0.50000000  0.00000000  0.00000000
   0.00000000  0.00000000  0.50000000
   0.00000000  0.50000000  0.00000000
   0.25000000  0.75000000  0.25000000
   0.75000000  0.75000000  0.75000000
   0.75000000  0.25000000  0.25000000
   0.25000000  0.25000000  0.75000000
   0.12500000  0.12500000  0.12500000
   0.87500000  0.37500000  0.62500000
   0.37500000  0.62500000  0.87500000
   0.62500000  0.87500000  0.37500000
   0.37500000  0.87500000  0.62500000
   0.87500000  0.62500000  0.37500000
   0.62500000  0.37500000  0.87500000
   0.12500000  0.62500000  0.62500000
   0.87500000  0.87500000  0.12500000
   0.37500000  0.12500000  0.37500000
   0.37500000  0.37500000  0.12500000
   0.87500000  0.12500000  0.87500000
   0.62500000  0.12500000  0.62500000
   0.12500000  0.87500000  0.87500000
   0.12500000  0.37500000  0.37500000
   0.62500000  0.62500000  0.12500000
