WP2-P03-IIb001-screening-t07-45.92A-500-
   1.0000000000000000     
     3.8833466123294311    0.0000000000000000    0.0000000000000000
    -1.9416733061647156    3.3630768180273156    0.0000000000000000
     0.0000000000000000    0.0000000000000000   65.9243745766031282
   In   Zn   S    In   Zn   S 
     4     2     8     4     2     8
Direct
     0.6666666623210763    0.3333333183380250    0.3527802984166551
     0.3333333366154503    0.6666667152017957    0.1681168093253925
     0.3333333242496756    0.6666666666195626    0.4130581994588144
     0.6666666949626090    0.3333333320560727    0.2285880919736885
     0.9999992751978237    0.0000007164631217    0.4709193026004202
     0.0000010220249840    0.9999990735173390    0.2863784013466195
     0.3333329989052045    0.6666670028286504    0.4786211152114865
     0.6666672365655977    0.3333328443983830    0.2938399061848490
     0.0000000203459014    0.9999999573307630    0.3363988632793058
     0.9999999743182565    0.0000000899032423    0.1509629919813691
     0.6666666594582223    0.3333332805381585    0.3897638751228023
     0.3333332914940076    0.6666666944175902    0.2050404474370055
     0.9999999500282204    0.0000000640348743    0.4320298854492196
     0.0000000966313113    0.9999999757781990    0.2474445779032508
     0.6666667002061314    0.3333332921976970    0.7221164961077885
     0.3333332540293834    0.6666667167672091    0.5374536227695841
     0.3333333047878345    0.6666666621967615    0.7823621457658458
     0.6666667251295233    0.3333333533233629    0.5977356010937325
     0.9999990765566575    0.0000008740349590    0.8404968470953934
     0.0000007068346073    0.9999993588061084    0.6555834869520405
     0.3333329136800746    0.6666670396711435    0.8482669983675817
     0.6666669706107430    0.3333330924931673    0.6633086627971659
     0.0000000517571122    0.9999999330159260    0.7057601851064165
     0.9999998984802456    0.0000000700659471    0.5210797003838379
     0.6666666361155776    0.3333332688190598    0.7590990304752465
     0.3333332951891912    0.6666666782325514    0.5744534067913774
     0.9999999452327093    0.0000000447279642    0.8013502862059788
     0.0000000982718788    0.0000000042223752    0.6167208655991347

  0.00000000E+00  0.00000000E+00  0.00000000E+00
  0.00000000E+00  0.00000000E+00  0.00000000E+00
  0.00000000E+00  0.00000000E+00  0.00000000E+00
  0.00000000E+00  0.00000000E+00  0.00000000E+00
  0.00000000E+00  0.00000000E+00  0.00000000E+00
  0.00000000E+00  0.00000000E+00  0.00000000E+00
  0.00000000E+00  0.00000000E+00  0.00000000E+00
  0.00000000E+00  0.00000000E+00  0.00000000E+00
  0.00000000E+00  0.00000000E+00  0.00000000E+00
  0.00000000E+00  0.00000000E+00  0.00000000E+00
  0.00000000E+00  0.00000000E+00  0.00000000E+00
  0.00000000E+00  0.00000000E+00  0.00000000E+00
  0.00000000E+00  0.00000000E+00  0.00000000E+00
  0.00000000E+00  0.00000000E+00  0.00000000E+00
  0.00000000E+00  0.00000000E+00  0.00000000E+00
  0.00000000E+00  0.00000000E+00  0.00000000E+00
  0.00000000E+00  0.00000000E+00  0.00000000E+00
  0.00000000E+00  0.00000000E+00  0.00000000E+00
  0.00000000E+00  0.00000000E+00  0.00000000E+00
  0.00000000E+00  0.00000000E+00  0.00000000E+00
  0.00000000E+00  0.00000000E+00  0.00000000E+00
  0.00000000E+00  0.00000000E+00  0.00000000E+00
  0.00000000E+00  0.00000000E+00  0.00000000E+00
  0.00000000E+00  0.00000000E+00  0.00000000E+00
  0.00000000E+00  0.00000000E+00  0.00000000E+00
  0.00000000E+00  0.00000000E+00  0.00000000E+00
  0.00000000E+00  0.00000000E+00  0.00000000E+00
  0.00000000E+00  0.00000000E+00  0.00000000E+00
