WP2-P03-IIb001-screening-t07-45.92A-500-10x10x1
1.0
   3.8833466123294311    0.0000000000000000    0.0000000000000000
  -1.9416733061647156    3.3630768180273156    0.0000000000000000
   0.0000000000000000    0.0000000000000000   65.9243745766031282
In Zn S In Zn S
4 2 8 4 2 8
direct
   0.6666666570000004    0.3333333129999971    0.3526501352928479 In
   0.3333333730000020    0.6666666870000029    0.1679553592072928 In
   0.3333333129999970    0.6666666570000004    0.4129680493732512 In
   0.6666666870000030    0.3333333730000021    0.2282732788285383 In
   0.0000000000000000    0.0000000000000000    0.4706477681522672 Zn
   0.0000000000000000    0.0000000000000000    0.2859530086892415 Zn
   0.3333333129999970    0.6666666570000004    0.4789214961524955 S
   0.6666666870000030    0.3333333730000021    0.2942267145260954 S
   0.0000000000000000    0.0000000000000000    0.3363837333027919 S
   0.0000000000000000    0.0000000000000000    0.1516889627580790 S
   0.6666666570000004    0.3333333129999971    0.3898305522164205 S
   0.3333333730000020    0.6666666870000029    0.2051357816717077 S
   0.0000000000000000    0.0000000000000000    0.4320990966743539 S
   0.0000000000000000    0.0000000000000000    0.2474043261296411 S
   0.6666666570000004    0.3333333129999971    0.7220396763822736 In
   0.3333333730000020    0.6666666870000029    0.5373449002967184 In
   0.3333333129999970    0.6666666570000004    0.7823575904626769 In
   0.6666666870000030    0.3333333730000021    0.5976628199179639 In
   0.0000000000000000    0.0000000000000000    0.8400373092416928 Zn
   0.0000000000000000    0.0000000000000000    0.6553425497786672 Zn
   0.3333333129999970    0.6666666570000004    0.8483110372419211 S
   0.6666666870000030    0.3333333730000021    0.6636162556155211 S
   0.0000000000000000    0.0000000000000000    0.7057732743922175 S
   0.0000000000000000    0.0000000000000000    0.5210785038475046 S
   0.6666666570000004    0.3333333129999971    0.7592200933058463 S
   0.3333333730000020    0.6666666870000029    0.5745253227611333 S
   0.0000000000000000    0.0000000000000000    0.8014886377637797 S
   0.0000000000000000    0.0000000000000000    0.6167938672190667 S
