WP2-P03-IIb001-screening-t07-45.92A-500-
           1
     3.883347    0.000000    0.000000
    -1.941673    3.363077    0.000000
     0.000000    0.000000   65.924375
   In   Zn   S    In   Zn   S 
     4     2     8     4     2     8
Direct configuration=           1
   0.66666666  0.33333331  0.35265014
   0.33333337  0.66666669  0.16795536
   0.33333331  0.66666666  0.41296805
   0.66666669  0.33333337  0.22827328
   0.00000000  0.00000000  0.47064777
   0.00000000  0.00000000  0.28595301
   0.33333331  0.66666666  0.47892150
   0.66666669  0.33333337  0.29422671
   0.00000000  0.00000000  0.33638373
   0.00000000  0.00000000  0.15168896
   0.66666666  0.33333331  0.38983055
   0.33333337  0.66666669  0.20513578
   0.00000000  0.00000000  0.43209910
   0.00000000  0.00000000  0.24740433
   0.66666666  0.33333331  0.72203968
   0.33333337  0.66666669  0.53734490
   0.33333331  0.66666666  0.78235759
   0.66666669  0.33333337  0.59766282
   0.00000000  0.00000000  0.84003731
   0.00000000  0.00000000  0.65534255
   0.33333331  0.66666666  0.84831104
   0.66666669  0.33333337  0.66361626
   0.00000000  0.00000000  0.70577327
   0.00000000  0.00000000  0.52107850
   0.66666666  0.33333331  0.75922009
   0.33333337  0.66666669  0.57452532
   0.00000000  0.00000000  0.80148864
   0.00000000  0.00000000  0.61679387
Direct configuration=           2
   0.66666665  0.33333333  0.35271088
   0.33333336  0.66666667  0.16826714
   0.33333332  0.66666665  0.41301042
   0.66666670  0.33333335  0.22839324
   0.99999978  0.00000022  0.47069353
   0.00000025  0.99999977  0.28602627
   0.33333343  0.66666655  0.47887719
   0.66666657  0.33333347  0.29416252
   0.99999999  0.99999998  0.33637392
   0.00000000  0.00000002  0.15142715
   0.66666666  0.33333331  0.38977115
   0.33333336  0.66666669  0.20498596
   0.99999999  0.00000001  0.43207063
   0.00000002  0.00000000  0.24735234
   0.66666665  0.33333333  0.72210512
   0.33333335  0.66666668  0.53739624
   0.33333332  0.66666666  0.78239395
   0.66666669  0.33333336  0.59769802
   0.99999978  0.00000021  0.84010959
   0.00000022  0.99999980  0.65538422
   0.33333343  0.66666655  0.84829642
   0.66666658  0.33333347  0.66357063
   0.00000001  0.99999998  0.70575874
   0.99999998  0.00000001  0.52106819
   0.66666665  0.33333330  0.75915272
   0.33333336  0.66666668  0.57447395
   0.99999999  0.00000001  0.80143143
   0.00000003  0.00000003  0.61676853
Direct configuration=           3
   0.66666664  0.33333333  0.35272328
   0.33333336  0.66666667  0.16833076
   0.33333333  0.66666665  0.41301906
   0.66666670  0.33333335  0.22841772
   0.99999973  0.00000026  0.47070286
   0.00000030  0.99999972  0.28604122
   0.33333346  0.66666653  0.47886815
   0.66666655  0.33333349  0.29414943
   0.99999999  0.99999998  0.33637191
   0.00000000  0.00000003  0.15137373
   0.66666667  0.33333331  0.38975903
   0.33333336  0.66666669  0.20495538
   0.99999998  0.00000001  0.43206482
   0.00000002  0.00000001  0.24734173
   0.66666665  0.33333334  0.72211847
   0.33333334  0.66666668  0.53740672
   0.33333332  0.66666666  0.78240137
   0.66666670  0.33333336  0.59770520
   0.99999973  0.00000025  0.84012434
   0.00000026  0.99999976  0.65539272
   0.33333345  0.66666653  0.84829343
   0.66666655  0.33333349  0.66356132
   0.00000001  0.99999998  0.70575578
   0.99999998  0.00000001  0.52106609
   0.66666665  0.33333330  0.75913897
   0.33333336  0.66666668  0.57446347
   0.99999999  0.00000002  0.80141976
   0.00000004  0.00000003  0.61676336
Direct configuration=           4
   0.66666664  0.33333334  0.35273372
   0.33333336  0.66666667  0.16829935
   0.33333333  0.66666665  0.41303485
   0.66666670  0.33333335  0.22847571
   0.99999960  0.00000039  0.47075506
   0.00000048  0.99999956  0.28612409
   0.33333345  0.66666655  0.47881408
   0.66666657  0.33333347  0.29407277
   0.99999999  0.99999997  0.33637867
   1.00000000  0.00000005  0.15124264
   0.66666667  0.33333331  0.38975629
   0.33333334  0.66666669  0.20504632
   0.99999998  0.00000002  0.43204574
   0.00000004  1.00000000  0.24731607
   0.66666667  0.33333333  0.72212015
   0.33333332  0.66666668  0.53741615
   0.33333332  0.66666666  0.78239977
   0.66666670  0.33333336  0.59772050
   0.99999958  0.00000040  0.84020412
   0.00000038  0.99999965  0.65544221
   0.33333346  0.66666653  0.84827700
   0.66666655  0.33333349  0.66350477
   0.00000001  0.99999997  0.70576094
   0.99999997  0.00000003  0.52106963
   0.66666665  0.33333330  0.75913496
   0.33333335  0.66666667  0.57445748
   0.99999998  0.00000002  0.80138332
   0.00000005  0.00000003  0.61674371
Direct configuration=           5
   0.66666663  0.33333335  0.35276197
   0.33333336  0.66666666  0.16821440
   0.33333334  0.66666665  0.41307757
   0.66666669  0.33333335  0.22863258
   0.99999925  0.00000073  0.47089628
   0.00000096  0.99999912  0.28634826
   0.33333343  0.66666660  0.47866782
   0.66666663  0.33333339  0.29386539
   0.00000001  0.99999996  0.33639696
   0.99999998  0.00000010  0.15088801
   0.66666666  0.33333329  0.38974887
   0.33333330  0.66666669  0.20529234
   0.99999996  0.00000004  0.43199410
   0.00000008  0.99999997  0.24724665
   0.66666671  0.33333331  0.72212470
   0.33333328  0.66666666  0.53744168
   0.33333333  0.66666666  0.78239544
   0.66666670  0.33333337  0.59776190
   0.99999914  0.00000080  0.84041996
   0.00000072  0.99999935  0.65557610
   0.33333348  0.66666652  0.84823253
   0.66666655  0.33333348  0.66335180
   0.00000002  0.99999995  0.70577492
   0.99999994  0.00000008  0.52107921
   0.66666663  0.33333329  0.75912410
   0.33333331  0.66666667  0.57444126
   0.99999995  0.00000005  0.80128474
   0.00000009  0.00000004  0.61669055
Direct configuration=           6
   0.66666664  0.33333334  0.35275025
   0.33333336  0.66666666  0.16824964
   0.33333334  0.66666665  0.41305985
   0.66666669  0.33333335  0.22856750
   0.99999940  0.00000059  0.47083769
   0.00000076  0.99999930  0.28625526
   0.33333344  0.66666658  0.47872850
   0.66666661  0.33333342  0.29395142
   1.00000000  0.99999996  0.33638938
   0.99999999  0.00000008  0.15103513
   0.66666666  0.33333330  0.38975195
   0.33333332  0.66666669  0.20519028
   0.99999997  0.00000003  0.43201552
   0.00000006  0.99999998  0.24727545
   0.66666669  0.33333332  0.72212282
   0.33333330  0.66666667  0.53743109
   0.33333333  0.66666666  0.78239723
   0.66666670  0.33333336  0.59774473
   0.99999932  0.00000064  0.84033042
   0.00000058  0.99999947  0.65552055
   0.33333347  0.66666652  0.84825098
   0.66666655  0.33333348  0.66341526
   0.00000002  0.99999996  0.70576912
   0.99999995  0.00000006  0.52107523
   0.66666663  0.33333329  0.75912861
   0.33333333  0.66666667  0.57444799
   0.99999996  0.00000004  0.80132564
   0.00000007  0.00000004  0.61671261
Direct configuration=           7
   0.66666665  0.33333333  0.35275689
   0.33333335  0.66666668  0.16819651
   0.33333333  0.66666666  0.41304899
   0.66666669  0.33333334  0.22856878
   0.99999942  0.00000057  0.47087589
   0.00000077  0.99999930  0.28630698
   0.33333323  0.66666678  0.47868087
   0.66666689  0.33333316  0.29389491
   1.00000000  0.99999997  0.33639450
   0.99999998  0.00000008  0.15100598
   0.66666666  0.33333329  0.38976449
   0.33333331  0.66666669  0.20514374
   0.99999996  0.00000004  0.43202401
   0.00000007  0.99999999  0.24735797
   0.66666669  0.33333331  0.72212297
   0.33333329  0.66666669  0.53743324
   0.33333332  0.66666666  0.78236677
   0.66666671  0.33333336  0.59773115
   0.99999927  0.00000068  0.84039550
   0.00000057  0.99999949  0.65555218
   0.33333326  0.66666672  0.84824854
   0.66666674  0.33333330  0.66336841
   0.00000003  0.99999995  0.70576856
   0.99999994  0.00000006  0.52107894
   0.66666664  0.33333328  0.75912294
   0.33333331  0.66666667  0.57446023
   0.99999996  0.00000003  0.80134055
   0.00000008  0.00000003  0.61671961
Direct configuration=           8
   0.66666666  0.33333332  0.35276336
   0.33333335  0.66666671  0.16814473
   0.33333333  0.66666666  0.41303841
   0.66666668  0.33333332  0.22857003
   0.99999944  0.00000055  0.47091311
   0.00000078  0.99999929  0.28635737
   0.33333302  0.66666698  0.47863446
   0.66666717  0.33333290  0.29383985
   1.00000000  0.99999998  0.33639949
   0.99999998  0.00000008  0.15097757
   0.66666666  0.33333328  0.38977671
   0.33333330  0.66666670  0.20509839
   0.99999996  0.00000005  0.43203228
   0.00000009  1.00000000  0.24743839
   0.66666669  0.33333330  0.72212312
   0.33333328  0.66666670  0.53743533
   0.33333331  0.66666666  0.78233709
   0.66666672  0.33333336  0.59771792
   0.99999922  0.00000073  0.84045891
   0.00000055  0.99999950  0.65558300
   0.33333306  0.66666691  0.84824617
   0.66666692  0.33333313  0.66332276
   0.00000004  0.99999995  0.70576802
   0.99999992  0.00000005  0.52108255
   0.66666664  0.33333327  0.75911741
   0.33333330  0.66666668  0.57447215
   0.99999996  0.00000003  0.80135508
   0.00000009  0.00000002  0.61672643
Direct configuration=           9
   0.66666666  0.33333332  0.35278030
   0.33333334  0.66666672  0.16811681
   0.33333332  0.66666667  0.41305820
   0.66666669  0.33333333  0.22858809
   0.99999928  0.00000072  0.47091930
   0.00000102  0.99999907  0.28637840
   0.33333300  0.66666700  0.47862112
   0.66666724  0.33333284  0.29383991
   0.00000002  0.99999996  0.33639886
   0.99999997  0.00000009  0.15096299
   0.66666666  0.33333328  0.38976388
   0.33333329  0.66666669  0.20504045
   0.99999995  0.00000006  0.43202989
   0.00000010  0.99999998  0.24744458
   0.66666670  0.33333329  0.72211650
   0.33333325  0.66666672  0.53745362
   0.33333330  0.66666666  0.78236215
   0.66666673  0.33333335  0.59773560
   0.99999908  0.00000087  0.84049685
   0.00000071  0.99999936  0.65558349
   0.33333291  0.66666704  0.84826700
   0.66666697  0.33333309  0.66330866
   0.00000005  0.99999993  0.70576019
   0.99999990  0.00000007  0.52107970
   0.66666664  0.33333327  0.75909903
   0.33333330  0.66666668  0.57445341
   0.99999995  0.00000004  0.80135029
   0.00000010  0.00000000  0.61672087
