  14  14   0   0
  0.2262920E+02  0.3850000E-09  0.3850000E-09  0.2468000E-08  0.5000000E-15
  1.000000000000000E-004
  CAR 
 ZnIn2S4 bulk PBE-D3BJ relaxation        
     12.74056854    -12.36528546  301      4.65263487      1.00000000
    -12.365  0.0000E+00  0.0000E+00
    -12.282  0.0000E+00  0.0000E+00
    -12.198  0.0000E+00  0.0000E+00
    -12.114  0.0000E+00  0.0000E+00
    -12.031  0.0000E+00  0.0000E+00
    -11.947  0.0000E+00  0.0000E+00
    -11.863  0.0000E+00  0.0000E+00
    -11.779  0.0000E+00  0.0000E+00
    -11.696  0.0000E+00  0.0000E+00
    -11.612  0.0000E+00  0.0000E+00
    -11.528  0.0000E+00  0.0000E+00
    -11.445  0.8020E-11  0.6711E-12
    -11.361  0.2557E-05  0.2140E-06
    -11.277  0.4488E-02  0.3758E-03
    -11.194  0.8725E-01  0.7677E-02
    -11.110  0.8659E-01  0.1492E-01
    -11.026  0.4366E-01  0.1858E-01
    -10.943  0.2101E-01  0.2034E-01
    -10.859  0.1332E+00  0.3148E-01
    -10.775  0.1541E+00  0.4437E-01
    -10.692  0.2145E+00  0.6232E-01
    -10.608  0.3547E+00  0.9201E-01
    -10.524  0.2452E+00  0.1125E+00
    -10.441  0.5018E-01  0.1167E+00
    -10.357  0.4426E-01  0.1204E+00
    -10.273  0.1137E+00  0.1299E+00
    -10.189  0.2158E+00  0.1480E+00
    -10.106  0.4054E+00  0.1819E+00
    -10.022  0.2103E+00  0.1995E+00
     -9.938  0.5695E-02  0.2000E+00
     -9.855  0.2235E-05  0.2000E+00
     -9.771  0.1870E-03  0.2000E+00
     -9.687  0.2334E-02  0.2002E+00
     -9.604  0.7788E-02  0.2009E+00
     -9.520  0.3290E-02  0.2011E+00
     -9.436  0.1046E-01  0.2020E+00
     -9.353  0.7169E-02  0.2026E+00
     -9.269  0.2097E-02  0.2028E+00
     -9.185  0.1536E-01  0.2041E+00
     -9.102  0.1299E-01  0.2052E+00
     -9.018  0.1259E-01  0.2062E+00
     -8.934  0.1799E-01  0.2077E+00
     -8.850  0.2740E-01  0.2100E+00
     -8.767  0.1862E-01  0.2116E+00
     -8.683  0.1921E-01  0.2132E+00
     -8.599  0.1436E-01  0.2144E+00
     -8.516  0.4070E-01  0.2178E+00
     -8.432  0.2761E-01  0.2201E+00
     -8.348  0.1408E-01  0.2213E+00
     -8.265  0.5255E-01  0.2257E+00
     -8.181  0.4496E-01  0.2294E+00
     -8.097  0.3266E-01  0.2322E+00
     -8.014  0.6126E-01  0.2373E+00
     -7.930  0.3500E-01  0.2402E+00
     -7.846  0.2515E-01  0.2423E+00
     -7.763  0.1983E-01  0.2440E+00
     -7.679  0.1258E-01  0.2450E+00
     -7.595  0.1725E-01  0.2465E+00
     -7.511  0.2214E-01  0.2483E+00
     -7.428  0.5429E-01  0.2529E+00
     -7.344  0.8434E-01  0.2599E+00
     -7.260  0.2732E-01  0.2622E+00
     -7.177  0.1546E-01  0.2635E+00
     -7.093  0.1853E-01  0.2651E+00
     -7.009  0.2406E-01  0.2671E+00
     -6.926  0.2714E-01  0.2694E+00
     -6.842  0.4933E-01  0.2735E+00
     -6.758  0.6319E-01  0.2788E+00
     -6.675  0.1454E-01  0.2800E+00
     -6.591  0.1666E-03  0.2800E+00
     -6.507  0.2264E-07  0.2800E+00
     -6.424  0.2025E-13  0.2800E+00
     -6.340  0.0000E+00  0.2800E+00
     -6.256  0.0000E+00  0.2800E+00
     -6.173  0.0000E+00  0.2800E+00
     -6.089  0.0000E+00  0.2800E+00
     -6.005  0.0000E+00  0.2800E+00
     -5.921  0.0000E+00  0.2800E+00
     -5.838  0.0000E+00  0.2800E+00
     -5.754  0.0000E+00  0.2800E+00
     -5.670  0.0000E+00  0.2800E+00
     -5.587  0.0000E+00  0.2800E+00
     -5.503  0.0000E+00  0.2800E+00
     -5.419  0.0000E+00  0.2800E+00
     -5.336  0.0000E+00  0.2800E+00
     -5.252  0.0000E+00  0.2800E+00
     -5.168  0.0000E+00  0.2800E+00
     -5.085  0.0000E+00  0.2800E+00
     -5.001  0.0000E+00  0.2800E+00
     -4.917  0.0000E+00  0.2800E+00
     -4.834  0.0000E+00  0.2800E+00
     -4.750  0.0000E+00  0.2800E+00
     -4.666  0.0000E+00  0.2800E+00
     -4.582  0.0000E+00  0.2800E+00
     -4.499  0.0000E+00  0.2800E+00
     -4.415  0.0000E+00  0.2800E+00
     -4.331  0.0000E+00  0.2800E+00
     -4.248  0.0000E+00  0.2800E+00
     -4.164  0.0000E+00  0.2800E+00
     -4.080  0.0000E+00  0.2800E+00
     -3.997  0.0000E+00  0.2800E+00
     -3.913  0.0000E+00  0.2800E+00
     -3.829  0.0000E+00  0.2800E+00
     -3.746  0.0000E+00  0.2800E+00
     -3.662  0.0000E+00  0.2800E+00
     -3.578  0.0000E+00  0.2800E+00
     -3.495  0.0000E+00  0.2800E+00
     -3.411  0.0000E+00  0.2800E+00
     -3.327  0.0000E+00  0.2800E+00
     -3.243  0.0000E+00  0.2800E+00
     -3.160  0.0000E+00  0.2800E+00
     -3.076  0.0000E+00  0.2800E+00
     -2.992  0.0000E+00  0.2800E+00
     -2.909  0.0000E+00  0.2800E+00
     -2.825  0.2073E-18  0.2800E+00
     -2.741  0.7243E-11  0.2800E+00
     -2.658  0.8033E-06  0.2800E+00
     -2.574  0.5417E-03  0.2800E+00
     -2.490  0.9141E-02  0.2808E+00
     -2.407  0.2559E-01  0.2830E+00
     -2.323  0.3613E-01  0.2860E+00
     -2.239  0.3291E-01  0.2887E+00
     -2.156  0.1800E-01  0.2902E+00
     -2.072  0.2643E-01  0.2924E+00
     -1.988  0.4792E-01  0.2965E+00
     -1.905  0.7644E-01  0.3029E+00
     -1.821  0.3422E-01  0.3057E+00
     -1.737  0.2359E-01  0.3077E+00
     -1.653  0.1487E-01  0.3089E+00
     -1.570  0.3921E-01  0.3122E+00
     -1.486  0.1154E+00  0.3219E+00
     -1.402  0.1288E+00  0.3327E+00
     -1.319  0.2252E+00  0.3515E+00
     -1.235  0.1272E+00  0.3621E+00
     -1.151  0.1997E+00  0.3789E+00
     -1.068  0.2423E+00  0.3991E+00
     -0.984  0.8314E-01  0.4061E+00
     -0.900  0.4441E-01  0.4098E+00
     -0.817  0.4012E-01  0.4132E+00
     -0.733  0.1615E-01  0.4145E+00
     -0.649  0.4187E-02  0.4149E+00
     -0.566  0.4138E-02  0.4152E+00
     -0.482  0.5906E-02  0.4157E+00
     -0.398  0.9907E-02  0.4165E+00
     -0.314  0.3714E-01  0.4196E+00
     -0.231  0.4431E-01  0.4234E+00
     -0.147  0.5519E-01  0.4280E+00
     -0.063  0.4938E-01  0.4321E+00
      0.020  0.4551E-01  0.4359E+00
      0.104  0.5497E-01  0.4405E+00
      0.188  0.4888E-01  0.4446E+00
      0.271  0.3306E-01  0.4474E+00
      0.355  0.3491E-01  0.4503E+00
      0.439  0.3329E-01  0.4531E+00
      0.522  0.3773E-01  0.4562E+00
      0.606  0.6755E-01  0.4619E+00
      0.690  0.5951E-01  0.4669E+00
      0.773  0.2984E-01  0.4694E+00
      0.857  0.3399E-01  0.4722E+00
      0.941  0.3137E-01  0.4748E+00
      1.025  0.4911E-01  0.4789E+00
      1.108  0.4799E-01  0.4830E+00
      1.192  0.4677E-01  0.4869E+00
      1.276  0.6135E-01  0.4920E+00
      1.359  0.4548E-01  0.4958E+00
      1.443  0.5660E-01  0.5006E+00
      1.527  0.5482E-01  0.5051E+00
      1.610  0.5576E-01  0.5098E+00
      1.694  0.6734E-01  0.5154E+00
      1.778  0.7005E-01  0.5213E+00
      1.861  0.4813E-01  0.5253E+00
      1.945  0.3965E-01  0.5286E+00
      2.029  0.5451E-01  0.5332E+00
      2.112  0.3566E-01  0.5362E+00
      2.196  0.2191E-01  0.5380E+00
      2.280  0.2966E-01  0.5405E+00
      2.363  0.6101E-01  0.5456E+00
      2.447  0.5137E-01  0.5499E+00
      2.531  0.3770E-01  0.5531E+00
      2.615  0.2911E-01  0.5555E+00
      2.698  0.3375E-01  0.5583E+00
      2.782  0.5917E-01  0.5633E+00
      2.866  0.1055E+00  0.5721E+00
      2.949  0.5940E-01  0.5771E+00
      3.033  0.4309E-01  0.5807E+00
      3.117  0.4137E-01  0.5841E+00
      3.200  0.2049E-01  0.5859E+00
      3.284  0.1506E-01  0.5871E+00
      3.368  0.2003E-01  0.5888E+00
      3.451  0.1931E-01  0.5904E+00
      3.535  0.2314E-01  0.5923E+00
      3.619  0.1822E-01  0.5939E+00
      3.702  0.7393E-02  0.5945E+00
      3.786  0.8114E-02  0.5952E+00
      3.870  0.5163E-01  0.5995E+00
      3.954  0.9713E-01  0.6076E+00
      4.037  0.8068E-01  0.6144E+00
      4.121  0.3041E-01  0.6169E+00
      4.205  0.1730E-01  0.6184E+00
      4.288  0.6156E-02  0.6189E+00
      4.372  0.1633E-02  0.6190E+00
      4.456  0.7805E-02  0.6197E+00
      4.539  0.3380E-02  0.6200E+00
      4.623  0.5522E-03  0.6200E+00
      4.707  0.8073E-05  0.6200E+00
      4.790  0.2375E-03  0.6200E+00
      4.874  0.1687E-03  0.6200E+00
      4.958  0.1986E-05  0.6200E+00
      5.041  0.1066E-05  0.6200E+00
      5.125  0.2736E-03  0.6201E+00
      5.209  0.2153E-02  0.6202E+00
      5.292  0.8860E-03  0.6203E+00
      5.376  0.7539E-03  0.6204E+00
      5.460  0.4221E-02  0.6207E+00
      5.544  0.3128E-02  0.6210E+00
      5.627  0.7451E-02  0.6216E+00
      5.711  0.1409E-01  0.6228E+00
      5.795  0.2126E-01  0.6246E+00
      5.878  0.2379E-01  0.6266E+00
      5.962  0.2116E-01  0.6283E+00
      6.046  0.3602E-01  0.6313E+00
      6.129  0.3194E-01  0.6340E+00
      6.213  0.3744E-01  0.6372E+00
      6.297  0.4531E-01  0.6409E+00
      6.380  0.4224E-01  0.6445E+00
      6.464  0.2860E-01  0.6469E+00
      6.548  0.4487E-01  0.6506E+00
      6.631  0.3760E-01  0.6538E+00
      6.715  0.4419E-01  0.6575E+00
      6.799  0.2828E-01  0.6598E+00
      6.883  0.3322E-02  0.6601E+00
      6.966  0.3564E-02  0.6604E+00
      7.050  0.6739E-02  0.6610E+00
      7.134  0.1225E-01  0.6620E+00
      7.217  0.2017E-01  0.6637E+00
      7.301  0.1722E-01  0.6651E+00
      7.385  0.5895E-02  0.6656E+00
      7.468  0.1397E-01  0.6668E+00
      7.552  0.2066E-01  0.6685E+00
      7.636  0.1868E-01  0.6701E+00
      7.719  0.1613E-01  0.6714E+00
      7.803  0.2721E-01  0.6737E+00
      7.887  0.2655E-01  0.6759E+00
      7.970  0.2519E-01  0.6780E+00
      8.054  0.2790E-01  0.6804E+00
      8.138  0.7753E-02  0.6810E+00
      8.222  0.6717E-02  0.6816E+00
      8.305  0.7115E-02  0.6822E+00
      8.389  0.6466E-02  0.6827E+00
      8.473  0.1158E-01  0.6837E+00
      8.556  0.2095E-01  0.6855E+00
      8.640  0.5334E-01  0.6899E+00
      8.724  0.5001E-01  0.6941E+00
      8.807  0.6339E-01  0.6994E+00
      8.891  0.5837E-01  0.7043E+00
      8.975  0.3868E-01  0.7075E+00
      9.058  0.2845E-01  0.7099E+00
      9.142  0.3850E-01  0.7131E+00
      9.226  0.4384E-01  0.7168E+00
      9.309  0.2763E-01  0.7191E+00
      9.393  0.4568E-01  0.7229E+00
      9.477  0.7092E-01  0.7289E+00
      9.560  0.4348E-01  0.7325E+00
      9.644  0.5303E-01  0.7369E+00
      9.728  0.7592E-01  0.7433E+00
      9.812  0.8181E-01  0.7501E+00
      9.895  0.4576E-01  0.7540E+00
      9.979  0.4963E-01  0.7581E+00
     10.063  0.2880E-01  0.7605E+00
     10.146  0.2138E-01  0.7623E+00
     10.230  0.1993E-01  0.7640E+00
     10.314  0.3183E-01  0.7667E+00
     10.397  0.3178E-01  0.7693E+00
     10.481  0.4308E-01  0.7729E+00
     10.565  0.4823E-01  0.7770E+00
     10.648  0.3868E-01  0.7802E+00
     10.732  0.5041E-01  0.7844E+00
     10.816  0.4824E-01  0.7885E+00
     10.899  0.3090E-01  0.7910E+00
     10.983  0.4155E-01  0.7945E+00
     11.067  0.2762E-01  0.7968E+00
     11.151  0.1315E-01  0.7979E+00
     11.234  0.8915E-02  0.7987E+00
     11.318  0.7345E-02  0.7993E+00
     11.402  0.3335E-02  0.7996E+00
     11.485  0.3131E-02  0.7998E+00
     11.569  0.7109E-03  0.7999E+00
     11.653  0.1228E-02  0.8000E+00
     11.736  0.1094E-03  0.8000E+00
     11.820  0.8906E-07  0.8000E+00
     11.904  0.3621E-12  0.8000E+00
     11.987  0.0000E+00  0.8000E+00
     12.071  0.0000E+00  0.8000E+00
     12.155  0.0000E+00  0.8000E+00
     12.238  0.0000E+00  0.8000E+00
     12.322  0.0000E+00  0.8000E+00
     12.406  0.0000E+00  0.8000E+00
     12.490  0.0000E+00  0.8000E+00
     12.573  0.0000E+00  0.8000E+00
     12.657  0.0000E+00  0.8000E+00
     12.741  0.0000E+00  0.8000E+00
