       N       E                     dE             d eps       ncg     rms          rms(c)
DAV:   1     0.134087520224E+04    0.13409E+04   -0.52658E+04  6112   0.175E+03
DAV:   2     0.200826341990E+03   -0.11400E+04   -0.10897E+04  6096   0.481E+02
DAV:   3    -0.347174167660E+02   -0.23554E+03   -0.22603E+03  6904   0.205E+02
DAV:   4    -0.553571323432E+02   -0.20640E+02   -0.20369E+02  7640   0.602E+01
DAV:   5    -0.562733509493E+02   -0.91622E+00   -0.91404E+00  8176   0.137E+01    0.207E+01
DAV:   6    -0.525395003661E+02    0.37339E+01   -0.55287E+00  9680   0.371E+01    0.141E+01
DAV:   7    -0.525048343326E+02    0.34666E-01   -0.78170E+00  9336   0.160E+01    0.433E+00
DAV:   8    -0.523370338105E+02    0.16780E+00   -0.15107E+00  8984   0.753E+00    0.327E+00
DAV:   9    -0.523430391767E+02   -0.60054E-02   -0.19271E-01  7896   0.160E+00    0.160E+00
DAV:  10    -0.523361673992E+02    0.68718E-02   -0.42556E-02  8448   0.168E+00    0.115E+00
DAV:  11    -0.523365033634E+02   -0.33596E-03   -0.96696E-03  8656   0.679E-01    0.303E-01
DAV:  12    -0.523365237482E+02   -0.20385E-04   -0.25125E-03  7336   0.312E-01    0.210E-01
DAV:  13    -0.523365310033E+02   -0.72551E-05   -0.37228E-04  9112   0.970E-02    0.189E-01
DAV:  14    -0.523365673816E+02   -0.36378E-04   -0.13472E-04  7816   0.606E-02    0.803E-02
DAV:  15    -0.523365409149E+02    0.26467E-04   -0.16873E-04  8408   0.106E-01    0.501E-02
DAV:  16    -0.523365410811E+02   -0.16619E-06   -0.33702E-05  8000   0.296E-02    0.282E-02
DAV:  17    -0.523365410074E+02    0.73691E-07   -0.35666E-06  6048   0.721E-03
   1 F= -.56558868E+02 E0= -.56558044E+02  d E =-.565589E+02
       N       E                     dE             d eps       ncg     rms          rms(c)
DAV:   1    -0.560038046881E+02   -0.36673E+01   -0.20561E+02  8968   0.112E+02    0.155E+01
DAV:   2    -0.536424002204E+02    0.23614E+01   -0.15696E+01  8248   0.332E+01    0.525E+00
DAV:   3    -0.531763273716E+02    0.46607E+00   -0.15022E+00  8504   0.885E+00    0.292E+00
DAV:   4    -0.530775247737E+02    0.98803E-01   -0.23642E-01  9440   0.331E+00    0.136E+00
DAV:   5    -0.530669159368E+02    0.10609E-01   -0.26965E-02  8360   0.137E+00    0.915E-01
DAV:   6    -0.530633321832E+02    0.35838E-02   -0.74503E-03  8520   0.576E-01    0.402E-01
DAV:   7    -0.530627937190E+02    0.53846E-03   -0.24058E-03  9152   0.525E-01    0.120E-01
DAV:   8    -0.530628836248E+02   -0.89906E-04   -0.97404E-04  7240   0.213E-01    0.576E-02
DAV:   9    -0.530628934066E+02   -0.97817E-05   -0.94507E-05  8336   0.716E-02    0.301E-02
DAV:  10    -0.530628984916E+02   -0.50851E-05   -0.14666E-05  8120   0.257E-02    0.133E-02
DAV:  11    -0.530628993953E+02   -0.90366E-06   -0.31607E-06  6016   0.120E-02
   2 F= -.57028614E+02 E0= -.57028259E+02  d E =-.469745E+00
       N       E                     dE             d eps       ncg     rms          rms(c)
DAV:   1    -0.530900045963E+02   -0.27106E-01   -0.29278E+00  8920   0.114E+01    0.240E+00
DAV:   2    -0.530484431978E+02    0.41561E-01   -0.25439E-01  8984   0.520E+00    0.685E-01
DAV:   3    -0.530422177215E+02    0.62255E-02   -0.21489E-02  8824   0.103E+00    0.490E-01
DAV:   4    -0.530404892473E+02    0.17285E-02   -0.32927E-03  9448   0.380E-01    0.222E-01
DAV:   5    -0.530402010081E+02    0.28824E-03   -0.54946E-04  8920   0.186E-01    0.823E-02
DAV:   6    -0.530402087950E+02   -0.77868E-05   -0.19860E-04  8136   0.790E-02    0.602E-02
DAV:   7    -0.530402102785E+02   -0.14835E-05   -0.25103E-05  9040   0.533E-02    0.209E-02
DAV:   8    -0.530402135360E+02   -0.32575E-05   -0.11229E-05  7136   0.222E-02    0.101E-02
DAV:   9    -0.530402137291E+02   -0.19312E-06   -0.12880E-06  3856   0.732E-03
   3 F= -.57037294E+02 E0= -.57036874E+02  d E =-.478426E+00
       N       E                     dE             d eps       ncg     rms          rms(c)
DAV:   1    -0.531592623399E+02   -0.11905E+00   -0.50231E+01  7160   0.272E+01    0.517E+00
DAV:   2    -0.532553372094E+02   -0.96075E-01   -0.29760E+00  9008   0.111E+01    0.167E+00
DAV:   3    -0.532445483795E+02    0.10789E-01   -0.18737E-01  8344   0.244E+00    0.133E+00
DAV:   4    -0.532362034301E+02    0.83449E-02   -0.20908E-02  9208   0.946E-01    0.727E-01
DAV:   5    -0.532342374384E+02    0.19660E-02   -0.46217E-03  8592   0.484E-01    0.329E-01
DAV:   6    -0.532340014876E+02    0.23595E-03   -0.12113E-03 10080   0.276E-01    0.190E-01
DAV:   7    -0.532340190213E+02   -0.17534E-04   -0.51349E-04  7960   0.115E-01    0.668E-02
DAV:   8    -0.532340256646E+02   -0.66432E-05   -0.56765E-05  8568   0.386E-02    0.371E-02
DAV:   9    -0.532340264484E+02   -0.78386E-06   -0.76277E-06  7880   0.202E-02
   4 F= -.57283711E+02 E0= -.57283507E+02  d E =-.246417E+00
       N       E                     dE             d eps       ncg     rms          rms(c)
DAV:   1    -0.531917505410E+02    0.42275E-01   -0.61540E+01  7176   0.301E+01    0.600E+00
DAV:   2    -0.533066845416E+02   -0.11493E+00   -0.36655E+00  8936   0.125E+01    0.186E+00
DAV:   3    -0.532919988749E+02    0.14686E-01   -0.22784E-01  8464   0.275E+00    0.155E+00
DAV:   4    -0.532816983986E+02    0.10300E-01   -0.25485E-02  9304   0.105E+00    0.814E-01
DAV:   5    -0.532789860643E+02    0.27123E-02   -0.57532E-03  8504   0.577E-01    0.363E-01
DAV:   6    -0.532787550571E+02    0.23101E-03   -0.16853E-03  9864   0.300E-01    0.215E-01
DAV:   7    -0.532787811481E+02   -0.26091E-04   -0.61860E-04  7600   0.125E-01    0.682E-02
DAV:   8    -0.532787869623E+02   -0.58142E-05   -0.56201E-05  8320   0.387E-02    0.353E-02
DAV:   9    -0.532787885381E+02   -0.15757E-05   -0.11946E-05  8264   0.193E-02    0.233E-02
DAV:  10    -0.532787878952E+02    0.64287E-06   -0.28434E-06  5272   0.112E-02
   5 F= -.57388622E+02 E0= -.57388583E+02  d E =-.351328E+00
       N       E                     dE             d eps       ncg     rms          rms(c)
DAV:   1    -0.533131046308E+02   -0.34316E-01   -0.87001E+00  6080   0.963E+00    0.167E+00
DAV:   2    -0.533374106184E+02   -0.24306E-01   -0.51367E-01  8928   0.354E+00    0.821E-01
DAV:   3    -0.533340155399E+02    0.33951E-02   -0.22144E-02  8792   0.758E-01    0.574E-01
DAV:   4    -0.533322266627E+02    0.17889E-02   -0.29062E-03  8504   0.284E-01    0.336E-01
DAV:   5    -0.533311009781E+02    0.11257E-02   -0.16523E-03  9192   0.282E-01    0.122E-01
DAV:   6    -0.533311093031E+02   -0.83251E-05   -0.74941E-04  8768   0.144E-01    0.107E-01
DAV:   7    -0.533311149122E+02   -0.56091E-05   -0.10440E-04  7144   0.592E-02    0.782E-02
DAV:   8    -0.533311114717E+02    0.34405E-05   -0.23539E-05  8464   0.353E-02    0.389E-02
DAV:   9    -0.533311137508E+02   -0.22790E-05   -0.16423E-05  6928   0.219E-02    0.140E-02
DAV:  10    -0.533311140256E+02   -0.27483E-06   -0.45828E-06  6144   0.136E-02
   6 F= -.57448171E+02 E0= -.57448137E+02  d E =-.595494E-01
       N       E                     dE             d eps       ncg     rms          rms(c)
DAV:   1    -0.533297485727E+02    0.13652E-02   -0.45782E+00  6088   0.700E+00    0.120E+00
DAV:   2    -0.533423390183E+02   -0.12590E-01   -0.26733E-01  8840   0.250E+00    0.568E-01
DAV:   3    -0.533404884250E+02    0.18506E-02   -0.11662E-02  8784   0.555E-01    0.409E-01
DAV:   4    -0.533395562836E+02    0.93214E-03   -0.14984E-03  8264   0.204E-01    0.237E-01
DAV:   5    -0.533389926176E+02    0.56367E-03   -0.91516E-04  9144   0.207E-01    0.807E-02
DAV:   6    -0.533390032066E+02   -0.10589E-04   -0.38397E-04  8784   0.105E-01    0.761E-02
DAV:   7    -0.533390053360E+02   -0.21294E-05   -0.47438E-05  7208   0.388E-02    0.554E-02
DAV:   8    -0.533390032228E+02    0.21132E-05   -0.14506E-05  7544   0.268E-02    0.250E-02
DAV:   9    -0.533390046720E+02   -0.14491E-05   -0.88413E-06  6512   0.159E-02    0.927E-03
DAV:  10    -0.533390048529E+02   -0.18094E-06   -0.16955E-06  3864   0.948E-03
   7 F= -.57461473E+02 E0= -.57461439E+02  d E =-.728515E-01
       N       E                     dE             d eps       ncg     rms          rms(c)
DAV:   1    -0.533658694680E+02   -0.26865E-01   -0.51345E+00  8224   0.122E+01    0.229E+00
DAV:   2    -0.533307571298E+02    0.35112E-01   -0.40825E-01  9352   0.571E+00    0.772E-01
DAV:   3    -0.533234921761E+02    0.72650E-02   -0.30860E-02  8592   0.120E+00    0.507E-01
DAV:   4    -0.533209279928E+02    0.25642E-02   -0.61661E-03  9208   0.471E-01    0.247E-01
DAV:   5    -0.533206716232E+02    0.25637E-03   -0.94041E-04  8208   0.179E-01    0.102E-01
DAV:   6    -0.533206227958E+02    0.48827E-04   -0.11639E-04 10000   0.103E-01    0.452E-02
DAV:   7    -0.533206336135E+02   -0.10818E-04   -0.82571E-05  7248   0.480E-02    0.199E-02
DAV:   8    -0.533206342682E+02   -0.65471E-06   -0.51949E-06  6792   0.122E-02
   8 F= -.57476545E+02 E0= -.57476539E+02  d E =-.150718E-01
       N       E                     dE             d eps       ncg     rms          rms(c)
DAV:   1    -0.533177850132E+02    0.28486E-02   -0.54338E-02  8256   0.129E+00    0.224E-01
DAV:   2    -0.533174162646E+02    0.36875E-03   -0.42771E-03  9312   0.570E-01    0.767E-02
DAV:   3    -0.533173380506E+02    0.78214E-04   -0.31131E-04  8448   0.121E-01    0.491E-02
DAV:   4    -0.533173165500E+02    0.21501E-04   -0.67824E-05  9232   0.499E-02    0.231E-02
DAV:   5    -0.533173177259E+02   -0.11760E-05   -0.10417E-05  7624   0.180E-02    0.107E-02
DAV:   6    -0.533173185989E+02   -0.87301E-06   -0.60775E-07  3800   0.987E-03
   9 F= -.57476673E+02 E0= -.57476669E+02  d E =-.152001E-01
       N       E                     dE             d eps       ncg     rms          rms(c)
DAV:   1    -0.533083166374E+02    0.90011E-02   -0.63255E+00  6944   0.715E+00    0.947E-01
DAV:   2    -0.533256981397E+02   -0.17382E-01   -0.21861E-01  8840   0.233E+00    0.384E-01
DAV:   3    -0.533249194729E+02    0.77867E-03   -0.57787E-03  7664   0.352E-01    0.258E-01
DAV:   4    -0.533244674551E+02    0.45202E-03   -0.97669E-04  8024   0.144E-01    0.153E-01
DAV:   5    -0.533242409811E+02    0.22647E-03   -0.36826E-04  7864   0.114E-01    0.688E-02
DAV:   6    -0.533242440929E+02   -0.31117E-05   -0.21015E-04  8696   0.780E-02    0.531E-02
DAV:   7    -0.533242450513E+02   -0.95840E-06   -0.40819E-05  7408   0.337E-02    0.299E-02
DAV:   8    -0.533242445301E+02    0.52116E-06   -0.37051E-06  6472   0.138E-02
  10 F= -.57486135E+02 E0= -.57486133E+02  d E =-.946213E-02
       N       E                     dE             d eps       ncg     rms          rms(c)
DAV:   1    -0.533162128726E+02    0.80322E-02   -0.31324E+00  6992   0.503E+00    0.672E-01
DAV:   2    -0.533252073545E+02   -0.89945E-02   -0.11106E-01  8824   0.169E+00    0.270E-01
DAV:   3    -0.533247962397E+02    0.41111E-03   -0.28669E-03  8216   0.255E-01    0.189E-01
DAV:   4    -0.533245665252E+02    0.22971E-03   -0.45886E-04  8208   0.101E-01    0.109E-01
DAV:   5    -0.533244493575E+02    0.11717E-03   -0.18951E-04  7904   0.832E-02    0.495E-02
DAV:   6    -0.533244497803E+02   -0.42285E-06   -0.10227E-04  8784   0.546E-02    0.393E-02
DAV:   7    -0.533244506456E+02   -0.86525E-06   -0.20722E-05  7296   0.241E-02    0.236E-02
DAV:   8    -0.533244501830E+02    0.46260E-06   -0.20858E-06  5336   0.130E-02
  11 F= -.57488178E+02 E0= -.57488176E+02  d E =-.115050E-01
       N       E                     dE             d eps       ncg     rms          rms(c)
DAV:   1    -0.533306158809E+02   -0.61652E-02   -0.16557E+00  6104   0.417E+00    0.973E-01
DAV:   2    -0.533326109786E+02   -0.19951E-02   -0.12705E-01  8784   0.199E+00    0.477E-01
DAV:   3    -0.533295887157E+02    0.30223E-02   -0.45460E-03  8424   0.375E-01    0.314E-01
DAV:   4    -0.533279076457E+02    0.16811E-02   -0.23861E-03  8224   0.291E-01    0.121E-01
DAV:   5    -0.533278227757E+02    0.84870E-04   -0.10174E-03  8200   0.153E-01    0.702E-02
DAV:   6    -0.533278228611E+02   -0.85414E-07   -0.80051E-05  7104   0.504E-02    0.510E-02
DAV:   7    -0.533278198867E+02    0.29745E-05   -0.24311E-05  8864   0.299E-02    0.158E-02
DAV:   8    -0.533278208228E+02   -0.93614E-06   -0.80255E-06  7200   0.135E-02
  12 F= -.57493368E+02 E0= -.57493366E+02  d E =-.518963E-02
       N       E                     dE             d eps       ncg     rms          rms(c)
DAV:   1    -0.533307941390E+02   -0.29743E-02   -0.17793E+00  6104   0.433E+00    0.100E+00
DAV:   2    -0.533328582893E+02   -0.20642E-02   -0.13650E-01  8800   0.207E+00    0.496E-01
DAV:   3    -0.533296078539E+02    0.32504E-02   -0.49168E-03  8432   0.391E-01    0.328E-01
DAV:   4    -0.533277885890E+02    0.18193E-02   -0.25716E-03  8192   0.302E-01    0.126E-01
DAV:   5    -0.533276981357E+02    0.90453E-04   -0.11037E-03  8208   0.159E-01    0.730E-02
DAV:   6    -0.533276983437E+02   -0.20797E-06   -0.86909E-05  7160   0.529E-02    0.533E-02
DAV:   7    -0.533276950832E+02    0.32606E-05   -0.26396E-05  8912   0.317E-02    0.164E-02
DAV:   8    -0.533276960794E+02   -0.99628E-06   -0.86547E-06  7256   0.142E-02
  13 F= -.57495196E+02 E0= -.57495194E+02  d E =-.701734E-02
       N       E                     dE             d eps       ncg     rms          rms(c)
DAV:   1    -0.533380642781E+02   -0.10369E-01   -0.17458E+00  8424   0.948E+00    0.166E+00
DAV:   2    -0.533085215411E+02    0.29543E-01   -0.16954E-01  8928   0.442E+00    0.532E-01
DAV:   3    -0.533038687903E+02    0.46528E-02   -0.14880E-02  8160   0.929E-01    0.321E-01
DAV:   4    -0.533027080185E+02    0.11608E-02   -0.26915E-03  9312   0.341E-01    0.159E-01
DAV:   5    -0.533026483255E+02    0.59693E-04   -0.40686E-04  8728   0.131E-01    0.606E-02
DAV:   6    -0.533026457970E+02    0.25286E-05   -0.97511E-05  7536   0.736E-02    0.320E-02
DAV:   7    -0.533026485714E+02   -0.27744E-05   -0.22067E-05  8400   0.517E-02    0.123E-02
DAV:   8    -0.533026503702E+02   -0.17989E-05   -0.82614E-06  6448   0.196E-02    0.672E-03
DAV:   9    -0.533026504303E+02   -0.60121E-07   -0.69508E-07  3752   0.509E-03
  14 F= -.57497581E+02 E0= -.57497581E+02  d E =-.238576E-02
       N       E                     dE             d eps       ncg     rms          rms(c)
DAV:   1    -0.533006344048E+02    0.20160E-02   -0.12056E-02  8512   0.800E-01    0.135E-01
DAV:   2    -0.533004273588E+02    0.20705E-03   -0.11564E-03  8912   0.359E-01    0.437E-02
DAV:   3    -0.533003966097E+02    0.30749E-04   -0.10178E-04  8160   0.767E-02    0.259E-02
DAV:   4    -0.533003926974E+02    0.39124E-05   -0.18109E-05  9184   0.282E-02    0.130E-02
DAV:   5    -0.533003946397E+02   -0.19423E-05   -0.21935E-06  4456   0.115E-02    0.412E-03
DAV:   6    -0.533003952787E+02   -0.63897E-06   -0.10781E-06  3640   0.735E-03
  15 F= -.57497604E+02 E0= -.57497603E+02  d E =-.240804E-02
       N       E                     dE             d eps       ncg     rms          rms(c)
DAV:   1    -0.532991354477E+02    0.12592E-02   -0.15175E-01  6648   0.138E+00    0.203E-01
DAV:   2    -0.532995968968E+02   -0.46145E-03   -0.85548E-03  8232   0.458E-01    0.751E-02
DAV:   3    -0.532995753918E+02    0.21505E-04   -0.42794E-04  8456   0.113E-01    0.642E-02
DAV:   4    -0.532995606966E+02    0.14695E-04   -0.47727E-05  9112   0.361E-02    0.381E-02
DAV:   5    -0.532995562790E+02    0.44177E-05   -0.11633E-05  7776   0.251E-02    0.140E-02
DAV:   6    -0.532995567926E+02   -0.51366E-06   -0.23220E-06  4888   0.143E-02
  16 F= -.57498856E+02 E0= -.57498855E+02  d E =-.125234E-02
       N       E                     dE             d eps       ncg     rms          rms(c)
DAV:   1    -0.532916151117E+02    0.79412E-02   -0.13636E+00  6600   0.412E+00    0.616E-01
DAV:   2    -0.532958521082E+02   -0.42370E-02   -0.77777E-02  8232   0.138E+00    0.225E-01
DAV:   3    -0.532956559722E+02    0.19614E-03   -0.38614E-03  8392   0.340E-01    0.192E-01
DAV:   4    -0.532955147840E+02    0.14119E-03   -0.43978E-04  9072   0.112E-01    0.114E-01
DAV:   5    -0.532954627787E+02    0.52005E-04   -0.10417E-04  8032   0.749E-02    0.433E-02
DAV:   6    -0.532954603494E+02    0.24293E-05   -0.30501E-05  9976   0.439E-02    0.226E-02
DAV:   7    -0.532954625377E+02   -0.21883E-05   -0.11358E-05  6672   0.185E-02    0.102E-02
DAV:   8    -0.532954629964E+02   -0.45867E-06   -0.44628E-07  3792   0.759E-03
  17 F= -.57501062E+02 E0= -.57501061E+02  d E =-.345804E-02
       N       E                     dE             d eps       ncg     rms          rms(c)
DAV:   1    -0.532923230699E+02    0.31395E-02   -0.24689E-01  6672   0.176E+00    0.259E-01
DAV:   2    -0.532930668311E+02   -0.74376E-03   -0.13882E-02  8248   0.586E-01    0.958E-02
DAV:   3    -0.532930316892E+02    0.35142E-04   -0.70053E-04  8440   0.145E-01    0.820E-02
DAV:   4    -0.532930073792E+02    0.24310E-04   -0.78680E-05  9072   0.458E-02    0.486E-02
DAV:   5    -0.532929995538E+02    0.78254E-05   -0.19030E-05  8000   0.320E-02    0.177E-02
DAV:   6    -0.532930000828E+02   -0.52898E-06   -0.48656E-06  7016   0.182E-02
  18 F= -.57501289E+02 E0= -.57501289E+02  d E =-.368523E-02
       N       E                     dE             d eps       ncg     rms          rms(c)
DAV:   1    -0.533089192305E+02   -0.15920E-01   -0.93802E-01  8296   0.489E+00    0.859E-01
DAV:   2    -0.533059304303E+02    0.29888E-02   -0.46988E-02  9280   0.190E+00    0.254E-01
DAV:   3    -0.533053441890E+02    0.58624E-03   -0.30866E-03  8336   0.383E-01    0.186E-01
DAV:   4    -0.533051383944E+02    0.20579E-03   -0.47743E-04  9088   0.146E-01    0.103E-01
DAV:   5    -0.533050706908E+02    0.67704E-04   -0.90662E-05  8616   0.824E-02    0.354E-02
DAV:   6    -0.533050577147E+02    0.12976E-04   -0.28301E-05  9464   0.418E-02    0.239E-02
DAV:   7    -0.533050553911E+02    0.23237E-05   -0.89260E-06  7056   0.149E-02    0.856E-03
DAV:   8    -0.533050536937E+02    0.16974E-05   -0.61833E-07  3904   0.862E-03    0.452E-03
DAV:   9    -0.533050533835E+02    0.31018E-06   -0.56109E-07  3640   0.523E-03
  19 F= -.57501769E+02 E0= -.57501769E+02  d E =-.479954E-03
       N       E                     dE             d eps       ncg     rms          rms(c)
DAV:   1    -0.533019462165E+02    0.31075E-02   -0.89383E-02  8304   0.149E+00    0.270E-01
DAV:   2    -0.533016431474E+02    0.30307E-03   -0.45099E-03  9280   0.593E-01    0.795E-02
DAV:   3    -0.533015925361E+02    0.50611E-04   -0.30473E-04  8456   0.121E-01    0.588E-02
DAV:   4    -0.533015792702E+02    0.13266E-04   -0.45370E-05  9056   0.451E-02    0.325E-02
DAV:   5    -0.533015785384E+02    0.73176E-06   -0.88393E-06  7632   0.267E-02
  20 F= -.57501875E+02 E0= -.57501875E+02  d E =-.586259E-03
       N       E                     dE             d eps       ncg     rms          rms(c)
DAV:   1    -0.532969542736E+02    0.46250E-02   -0.61588E-01  8288   0.342E+00    0.537E-01
DAV:   2    -0.532952846034E+02    0.16697E-02   -0.20869E-02  9040   0.130E+00    0.173E-01
DAV:   3    -0.532949604268E+02    0.32418E-03   -0.16517E-03  8912   0.265E-01    0.117E-01
DAV:   4    -0.532948620961E+02    0.98331E-04   -0.20718E-04  8896   0.908E-02    0.647E-02
DAV:   5    -0.532948357361E+02    0.26360E-04   -0.53639E-05  8136   0.580E-02    0.250E-02
DAV:   6    -0.532948359468E+02   -0.21066E-06   -0.19094E-05  9144   0.377E-02    0.182E-02
DAV:   7    -0.532948376082E+02   -0.16614E-05   -0.73416E-06  6544   0.141E-02    0.861E-03
DAV:   8    -0.532948380234E+02   -0.41514E-06   -0.37955E-07  3752   0.473E-03
  21 F= -.57502279E+02 E0= -.57502278E+02  d E =-.403338E-03
       N       E                     dE             d eps       ncg     rms          rms(c)
DAV:   1    -0.532956121720E+02   -0.77456E-03   -0.67407E-03  8304   0.360E-01    0.559E-02
DAV:   2    -0.532955966609E+02    0.15511E-04   -0.22984E-04  9112   0.136E-01    0.186E-02
DAV:   3    -0.532955923957E+02    0.42653E-05   -0.17605E-05  8784   0.273E-02    0.121E-02
DAV:   4    -0.532955900896E+02    0.23061E-05   -0.15912E-06  3824   0.961E-03    0.627E-03
DAV:   5    -0.532955884770E+02    0.16126E-05   -0.14385E-06  3960   0.734E-03    0.206E-03
DAV:   6    -0.532955883564E+02    0.12056E-06   -0.64765E-07  3296   0.617E-03
  22 F= -.57502282E+02 E0= -.57502282E+02  d E =-.407005E-03
       N       E                     dE             d eps       ncg     rms          rms(c)
DAV:   1    -0.532950604619E+02    0.52802E-03   -0.50804E-02  6888   0.865E-01    0.177E-01
DAV:   2    -0.532948141105E+02    0.24635E-03   -0.24315E-03  8864   0.372E-01    0.825E-02
DAV:   3    -0.532947062663E+02    0.10784E-03   -0.21564E-04  8328   0.818E-02    0.509E-02
DAV:   4    -0.532946633177E+02    0.42949E-04   -0.71914E-05  8440   0.454E-02    0.191E-02
DAV:   5    -0.532946604553E+02    0.28624E-05   -0.20478E-05  7576   0.232E-02    0.110E-02
DAV:   6    -0.532946607733E+02   -0.31798E-06   -0.22130E-06  4656   0.914E-03
  23 F= -.57502407E+02 E0= -.57502407E+02  d E =-.125130E-03
       N       E                     dE             d eps       ncg     rms          rms(c)
DAV:   1    -0.532944921894E+02    0.16827E-03   -0.15050E-03  7040   0.148E-01    0.304E-02
DAV:   2    -0.532944844041E+02    0.77853E-05   -0.68772E-05  8904   0.602E-02    0.139E-02
DAV:   3    -0.532944814362E+02    0.29679E-05   -0.58965E-06  7000   0.136E-02    0.877E-03
DAV:   4    -0.532944804701E+02    0.96613E-06   -0.18023E-06  4440   0.811E-03
  24 F= -.57502408E+02 E0= -.57502408E+02  d E =-.126127E-03
       N       E                     dE             d eps       ncg     rms          rms(c)
DAV:   1    -0.532980657595E+02   -0.35843E-02   -0.49946E-02  8832   0.122E+00    0.216E-01
DAV:   2    -0.532977231925E+02    0.34257E-03   -0.24689E-03  8752   0.490E-01    0.655E-02
DAV:   3    -0.532976616057E+02    0.61587E-04   -0.18838E-04  8848   0.987E-02    0.467E-02
DAV:   4    -0.532976403985E+02    0.21207E-04   -0.28071E-05  9248   0.380E-02    0.220E-02
DAV:   5    -0.532976327257E+02    0.76728E-05   -0.63590E-06  7472   0.218E-02    0.673E-03
DAV:   6    -0.532976310992E+02    0.16265E-05   -0.21817E-06  4560   0.119E-02    0.356E-03
DAV:   7    -0.532976307646E+02    0.33462E-06   -0.89872E-07  3648   0.706E-03
  25 F= -.57502438E+02 E0= -.57502437E+02  d E =-.292110E-04
