WP2-P03-beta110-screening-t01-17.45A-500
   1.0000000000000000     
    12.1484331332749314    0.0000000000000000    0.0000000000000000
     0.0000000000000000    6.7173854405116975    0.0000000000000000
     0.0000000000000000    0.0000000000000000   37.4522793737876611
   S    In   Zn   S    In   Zn   S    In   Zn   S    In   Zn   S    In   Zn
     8     4     2     8     4     2     8     4     2     8     4     2     8     4     2
Direct
     0.1565723467283744    0.4794513988148045    0.2538609449401622
     0.1129307209147141    0.9960091080664805    0.3105774428430239
     0.3814974344676035    0.6477272721668426    0.3233590686780132
     0.4016349204915731    0.0485263545446224    0.2372201313510086
     0.6043795317408038    0.5036058390901319    0.2639831516992189
     0.6138530304937263    0.0032393284169137    0.3205039251319085
     0.8647853290331229    0.3438763622544282    0.3202714476130197
     0.8585342490301052    0.8593747931426321    0.2638841781907652
     0.1754994462262957    0.6403984391633656    0.3111606410476602
     0.2428611258676432    0.1670610443032611    0.2679457774894718
     0.5390302990493747    0.3520665516940281    0.3208861025391830
     0.5000054488889466    0.8131996782336166    0.2752044168599597
     0.7958991624377580    0.5725913662379619    0.2826331768662785
     0.8324036291327772    0.0025754722953592    0.3173943747332990
     0.0945500603479395    0.4908040094453551    0.3668932033411492
     0.0938157406392613    0.9943846370165440    0.4205085322661158
     0.3813979690187971    0.6691488941429855    0.4235881728043779
     0.3847947218707416    0.1732737994911517    0.3679024523634190
     0.6200580605565796    0.5183239097408813    0.3744057666166568
     0.6132234450733919    0.0095013234392416    0.4230389584082125
     0.8727677246680876    0.3393564899978446    0.4239809879224651
     0.8737490335053870    0.8455163481492968    0.3707261092576478
     0.1789870652279961    0.6562695248680299    0.4198521380406465
     0.1814636871041417    0.1528779758008413    0.3674564008115802
     0.5048388157801829    0.3382400344577486    0.4225336666894303
     0.5035516238499992    0.8429413243373104    0.3727211346875720
     0.8312864223577509    0.5105513118320469    0.3730714034760129
     0.8224926000764803    0.0087114819066305    0.4221966710379437
     0.0934046932562547    0.4963344711641182    0.4734721440810455
     0.0934047354084630    0.9963345345535456    0.5265277269029202
     0.3823198078291714    0.6690935426257654    0.5261976405784240
     0.3823197460442863    0.1690935756235261    0.4738023300546373
     0.6130744138396172    0.5065711586031703    0.4738909452951836
     0.6130744801137514    0.0065711632712444    0.5261090049963194
     0.8682165244824791    0.3407356380697669    0.5262524446926257
     0.8682166674086094    0.8407353719529767    0.4737473033238919
     0.1797863296541575    0.6593723198475020    0.5264350423461018
     0.1797862562651673    0.1593722615593670    0.4735647954227336
     0.5097380336171028    0.3397928158088165    0.5252848656367382
     0.5097378853028537    0.8397927598123462    0.4747151377480655
     0.8215963798569997    0.5084951504415040    0.4748811712378950
     0.8215966805853699    0.0084950475466165    0.5251184625716203
     0.0938157700326975    0.4943848379622239    0.5794913134719036
     0.0945500717187727    0.9908041492198907    0.6331066797748560
     0.3847947231017440    0.6732736118064280    0.6320975213329104
     0.3813980370124161    0.1691487486208114    0.5764117782636665
     0.6132235573573769    0.5095011856236937    0.5769610448269256
     0.6200581672740373    0.0183236227095627    0.6255943011624694
     0.8737487999475712    0.3455171102980405    0.6292739806532281
     0.8727671924179677    0.8393572897899089    0.5760189653707105
     0.1814637078149341    0.6528780580980605    0.6325434745623569
     0.1789871231696364    0.1562697155226252    0.5801477435713862
     0.5035517325006752    0.3429411098059914    0.6272788599003968
     0.5048390988410599    0.8382400608090321    0.5774663274539612
     0.8224930874879480    0.5087115704849592    0.5778031762874749
     0.8312869632211318    0.0105515845572379    0.6269287803080118
     0.1129305442639797    0.4960090635266028    0.6894223956391629
     0.1565725009656615    0.9794514562082317    0.7461389486210116
     0.4016346638667039    0.5485266172244784    0.7627797723340478
     0.3814975408245441    0.1477272452651309    0.6766409013225172
     0.6138531061375305    0.5032391863899530    0.6794960684153014
     0.6043788972338709    0.0036054443482243    0.7360170710160375
     0.8585336761104183    0.3593753808664427    0.7361162234240959
     0.8647850886369959    0.8438771518049980    0.6797288931919740
     0.2428609760888802    0.6670609839672328    0.7320540333913574
     0.1754995502184094    0.1403985141411514    0.6888392503239150
     0.5000054558515408    0.3131998011198749    0.7247955834643760
     0.5390304138830263    0.8520663947095048    0.6791139823914352
     0.8324040585900545    0.5025754029202891    0.6826059041656339
     0.7958987971865616    0.0725908169769648    0.7173676249980487

  0.00000000E+00  0.00000000E+00  0.00000000E+00
  0.00000000E+00  0.00000000E+00  0.00000000E+00
  0.00000000E+00  0.00000000E+00  0.00000000E+00
  0.00000000E+00  0.00000000E+00  0.00000000E+00
  0.00000000E+00  0.00000000E+00  0.00000000E+00
  0.00000000E+00  0.00000000E+00  0.00000000E+00
  0.00000000E+00  0.00000000E+00  0.00000000E+00
  0.00000000E+00  0.00000000E+00  0.00000000E+00
  0.00000000E+00  0.00000000E+00  0.00000000E+00
  0.00000000E+00  0.00000000E+00  0.00000000E+00
  0.00000000E+00  0.00000000E+00  0.00000000E+00
  0.00000000E+00  0.00000000E+00  0.00000000E+00
  0.00000000E+00  0.00000000E+00  0.00000000E+00
  0.00000000E+00  0.00000000E+00  0.00000000E+00
  0.00000000E+00  0.00000000E+00  0.00000000E+00
  0.00000000E+00  0.00000000E+00  0.00000000E+00
  0.00000000E+00  0.00000000E+00  0.00000000E+00
  0.00000000E+00  0.00000000E+00  0.00000000E+00
  0.00000000E+00  0.00000000E+00  0.00000000E+00
  0.00000000E+00  0.00000000E+00  0.00000000E+00
  0.00000000E+00  0.00000000E+00  0.00000000E+00
  0.00000000E+00  0.00000000E+00  0.00000000E+00
  0.00000000E+00  0.00000000E+00  0.00000000E+00
  0.00000000E+00  0.00000000E+00  0.00000000E+00
  0.00000000E+00  0.00000000E+00  0.00000000E+00
  0.00000000E+00  0.00000000E+00  0.00000000E+00
  0.00000000E+00  0.00000000E+00  0.00000000E+00
  0.00000000E+00  0.00000000E+00  0.00000000E+00
  0.00000000E+00  0.00000000E+00  0.00000000E+00
  0.00000000E+00  0.00000000E+00  0.00000000E+00
  0.00000000E+00  0.00000000E+00  0.00000000E+00
  0.00000000E+00  0.00000000E+00  0.00000000E+00
  0.00000000E+00  0.00000000E+00  0.00000000E+00
  0.00000000E+00  0.00000000E+00  0.00000000E+00
  0.00000000E+00  0.00000000E+00  0.00000000E+00
  0.00000000E+00  0.00000000E+00  0.00000000E+00
  0.00000000E+00  0.00000000E+00  0.00000000E+00
  0.00000000E+00  0.00000000E+00  0.00000000E+00
  0.00000000E+00  0.00000000E+00  0.00000000E+00
  0.00000000E+00  0.00000000E+00  0.00000000E+00
  0.00000000E+00  0.00000000E+00  0.00000000E+00
  0.00000000E+00  0.00000000E+00  0.00000000E+00
  0.00000000E+00  0.00000000E+00  0.00000000E+00
  0.00000000E+00  0.00000000E+00  0.00000000E+00
  0.00000000E+00  0.00000000E+00  0.00000000E+00
  0.00000000E+00  0.00000000E+00  0.00000000E+00
  0.00000000E+00  0.00000000E+00  0.00000000E+00
  0.00000000E+00  0.00000000E+00  0.00000000E+00
  0.00000000E+00  0.00000000E+00  0.00000000E+00
  0.00000000E+00  0.00000000E+00  0.00000000E+00
  0.00000000E+00  0.00000000E+00  0.00000000E+00
  0.00000000E+00  0.00000000E+00  0.00000000E+00
  0.00000000E+00  0.00000000E+00  0.00000000E+00
  0.00000000E+00  0.00000000E+00  0.00000000E+00
  0.00000000E+00  0.00000000E+00  0.00000000E+00
  0.00000000E+00  0.00000000E+00  0.00000000E+00
  0.00000000E+00  0.00000000E+00  0.00000000E+00
  0.00000000E+00  0.00000000E+00  0.00000000E+00
  0.00000000E+00  0.00000000E+00  0.00000000E+00
  0.00000000E+00  0.00000000E+00  0.00000000E+00
  0.00000000E+00  0.00000000E+00  0.00000000E+00
  0.00000000E+00  0.00000000E+00  0.00000000E+00
  0.00000000E+00  0.00000000E+00  0.00000000E+00
  0.00000000E+00  0.00000000E+00  0.00000000E+00
  0.00000000E+00  0.00000000E+00  0.00000000E+00
  0.00000000E+00  0.00000000E+00  0.00000000E+00
  0.00000000E+00  0.00000000E+00  0.00000000E+00
  0.00000000E+00  0.00000000E+00  0.00000000E+00
  0.00000000E+00  0.00000000E+00  0.00000000E+00
  0.00000000E+00  0.00000000E+00  0.00000000E+00
