WP2-P03-beta110-screening-t01-17.45A-500-3x5x1
1.0
  12.1484331332749314    0.0000000000000000    0.0000000000000000
   0.0000000000000000    6.7173854405116975    0.0000000000000000
   0.0000000000000000    0.0000000000000000   37.4522793737876611
S In Zn S In Zn S In Zn S In Zn S In Zn
8 4 2 8 4 2 8 4 2 8 4 2 8 4 2
direct
   0.0967864816910206    0.4999999999981545    0.2670064472811001 S
   0.0967864816910206    0.9999999999944635    0.3187827925023323 S
   0.3879948153093127    0.6666666719944651    0.3187827909490419 S
   0.3879948153093127    0.1666666719981562    0.2670064457278096 S
   0.6176972615275882    0.4999999999981545    0.2670064472811001 S
   0.6176972615275882    0.9999999999944635    0.3187827925023323 S
   0.8721834490904072    0.3333333279944618    0.3187827909490418 S
   0.8721834490904072    0.8333333279981529    0.2670064457278096 S
   0.1862445625742800    0.6666666719944651    0.3187827909490419 In
   0.1862445625742800    0.1666666719981562    0.2670064457278096 In
   0.5135399017785941    0.3333333279944618    0.3187827909490418 In
   0.5135399017785941    0.8333333279981529    0.2670064457278096 In
   0.8265534860287983    0.4999999999981545    0.2670064472811001 Zn
   0.8265534860287983    0.9999999999944635    0.3187827925023323 Zn
   0.0967864816910206    0.4999999999907724    0.3705591377235646 S
   0.0967864816910206    0.9999999999870814    0.4223354829447968 S
   0.3879948153093127    0.6666666719870832    0.4223354813915064 S
   0.3879948153093127    0.1666666719907742    0.3705591361702741 S
   0.6176972615275882    0.4999999999907724    0.3705591377235646 S
   0.6176972615275882    0.9999999999870814    0.4223354829447968 S
   0.8721834490904072    0.3333333279870799    0.4223354813915064 S
   0.8721834490904072    0.8333333279907709    0.3705591361702741 S
   0.1862445625742800    0.6666666719870832    0.4223354813915064 In
   0.1862445625742800    0.1666666719907742    0.3705591361702741 In
   0.5135399017785941    0.3333333279870799    0.4223354813915064 In
   0.5135399017785941    0.8333333279907709    0.3705591361702741 In
   0.8265534860287983    0.4999999999907724    0.3705591377235646 Zn
   0.8265534860287983    0.9999999999870814    0.4223354829447968 Zn
   0.0967864816910206    0.4999999999833904    0.4741118281660291 S
   0.0967864816910206    0.9999999999796995    0.5258881733872612 S
   0.3879948153093127    0.6666666719797010    0.5258881718339709 S
   0.3879948153093127    0.1666666719833920    0.4741118266127386 S
   0.6176972615275882    0.4999999999833904    0.4741118281660291 S
   0.6176972615275882    0.9999999999796995    0.5258881733872612 S
   0.8721834490904072    0.3333333279796977    0.5258881718339709 S
   0.8721834490904072    0.8333333279833887    0.4741118266127386 S
   0.1862445625742800    0.6666666719797010    0.5258881718339709 In
   0.1862445625742800    0.1666666719833920    0.4741118266127386 In
   0.5135399017785941    0.3333333279796977    0.5258881718339709 In
   0.5135399017785941    0.8333333279833887    0.4741118266127386 In
   0.8265534860287983    0.4999999999833904    0.4741118281660291 Zn
   0.8265534860287983    0.9999999999796995    0.5258881733872612 Zn
   0.0967864816910206    0.4999999999760085    0.5776645186084934 S
   0.0967864816910206    0.9999999999723175    0.6294408638297257 S
   0.3879948153093127    0.6666666719723191    0.6294408622764354 S
   0.3879948153093127    0.1666666719760101    0.5776645170552031 S
   0.6176972615275882    0.4999999999760085    0.5776645186084934 S
   0.6176972615275882    0.9999999999723175    0.6294408638297257 S
   0.8721834490904072    0.3333333279723158    0.6294408622764354 S
   0.8721834490904072    0.8333333279760067    0.5776645170552029 S
   0.1862445625742800    0.6666666719723191    0.6294408622764354 In
   0.1862445625742800    0.1666666719760101    0.5776645170552031 In
   0.5135399017785941    0.3333333279723158    0.6294408622764354 In
   0.5135399017785941    0.8333333279760067    0.5776645170552029 In
   0.8265534860287983    0.4999999999760085    0.5776645186084934 Zn
   0.8265534860287983    0.9999999999723175    0.6294408638297257 Zn
   0.0967864816910206    0.4999999999686266    0.6812172090509581 S
   0.0967864816910206    0.9999999999649354    0.7329935542721903 S
   0.3879948153093127    0.6666666719649367    0.7329935527188998 S
   0.3879948153093127    0.1666666719686281    0.6812172074976676 S
   0.6176972615275882    0.4999999999686266    0.6812172090509581 S
   0.6176972615275882    0.9999999999649354    0.7329935542721903 S
   0.8721834490904072    0.3333333279649336    0.7329935527188998 S
   0.8721834490904072    0.8333333279686248    0.6812172074976676 S
   0.1862445625742800    0.6666666719649367    0.7329935527188998 In
   0.1862445625742800    0.1666666719686281    0.6812172074976676 In
   0.5135399017785941    0.3333333279649336    0.7329935527188998 In
   0.5135399017785941    0.8333333279686248    0.6812172074976676 In
   0.8265534860287983    0.4999999999686266    0.6812172090509581 Zn
   0.8265534860287983    0.9999999999649354    0.7329935542721903 Zn
