 running    8 mpi-ranks, on    1 nodes
 distrk:  each k-point on    8 cores,    1 groups
 distr:  one band on    4 cores,    2 groups
 vasp.6.6.1 17Jul2026 (build Sep  7 2026 10:40:42) complex                       
 POSCAR found type information on POSCAR S InZnS InZnS InZnS InZnS InZn
 POSCAR found : 15 types and      70 ions
 scaLAPACK will be used
 -----------------------------------------------------------------------------
|                                                                             |
|               ----> ADVICE to this user running VASP <----                  |
|                                                                             |
|     You have a (more or less) 'large supercell' and for larger cells it     |
|     might be more efficient to use real-space projection operators.         |
|     Therefore, try LREAL= Auto in the INCAR file.                           |
|     Mind: For very accurate calculation, you might also keep the            |
|     reciprocal projection scheme (i.e. LREAL=.FALSE.).                      |
|                                                                             |
 -----------------------------------------------------------------------------

 LDA part: xc-table for (Slater+PW92), standard interpolation
 POSCAR, INCAR and KPOINTS ok, starting setup
 FFT: planning ... GRIDC
 FFT: planning ... GRID_SOFT
 FFT: planning ... GRID
 WAVECAR not read
 entering main loop
       N       E                     dE             d eps       ncg     rms          rms(c)
DAV:   1     0.602867221919E+04    0.60287E+04   -0.25598E+05  6056   0.154E+03
DAV:   2     0.807420065847E+03   -0.52213E+04   -0.50114E+04  6568   0.393E+02
DAV:   3    -0.186435607358E+03   -0.99386E+03   -0.97670E+03  6984   0.201E+02
DAV:   4    -0.278341327561E+03   -0.91906E+02   -0.91077E+02  7488   0.577E+01
DAV:   5    -0.281940843064E+03   -0.35995E+01   -0.35932E+01  7888   0.125E+01    0.447E+01
DAV:   6    -0.262553216762E+03    0.19388E+02   -0.31389E+01  9168   0.437E+01    0.308E+01
DAV:   7    -0.263641235855E+03   -0.10880E+01   -0.48538E+01  8480   0.161E+01    0.890E+00
DAV:   8    -0.262483241484E+03    0.11580E+01   -0.86098E+00  8016   0.103E+01    0.672E+00
DAV:   9    -0.262497005306E+03   -0.13764E-01   -0.14976E+00  7728   0.310E+00    0.402E+00
DAV:  10    -0.262484880140E+03    0.12125E-01   -0.22096E-01  7984   0.243E+00    0.275E+00
DAV:  11    -0.262480538351E+03    0.43418E-02   -0.69369E-02  9096   0.168E+00    0.133E+00
DAV:  12    -0.262481677815E+03   -0.11395E-02   -0.33078E-02  7152   0.439E-01    0.726E-01
DAV:  13    -0.262482433322E+03   -0.75551E-03   -0.93139E-03  8944   0.341E-01    0.625E-01
DAV:  14    -0.262482682162E+03   -0.24884E-03   -0.33958E-03  7880   0.324E-01    0.239E-01
DAV:  15    -0.262482717186E+03   -0.35024E-04   -0.14236E-03  8064   0.135E-01    0.150E-01
DAV:  16    -0.262482784126E+03   -0.66940E-04   -0.31823E-04  6640   0.480E-02    0.144E-01
DAV:  17    -0.262483031825E+03   -0.24770E-03   -0.82716E-05  7144   0.666E-02    0.820E-02
DAV:  18    -0.262483435042E+03   -0.40322E-03   -0.13165E-04  6792   0.546E-02    0.760E-02
DAV:  19    -0.262483641825E+03   -0.20678E-03   -0.53937E-05  7744   0.216E-02    0.748E-02
DAV:  20    -0.262483848677E+03   -0.20685E-03   -0.47712E-05  7544   0.237E-02    0.472E-02
DAV:  21    -0.262484036441E+03   -0.18776E-03   -0.48569E-05  6960   0.322E-02    0.275E-02
DAV:  22    -0.262484163385E+03   -0.12694E-03   -0.62585E-05  7432   0.413E-02    0.436E-02
DAV:  23    -0.262483920001E+03    0.24338E-03   -0.23613E-04  6512   0.669E-02    0.101E-01
DAV:  24    -0.262483672796E+03    0.24720E-03   -0.13234E-04  8152   0.321E-02    0.108E-01
DAV:  25    -0.262483691790E+03   -0.18994E-04   -0.21928E-05  8928   0.164E-02    0.101E-01
DAV:  26    -0.262483723236E+03   -0.31446E-04   -0.55466E-06  6152   0.832E-03    0.955E-02
DAV:  27    -0.262483793844E+03   -0.70608E-04   -0.16365E-05  7192   0.295E-02    0.657E-02
DAV:  28    -0.262483925581E+03   -0.13174E-03   -0.56071E-05  7808   0.457E-02    0.236E-02
DAV:  29    -0.262484061711E+03   -0.13613E-03   -0.26458E-05  7752   0.187E-02    0.234E-02
DAV:  30    -0.262484255572E+03   -0.19386E-03   -0.94426E-06  6864   0.157E-02    0.162E-02
DAV:  31    -0.262484831638E+03   -0.57607E-03   -0.71401E-05  6632   0.394E-02    0.480E-02
DAV:  32    -0.262484941507E+03   -0.10987E-03   -0.15203E-05  6792   0.117E-02    0.479E-02
DAV:  33    -0.262485035609E+03   -0.94102E-04   -0.30157E-06  5328   0.969E-03    0.492E-02
DAV:  34    -0.262485270578E+03   -0.23497E-03   -0.18635E-05  5664   0.124E-02    0.431E-02
DAV:  35    -0.262485300734E+03   -0.30156E-04   -0.28237E-06  5312   0.649E-03    0.338E-02
DAV:  36    -0.262485316816E+03   -0.16082E-04   -0.95620E-07  3824   0.344E-03    0.282E-02
DAV:  37    -0.262485360963E+03   -0.44147E-04   -0.35567E-06  5280   0.992E-03    0.145E-02
DAV:  38    -0.262485448895E+03   -0.87932E-04   -0.61270E-06  5952   0.112E-02    0.885E-03
DAV:  39    -0.262485468641E+03   -0.19746E-04   -0.26343E-06  5144   0.375E-03    0.112E-02
DAV:  40    -0.262485474346E+03   -0.57053E-05   -0.28156E-07  4008   0.240E-03    0.108E-02
DAV:  41    -0.262485478843E+03   -0.44972E-05   -0.97383E-08  3736   0.161E-03    0.981E-03
DAV:  42    -0.262485493099E+03   -0.14256E-04   -0.28578E-07  4160   0.181E-03    0.906E-03
DAV:  43    -0.262485498837E+03   -0.57380E-05   -0.21355E-07  4152   0.150E-03    0.738E-03
DAV:  44    -0.262485500499E+03   -0.16619E-05   -0.12433E-07  3832   0.117E-03    0.540E-03
DAV:  45    -0.262485501326E+03   -0.82632E-06   -0.60095E-08  3488   0.837E-04
   1 F= -.28091882E+03 E0= -.28091881E+03  d E =-.280919E+03
 curvature:   0.00 expect dE= 0.000E+00 dE for cont linesearch  0.000E+00
 trial: gam= 0.00000 g(F)=  0.392E-02 g(S)=  0.000E+00 ort = 0.000E+00 (trialstep = 0.100E+01)
 search vector abs. value=  0.392E-02
 bond charge predicted
       N       E                     dE             d eps       ncg     rms          rms(c)
DAV:   1    -0.262487399934E+03   -0.18994E-02   -0.42774E-01  6020   0.102E+00    0.379E-01
DAV:   2    -0.262489294884E+03   -0.18949E-02   -0.20835E-02  8784   0.290E-01    0.119E-01
DAV:   3    -0.262489228799E+03    0.66084E-04   -0.42182E-04  8244   0.493E-02    0.101E-01
DAV:   4    -0.262489210048E+03    0.18752E-04   -0.89872E-05  8480   0.279E-02    0.576E-02
DAV:   5    -0.262489204655E+03    0.53930E-05   -0.21410E-05  6864   0.160E-02    0.232E-02
DAV:   6    -0.262489205038E+03   -0.38371E-06   -0.15055E-05  7880   0.129E-02    0.113E-02
DAV:   7    -0.262489205540E+03   -0.50192E-06   -0.37131E-06  4696   0.641E-03
   2 F= -.28092200E+03 E0= -.28092200E+03  d E =-.318796E-02
 trial-energy change:   -0.003188  1 .order   -0.003183   -0.003920   -0.002446
 step:   2.6595(harm=  2.6595)  dis= 0.00796  next Energy=  -280.924030 (dE=-0.521E-02)
 bond charge predicted
       N       E                     dE             d eps       ncg     rms          rms(c)
DAV:   1    -0.262487145802E+03    0.20592E-02   -0.11786E+00  5996   0.169E+00    0.637E-01
DAV:   2    -0.262492372393E+03   -0.52266E-02   -0.57604E-02  8784   0.483E-01    0.195E-01
DAV:   3    -0.262492189947E+03    0.18245E-03   -0.11705E-03  8312   0.859E-02    0.166E-01
DAV:   4    -0.262492138096E+03    0.51851E-04   -0.24974E-04  8488   0.445E-02    0.942E-02
DAV:   5    -0.262492122671E+03    0.15425E-04   -0.58971E-05  7584   0.261E-02    0.380E-02
DAV:   6    -0.262492122738E+03   -0.66131E-07   -0.39179E-05  8112   0.209E-02    0.184E-02
DAV:   7    -0.262492124040E+03   -0.13021E-05   -0.11207E-05  6304   0.124E-02    0.161E-02
DAV:   8    -0.262492124811E+03   -0.77175E-06   -0.17372E-06  4328   0.777E-03
   3 F= -.28092407E+03 E0= -.28092406E+03  d E =-.524941E-02
 curvature:  -1.33 expect dE=-0.428E-02 dE for cont linesearch -0.250E-08
 trial: gam= 0.82209 g(F)=  0.322E-02 g(S)=  0.000E+00 ort =-0.272E-05 (trialstep = 0.890E+00)
 search vector abs. value=  0.587E-02
 bond charge predicted
       N       E                     dE             d eps       ncg     rms          rms(c)
DAV:   1    -0.262493381022E+03   -0.12570E-02   -0.59522E-01  6388   0.119E+00    0.321E-01
DAV:   2    -0.262495448718E+03   -0.20677E-02   -0.22897E-02  8816   0.304E-01    0.121E-01
DAV:   3    -0.262495402615E+03    0.46103E-04   -0.41660E-04  8076   0.496E-02    0.105E-01
DAV:   4    -0.262495386897E+03    0.15718E-04   -0.73994E-05  8584   0.268E-02    0.635E-02
DAV:   5    -0.262495382275E+03    0.46225E-05   -0.23671E-05  6904   0.190E-02    0.260E-02
DAV:   6    -0.262495383967E+03   -0.16922E-05   -0.19561E-05  7400   0.143E-02    0.908E-03
DAV:   7    -0.262495384700E+03   -0.73281E-06   -0.61462E-06  6152   0.767E-03
   4 F= -.28092663E+03 E0= -.28092662E+03  d E =-.256542E-02
 trial-energy change:   -0.002565  1 .order   -0.002552   -0.002865   -0.002240
 step:   3.1130(harm=  4.0830)  dis= 0.00822  next Energy=  -280.929630 (dE=-0.556E-02)
 bond charge predicted
       N       E                     dE             d eps       ncg     rms          rms(c)
DAV:   1    -0.262488148046E+03    0.72359E-02   -0.37080E+00  6360   0.298E+00    0.813E-01
DAV:   2    -0.262501139647E+03   -0.12992E-01   -0.14459E-01  8832   0.784E-01    0.308E-01
DAV:   3    -0.262500846275E+03    0.29337E-03   -0.27590E-03  8568   0.152E-01    0.264E-01
DAV:   4    -0.262500752043E+03    0.94232E-04   -0.41845E-04  8384   0.627E-02    0.166E-01
DAV:   5    -0.262500699958E+03    0.52084E-04   -0.13752E-04  7920   0.462E-02    0.812E-02
DAV:   6    -0.262500695849E+03    0.41096E-05   -0.13907E-04  7488   0.360E-02    0.238E-02
DAV:   7    -0.262500699503E+03   -0.36545E-05   -0.53660E-05  7136   0.241E-02    0.228E-02
DAV:   8    -0.262500697093E+03    0.24104E-05   -0.50745E-06  5224   0.140E-02    0.143E-02
DAV:   9    -0.262500694743E+03    0.23497E-05   -0.45226E-06  5848   0.982E-03    0.536E-03
DAV:  10    -0.262500693845E+03    0.89846E-06   -0.15300E-06  3856   0.489E-03
   5 F= -.28093021E+03 E0= -.28093020E+03  d E =-.614301E-02
 curvature:  -3.38 expect dE=-0.105E-01 dE for cont linesearch -0.281E-03
 ZBRENT: extrapolating
 opt :   3.9670  next Energy=  -280.930508 (dE=-0.644E-02)
 bond charge predicted
       N       E                     dE             d eps       ncg     rms          rms(c)
DAV:   1    -0.262499838033E+03    0.85671E-03   -0.54755E-01  6380   0.114E+00    0.307E-01
DAV:   2    -0.262501735605E+03   -0.18976E-02   -0.21056E-02  8808   0.293E-01    0.116E-01
DAV:   3    -0.262501691659E+03    0.43946E-04   -0.38698E-04  8140   0.506E-02    0.101E-01
DAV:   4    -0.262501675561E+03    0.16098E-04   -0.68188E-05  8448   0.266E-02    0.614E-02
DAV:   5    -0.262501667418E+03    0.81434E-05   -0.21486E-05  6664   0.197E-02    0.254E-02
DAV:   6    -0.262501665918E+03    0.15002E-05   -0.19497E-05  7416   0.140E-02    0.882E-03
DAV:   7    -0.262501666123E+03   -0.20493E-06   -0.70322E-06  6168   0.763E-03
   6 F= -.28093052E+03 E0= -.28093051E+03  d E =-.645081E-02
 curvature:  -3.59 expect dE=-0.174E-01 dE for cont linesearch -0.271E-06
 trial: gam= 1.51589 g(F)=  0.485E-02 g(S)=  0.000E+00 ort = 0.211E-04 (trialstep = 0.480E+00)
 search vector abs. value=  0.184E-01
 bond charge predicted
       N       E                     dE             d eps       ncg     rms          rms(c)
DAV:   1    -0.262502967632E+03   -0.13017E-02   -0.43586E-01  6076   0.102E+00    0.316E-01
DAV:   2    -0.262504714818E+03   -0.17472E-02   -0.19549E-02  8776   0.277E-01    0.117E-01
DAV:   3    -0.262504666011E+03    0.48807E-04   -0.33960E-04  7920   0.449E-02    0.993E-02
DAV:   4    -0.262504649886E+03    0.16124E-04   -0.73850E-05  8128   0.274E-02    0.605E-02
DAV:   5    -0.262504646508E+03    0.33789E-05   -0.23544E-05  6944   0.205E-02    0.254E-02
DAV:   6    -0.262504648403E+03   -0.18959E-05   -0.15291E-05  6848   0.123E-02    0.777E-03
DAV:   7    -0.262504649250E+03   -0.84697E-06   -0.40998E-06  4968   0.794E-03
   7 F= -.28093263E+03 E0= -.28093262E+03  d E =-.211033E-02
 ZBRENT: can't locate minimum, use default step
 trial-energy change:   -0.002110  1 .order   -0.002104   -0.002343   -0.001866
 step:   1.9210(harm=  2.3631)  dis= 0.01436  next Energy=  -280.935612 (dE=-0.509E-02)
 bond charge predicted
       N       E                     dE             d eps       ncg     rms          rms(c)
DAV:   1    -0.262495624600E+03    0.90238E-02   -0.39219E+00  6048   0.306E+00    0.944E-01
DAV:   2    -0.262511415099E+03   -0.15790E-01   -0.17655E-01  8768   0.846E-01    0.361E-01
DAV:   3    -0.262510962685E+03    0.45241E-03   -0.32222E-03  8104   0.149E-01    0.303E-01
DAV:   4    -0.262510806533E+03    0.15615E-03   -0.59514E-04  8088   0.783E-02    0.190E-01
DAV:   5    -0.262510743804E+03    0.62730E-04   -0.22501E-04  8064   0.542E-02    0.881E-02
DAV:   6    -0.262510743522E+03    0.28119E-06   -0.16105E-04  7800   0.401E-02    0.242E-02
DAV:   7    -0.262510747546E+03   -0.40236E-05   -0.42703E-05  7344   0.257E-02    0.250E-02
DAV:   8    -0.262510748914E+03   -0.13682E-05   -0.67995E-06  5880   0.134E-02    0.143E-02
DAV:   9    -0.262510752287E+03   -0.33728E-05   -0.28625E-06  5176   0.928E-03    0.549E-03
DAV:  10    -0.262510754320E+03   -0.20329E-05   -0.12441E-06  3904   0.439E-03    0.360E-03
DAV:  11    -0.262510756684E+03   -0.23637E-05   -0.42884E-07  4080   0.324E-03    0.205E-03
DAV:  12    -0.262510758817E+03   -0.21331E-05   -0.31825E-07  3936   0.247E-03    0.114E-03
DAV:  13    -0.262510761103E+03   -0.22860E-05   -0.20564E-07  4088   0.225E-03    0.872E-04
DAV:  14    -0.262510763270E+03   -0.21670E-05   -0.24596E-07  4168   0.153E-03    0.123E-03
DAV:  15    -0.262510765128E+03   -0.18585E-05   -0.18291E-07  4064   0.163E-03    0.102E-03
DAV:  16    -0.262510767242E+03   -0.21138E-05   -0.33055E-07  4280   0.150E-03    0.476E-04
DAV:  17    -0.262510768208E+03   -0.96585E-06   -0.17454E-07  3968   0.119E-03
   8 F= -.28093613E+03 E0= -.28093612E+03  d E =-.561389E-02
 curvature:  -4.21 expect dE=-0.883E-02 dE for cont linesearch -0.209E-03
 ZBRENT: extrapolating
 opt :   2.3905  next Energy=  -280.936355 (dE=-0.584E-02)
 bond charge predicted
       N       E                     dE             d eps       ncg     rms          rms(c)
DAV:   1    -0.262510247585E+03    0.51966E-03   -0.41646E-01  6072   0.995E-01    0.306E-01
DAV:   2    -0.262511914560E+03   -0.16670E-02   -0.18592E-02  8816   0.271E-01    0.117E-01
DAV:   3    -0.262511864983E+03    0.49576E-04   -0.31603E-04  7920   0.438E-02    0.980E-02
DAV:   4    -0.262511846712E+03    0.18271E-04   -0.70978E-05  8144   0.273E-02    0.598E-02
DAV:   5    -0.262511840677E+03    0.60356E-05   -0.23907E-05  6952   0.201E-02    0.244E-02
DAV:   6    -0.262511840238E+03    0.43916E-06   -0.14870E-05  7072   0.121E-02    0.765E-03
DAV:   7    -0.262511840416E+03   -0.17865E-06   -0.38562E-06  4840   0.769E-03
   9 F= -.28093635E+03 E0= -.28093634E+03  d E =-.583482E-02
 curvature:  -4.52 expect dE=-0.135E-01 dE for cont linesearch -0.303E-07
 trial: gam= 0.62533 g(F)=  0.298E-02 g(S)=  0.000E+00 ort =-0.111E-04 (trialstep = 0.862E+00)
 search vector abs. value=  0.102E-01
 bond charge predicted
       N       E                     dE             d eps       ncg     rms          rms(c)
DAV:   1    -0.262512440683E+03   -0.60045E-03   -0.79267E-01  6076   0.137E+00    0.407E-01
DAV:   2    -0.262515619787E+03   -0.31791E-02   -0.35578E-02  8808   0.368E-01    0.158E-01
DAV:   3    -0.262515534618E+03    0.85169E-04   -0.59727E-04  7840   0.595E-02    0.133E-01
DAV:   4    -0.262515501685E+03    0.32933E-04   -0.13535E-04  8336   0.359E-02    0.815E-02
DAV:   5    -0.262515490737E+03    0.10948E-04   -0.41263E-05  7000   0.240E-02    0.341E-02
DAV:   6    -0.262515489973E+03    0.76357E-06   -0.28432E-05  7624   0.181E-02    0.954E-03
DAV:   7    -0.262515490162E+03   -0.18842E-06   -0.76229E-06  6040   0.110E-02
  10 F= -.28093855E+03 E0= -.28093854E+03  d E =-.220099E-02
 ZBRENT: can't locate minimum, use default step
 trial-energy change:   -0.002201  1 .order   -0.002209   -0.002564   -0.001855
 step:   3.4492(harm=  3.1189)  dis= 0.01967  next Energy=  -280.941799 (dE=-0.545E-02)
 bond charge predicted
       N       E                     dE             d eps       ncg     rms          rms(c)
DAV:   1    -0.262494294833E+03    0.21195E-01   -0.71291E+00  6076   0.412E+00    0.124E+00
DAV:   2    -0.262523314842E+03   -0.29020E-01   -0.32547E-01  8808   0.116E+00    0.490E-01
DAV:   3    -0.262522550181E+03    0.76466E-03   -0.58417E-03  8368   0.221E-01    0.406E-01
DAV:   4    -0.262522274451E+03    0.27573E-03   -0.10543E-03  8224   0.103E-01    0.259E-01
DAV:   5    -0.262522152357E+03    0.12209E-03   -0.39526E-04  7656   0.703E-02    0.124E-01
DAV:   6    -0.262522143894E+03    0.84637E-05   -0.29414E-04  8192   0.594E-02    0.308E-02
DAV:   7    -0.262522148377E+03   -0.44836E-05   -0.82462E-05  7288   0.353E-02    0.328E-02
DAV:   8    -0.262522145544E+03    0.28337E-05   -0.14395E-05  6512   0.160E-02    0.201E-02
DAV:   9    -0.262522144923E+03    0.62076E-06   -0.57190E-06  6112   0.159E-02
  11 F= -.28094087E+03 E0= -.28094086E+03  d E =-.451322E-02
 curvature:  -5.21 expect dE=-0.135E-01 dE for cont linesearch -0.645E-04
 trial: gam= 0.96968 g(F)=  0.259E-02 g(S)=  0.000E+00 ort =-0.354E-03 (trialstep = 0.122E+01)
 search vector abs. value=  0.115E-01
 bond charge predicted
       N       E                     dE             d eps       ncg     rms          rms(c)
DAV:   1    -0.262520310468E+03    0.18351E-02   -0.17861E+00  6040   0.205E+00    0.574E-01
DAV:   2    -0.262527296499E+03   -0.69860E-02   -0.78141E-02  8776   0.537E-01    0.226E-01
DAV:   3    -0.262527106847E+03    0.18965E-03   -0.13005E-03  7880   0.851E-02    0.195E-01
DAV:   4    -0.262527040085E+03    0.66762E-04   -0.29355E-04  8248   0.420E-02    0.121E-01
DAV:   5    -0.262527018915E+03    0.21170E-04   -0.87689E-05  7888   0.402E-02    0.485E-02
DAV:   6    -0.262527024124E+03   -0.52086E-05   -0.66867E-05  7632   0.233E-02    0.151E-02
DAV:   7    -0.262527026591E+03   -0.24671E-05   -0.13254E-05  6440   0.131E-02    0.170E-02
DAV:   8    -0.262527027531E+03   -0.94047E-06   -0.22792E-06  4640   0.827E-03
  12 F= -.28094306E+03 E0= -.28094305E+03  d E =-.219708E-02
 trial-energy change:   -0.002197  1 .order   -0.002150   -0.002747   -0.001552
 step:   2.3195(harm=  2.8130)  dis= 0.01753  next Energy=  -280.943791 (dE=-0.293E-02)
 bond charge predicted
       N       E                     dE             d eps       ncg     rms          rms(c)
DAV:   1    -0.262525008529E+03    0.20181E-02   -0.14331E+00  6028   0.184E+00    0.517E-01
DAV:   2    -0.262530608486E+03   -0.56000E-02   -0.62707E-02  8792   0.479E-01    0.202E-01
DAV:   3    -0.262530454236E+03    0.15425E-03   -0.10287E-03  7820   0.759E-02    0.174E-01
DAV:   4    -0.262530399106E+03    0.55130E-04   -0.24294E-04  8144   0.388E-02    0.107E-01
DAV:   5    -0.262530381373E+03    0.17733E-04   -0.70971E-05  7856   0.375E-02    0.420E-02
DAV:   6    -0.262530384207E+03   -0.28343E-05   -0.52025E-05  7616   0.211E-02    0.136E-02
DAV:   7    -0.262530385749E+03   -0.15420E-05   -0.11522E-05  6520   0.122E-02    0.152E-02
DAV:   8    -0.262530386114E+03   -0.36525E-06   -0.18036E-06  4456   0.754E-03
  13 F= -.28094402E+03 E0= -.28094401E+03  d E =-.315204E-02
 curvature:  -6.48 expect dE=-0.999E-02 dE for cont linesearch -0.891E-04
 ZBRENT: extrapolating
 opt :   2.8182  next Energy=  -280.944116 (dE=-0.325E-02)
 bond charge predicted
       N       E                     dE             d eps       ncg     rms          rms(c)
DAV:   1    -0.262530476668E+03   -0.90919E-04   -0.29699E-01  6028   0.838E-01    0.238E-01
DAV:   2    -0.262531637148E+03   -0.11605E-02   -0.12988E-02  8760   0.217E-01    0.912E-02
DAV:   3    -0.262531605085E+03    0.32063E-04   -0.21561E-04  7572   0.342E-02    0.788E-02
DAV:   4    -0.262531593673E+03    0.11412E-04   -0.53366E-05  8136   0.189E-02    0.481E-02
DAV:   5    -0.262531590443E+03    0.32299E-05   -0.13490E-05  6376   0.175E-02    0.188E-02
DAV:   6    -0.262531591163E+03   -0.72049E-06   -0.10917E-05  6544   0.940E-03    0.595E-03
DAV:   7    -0.262531591771E+03   -0.60775E-06   -0.25953E-06  4408   0.605E-03
  14 F= -.28094413E+03 E0= -.28094412E+03  d E =-.326438E-02
 curvature:  -7.20 expect dE=-0.137E-01 dE for cont linesearch -0.198E-06
 trial: gam= 0.49956 g(F)=  0.190E-02 g(S)=  0.000E+00 ort = 0.178E-04 (trialstep = 0.154E+01)
 search vector abs. value=  0.478E-02
 bond charge predicted
       N       E                     dE             d eps       ncg     rms          rms(c)
DAV:   1    -0.262530879911E+03    0.71125E-03   -0.12935E+00  6236   0.171E+00    0.541E-01
DAV:   2    -0.262536191356E+03   -0.53114E-02   -0.59095E-02  8872   0.475E-01    0.193E-01
DAV:   3    -0.262536049989E+03    0.14137E-03   -0.94832E-04  8336   0.886E-02    0.167E-01
DAV:   4    -0.262536011506E+03    0.38483E-04   -0.21426E-04  8128   0.448E-02    0.101E-01
DAV:   5    -0.262535995892E+03    0.15614E-04   -0.57824E-05  7776   0.322E-02    0.474E-02
DAV:   6    -0.262535994111E+03    0.17814E-05   -0.41936E-05  7928   0.230E-02    0.114E-02
DAV:   7    -0.262535995016E+03   -0.90589E-06   -0.13900E-05  6792   0.135E-02    0.131E-02
DAV:   8    -0.262535994495E+03    0.52105E-06   -0.16971E-06  4256   0.758E-03
  15 F= -.28094632E+03 E0= -.28094631E+03  d E =-.218813E-02
 trial-energy change:   -0.002188  1 .order   -0.002173   -0.002945   -0.001401
 step:   2.8066(harm=  2.9431)  dis= 0.01073  next Energy=  -280.946900 (dE=-0.277E-02)
 bond charge predicted
       N       E                     dE             d eps       ncg     rms          rms(c)
DAV:   1    -0.262535032574E+03    0.96244E-03   -0.86900E-01  6240   0.140E+00    0.443E-01
DAV:   2    -0.262538599416E+03   -0.35668E-02   -0.39613E-02  8824   0.389E-01    0.158E-01
DAV:   3    -0.262538502857E+03    0.96558E-04   -0.64938E-04  8208   0.699E-02    0.138E-01
DAV:   4    -0.262538475056E+03    0.27801E-04   -0.14275E-04  8136   0.388E-02    0.843E-02
DAV:   5    -0.262538461907E+03    0.13149E-04   -0.40377E-05  6984   0.270E-02    0.388E-02
DAV:   6    -0.262538459445E+03    0.24624E-05   -0.31240E-05  7784   0.197E-02    0.973E-03
DAV:   7    -0.262538460305E+03   -0.85967E-06   -0.10501E-05  6664   0.107E-02    0.113E-02
DAV:   8    -0.262538460303E+03    0.16444E-08   -0.10936E-06  3920   0.611E-03
  16 F= -.28094697E+03 E0= -.28094696E+03  d E =-.284039E-02
 curvature:  -3.65 expect dE=-0.444E-02 dE for cont linesearch -0.821E-05
 trial: gam= 0.63722 g(F)=  0.122E-02 g(S)=  0.000E+00 ort = 0.104E-03 (trialstep = 0.180E+01)
 search vector abs. value=  0.329E-02
 bond charge predicted
       N       E                     dE             d eps       ncg     rms          rms(c)
DAV:   1    -0.262537680744E+03    0.77956E-03   -0.11308E+00  6020   0.158E+00    0.489E-01
DAV:   2    -0.262542322504E+03   -0.46418E-02   -0.51674E-02  8728   0.439E-01    0.181E-01
DAV:   3    -0.262542194795E+03    0.12771E-03   -0.94177E-04  7928   0.789E-02    0.156E-01
DAV:   4    -0.262542151409E+03    0.43387E-04   -0.19115E-04  8328   0.413E-02    0.943E-02
DAV:   5    -0.262542136284E+03    0.15124E-04   -0.60815E-05  7160   0.323E-02    0.403E-02
DAV:   6    -0.262542137227E+03   -0.94234E-06   -0.42474E-05  7416   0.200E-02    0.140E-02
DAV:   7    -0.262542138614E+03   -0.13871E-05   -0.11058E-05  6544   0.108E-02    0.138E-02
DAV:   8    -0.262542139025E+03   -0.41109E-06   -0.15401E-06  4240   0.784E-03
  17 F= -.28094868E+03 E0= -.28094867E+03  d E =-.170704E-02
 trial-energy change:   -0.001707  1 .order   -0.001675   -0.002304   -0.001047
 step:   2.9886(harm=  3.2895)  dis= 0.01010  next Energy=  -280.949034 (dE=-0.206E-02)
 bond charge predicted
       N       E                     dE             d eps       ncg     rms          rms(c)
DAV:   1    -0.262541927594E+03    0.21102E-03   -0.49986E-01  6008   0.105E+00    0.327E-01
DAV:   2    -0.262543980241E+03   -0.20526E-02   -0.22823E-02  8712   0.290E-01    0.119E-01
DAV:   3    -0.262543923239E+03    0.57003E-04   -0.41335E-04  7688   0.498E-02    0.103E-01
DAV:   4    -0.262543904047E+03    0.19191E-04   -0.87519E-05  8488   0.289E-02    0.625E-02
DAV:   5    -0.262543897923E+03    0.61240E-05   -0.25891E-05  6912   0.216E-02    0.267E-02
DAV:   6    -0.262543898661E+03   -0.73786E-06   -0.18974E-05  7192   0.136E-02    0.914E-03
DAV:   7    -0.262543899517E+03   -0.85546E-06   -0.50569E-06  5248   0.720E-03
  18 F= -.28094913E+03 E0= -.28094912E+03  d E =-.215692E-02
 curvature:  -4.04 expect dE=-0.408E-02 dE for cont linesearch -0.246E-04
 trial: gam= 0.81373 g(F)=  0.101E-02 g(S)=  0.000E+00 ort = 0.141E-03 (trialstep = 0.196E+01)
 search vector abs. value=  0.342E-02
 bond charge predicted
       N       E                     dE             d eps       ncg     rms          rms(c)
DAV:   1    -0.262542149387E+03    0.17493E-02   -0.15696E+00  6244   0.184E+00    0.504E-01
DAV:   2    -0.262547920876E+03   -0.57715E-02   -0.64107E-02  8664   0.496E-01    0.190E-01
DAV:   3    -0.262547805755E+03    0.11512E-03   -0.11964E-03  8208   0.988E-02    0.168E-01
DAV:   4    -0.262547769200E+03    0.36555E-04   -0.17880E-04  8544   0.413E-02    0.110E-01
DAV:   5    -0.262547751027E+03    0.18173E-04   -0.62551E-05  7448   0.306E-02    0.570E-02
DAV:   6    -0.262547751074E+03   -0.47134E-07   -0.59437E-05  7480   0.212E-02    0.131E-02
DAV:   7    -0.262547752827E+03   -0.17529E-05   -0.14290E-05  6528   0.121E-02    0.125E-02
DAV:   8    -0.262547753184E+03   -0.35757E-06   -0.19985E-06  4408   0.806E-03
  19 F= -.28095074E+03 E0= -.28095073E+03  d E =-.161456E-02
 trial-energy change:   -0.001615  1 .order   -0.001602   -0.002202   -0.001002
 step:   3.4315(harm=  3.5935)  dis= 0.01044  next Energy=  -280.951124 (dE=-0.200E-02)
 bond charge predicted
       N       E                     dE             d eps       ncg     rms          rms(c)
DAV:   1    -0.262546718679E+03    0.10341E-02   -0.89096E-01  6244   0.139E+00    0.378E-01
DAV:   2    -0.262549987959E+03   -0.32693E-02   -0.36241E-02  8656   0.372E-01    0.144E-01
DAV:   3    -0.262549921969E+03    0.65990E-04   -0.66674E-04  8128   0.712E-02    0.127E-01
DAV:   4    -0.262549900713E+03    0.21256E-04   -0.10188E-04  8584   0.325E-02    0.833E-02
DAV:   5    -0.262549890152E+03    0.10561E-04   -0.36952E-05  7056   0.238E-02    0.420E-02
DAV:   6    -0.262549890512E+03   -0.35960E-06   -0.35099E-05  7192   0.156E-02    0.972E-03
DAV:   7    -0.262549891474E+03   -0.96206E-06   -0.78474E-06  5776   0.852E-03
  20 F= -.28095119E+03 E0= -.28095118E+03  d E =-.206551E-02
 curvature:  -5.41 expect dE=-0.547E-02 dE for cont linesearch -0.116E-04
 trial: gam= 1.07574 g(F)=  0.101E-02 g(S)=  0.000E+00 ort = 0.855E-04 (trialstep = 0.149E+01)
 search vector abs. value=  0.515E-02
 bond charge predicted
       N       E                     dE             d eps       ncg     rms          rms(c)
DAV:   1    -0.262548523092E+03    0.13674E-02   -0.12231E+00  6072   0.164E+00    0.474E-01
DAV:   2    -0.262553533538E+03   -0.50104E-02   -0.55906E-02  8680   0.460E-01    0.179E-01
DAV:   3    -0.262553418950E+03    0.11459E-03   -0.98969E-04  8048   0.764E-02    0.159E-01
DAV:   4    -0.262553379744E+03    0.39207E-04   -0.16075E-04  8312   0.326E-02    0.102E-01
DAV:   5    -0.262553360058E+03    0.19686E-04   -0.58076E-05  7192   0.292E-02    0.468E-02
DAV:   6    -0.262553358774E+03    0.12836E-05   -0.50808E-05  7968   0.213E-02    0.993E-03
DAV:   7    -0.262553359670E+03   -0.89576E-06   -0.10700E-05  6584   0.108E-02    0.122E-02
DAV:   8    -0.262553359686E+03   -0.16022E-07   -0.13253E-06  4176   0.634E-03
  21 F= -.28095239E+03 E0= -.28095238E+03  d E =-.119429E-02
 trial-energy change:   -0.001194  1 .order   -0.001205   -0.001650   -0.000761
 step:   2.9980(harm=  2.7715)  dis= 0.01370  next Energy=  -280.952758 (dE=-0.157E-02)
 bond charge predicted
       N       E                     dE             d eps       ncg     rms          rms(c)
DAV:   1    -0.262551094557E+03    0.22651E-02   -0.12395E+00  6064   0.165E+00    0.476E-01
DAV:   2    -0.262556177596E+03   -0.50830E-02   -0.56641E-02  8680   0.465E-01    0.182E-01
DAV:   3    -0.262556059025E+03    0.11857E-03   -0.10081E-03  8056   0.796E-02    0.161E-01
DAV:   4    -0.262556018121E+03    0.40904E-04   -0.16392E-04  8352   0.347E-02    0.104E-01
DAV:   5    -0.262555996656E+03    0.21465E-04   -0.61077E-05  7280   0.310E-02    0.483E-02
DAV:   6    -0.262555995136E+03    0.15203E-05   -0.53906E-05  7928   0.216E-02    0.101E-02
DAV:   7    -0.262555996394E+03   -0.12579E-05   -0.11738E-05  6776   0.110E-02    0.125E-02
DAV:   8    -0.262555996714E+03   -0.32006E-06   -0.13562E-06  4200   0.687E-03
  22 F= -.28095274E+03 E0= -.28095273E+03  d E =-.154272E-02
 curvature:  -6.26 expect dE=-0.531E-02 dE for cont linesearch -0.624E-05
 trial: gam= 0.95100 g(F)=  0.848E-03 g(S)=  0.000E+00 ort =-0.716E-04 (trialstep = 0.172E+01)
 search vector abs. value=  0.537E-02
 bond charge predicted
       N       E                     dE             d eps       ncg     rms          rms(c)
DAV:   1    -0.262553144853E+03    0.28515E-02   -0.15944E+00  5972   0.188E+00    0.539E-01
DAV:   2    -0.262559846589E+03   -0.67017E-02   -0.75133E-02  8664   0.526E-01    0.211E-01
DAV:   3    -0.262559680695E+03    0.16589E-03   -0.13320E-03  7936   0.875E-02    0.187E-01
DAV:   4    -0.262559624700E+03    0.55995E-04   -0.22455E-04  8272   0.402E-02    0.121E-01
DAV:   5    -0.262559597193E+03    0.27507E-04   -0.80313E-05  7176   0.338E-02    0.580E-02
DAV:   6    -0.262559595311E+03    0.18814E-05   -0.73044E-05  7792   0.224E-02    0.102E-02
DAV:   7    -0.262559596717E+03   -0.14060E-05   -0.13832E-05  6576   0.115E-02    0.135E-02
DAV:   8    -0.262559596984E+03   -0.26671E-06   -0.16363E-06  4184   0.696E-03
  23 F= -.28095365E+03 E0= -.28095365E+03  d E =-.919420E-03
 trial-energy change:   -0.000919  1 .order   -0.000901   -0.001343   -0.000460
 step:   2.4818(harm=  2.6173)  dis= 0.01127  next Energy=  -280.953758 (dE=-0.102E-02)
 bond charge predicted
       N       E                     dE             d eps       ncg     rms          rms(c)
DAV:   1    -0.262559654222E+03   -0.57505E-04   -0.31126E-01  5972   0.831E-01    0.239E-01
DAV:   2    -0.262560956918E+03   -0.13027E-02   -0.14601E-02  8584   0.229E-01    0.918E-02
DAV:   3    -0.262560924738E+03    0.32181E-04   -0.26533E-04  7760   0.374E-02    0.824E-02
DAV:   4    -0.262560913626E+03    0.11112E-04   -0.45266E-05  8112   0.180E-02    0.528E-02
DAV:   5    -0.262560908194E+03    0.54319E-05   -0.15698E-05  5936   0.152E-02    0.241E-02
DAV:   6    -0.262560908139E+03    0.54766E-07   -0.14743E-05  6808   0.102E-02    0.462E-03
DAV:   7    -0.262560908677E+03   -0.53780E-06   -0.26974E-06  4488   0.506E-03
  24 F= -.28095378E+03 E0= -.28095378E+03  d E =-.104775E-02
 curvature:  -8.80 expect dE=-0.469E-02 dE for cont linesearch -0.383E-05
 trial: gam= 0.36187 g(F)=  0.532E-03 g(S)=  0.000E+00 ort = 0.483E-04 (trialstep = 0.187E+01)
 search vector abs. value=  0.127E-02
 bond charge predicted
       N       E                     dE             d eps       ncg     rms          rms(c)
DAV:   1    -0.262560781746E+03    0.12639E-03   -0.51962E-01  6088   0.108E+00    0.327E-01
DAV:   2    -0.262562866292E+03   -0.20845E-02   -0.23207E-02  8720   0.289E-01    0.112E-01
DAV:   3    -0.262562821599E+03    0.44693E-04   -0.41952E-04  7856   0.448E-02    0.100E-01
DAV:   4    -0.262562809164E+03    0.12435E-04   -0.72518E-05  8216   0.219E-02    0.628E-02
DAV:   5    -0.262562804427E+03    0.47377E-05   -0.18386E-05  6720   0.211E-02    0.291E-02
DAV:   6    -0.262562805582E+03   -0.11555E-05   -0.19487E-05  7008   0.143E-02    0.863E-03
DAV:   7    -0.262562806417E+03   -0.83438E-06   -0.61027E-06  6056   0.761E-03
  25 F= -.28095452E+03 E0= -.28095451E+03  d E =-.738111E-03
 trial-energy change:   -0.000738  1 .order   -0.000724   -0.001030   -0.000418
 step:   2.9306(harm=  3.1542)  dis= 0.00389  next Energy=  -280.954641 (dE=-0.859E-03)
 bond charge predicted
       N       E                     dE             d eps       ncg     rms          rms(c)
DAV:   1    -0.262562949715E+03   -0.14413E-03   -0.16541E-01  6100   0.611E-01    0.187E-01
DAV:   2    -0.262563612226E+03   -0.66251E-03   -0.74149E-03  8688   0.163E-01    0.609E-02
DAV:   3    -0.262563598916E+03    0.13310E-04   -0.13948E-04  7740   0.247E-02    0.551E-02
DAV:   4    -0.262563594952E+03    0.39647E-05   -0.23462E-05  8160   0.122E-02    0.339E-02
DAV:   5    -0.262563593423E+03    0.15281E-05   -0.51563E-06  5728   0.107E-02    0.143E-02
DAV:   6    -0.262563593667E+03   -0.24397E-06   -0.59569E-06  6024   0.828E-03
  26 F= -.28095465E+03 E0= -.28095465E+03  d E =-.871530E-03
 curvature:  -3.53 expect dE=-0.146E-02 dE for cont linesearch -0.166E-05
 trial: gam= 0.79693 g(F)=  0.415E-03 g(S)=  0.000E+00 ort = 0.244E-04 (trialstep = 0.209E+01)
 search vector abs. value=  0.126E-02
 bond charge predicted
       N       E                     dE             d eps       ncg     rms          rms(c)
DAV:   1    -0.262563117097E+03    0.47633E-03   -0.59790E-01  6044   0.114E+00    0.343E-01
DAV:   2    -0.262565625297E+03   -0.25082E-02   -0.28135E-02  8696   0.312E-01    0.125E-01
DAV:   3    -0.262565563908E+03    0.61389E-04   -0.47110E-04  7968   0.530E-02    0.110E-01
DAV:   4    -0.262565544145E+03    0.19763E-04   -0.98167E-05  8272   0.238E-02    0.686E-02
DAV:   5    -0.262565534512E+03    0.96336E-05   -0.19823E-05  6392   0.213E-02    0.324E-02
DAV:   6    -0.262565530323E+03    0.41889E-05   -0.22402E-05  6696   0.188E-02    0.850E-03
DAV:   7    -0.262565531041E+03   -0.71806E-06   -0.12127E-05  7160   0.983E-03    0.108E-02
DAV:   8    -0.262565530636E+03    0.40486E-06   -0.88906E-07  3752   0.452E-03
  27 F= -.28095527E+03 E0= -.28095526E+03  d E =-.614229E-03
 trial-energy change:   -0.000614  1 .order   -0.000611   -0.000905   -0.000317
 step:   3.2115(harm=  3.2115)  dis= 0.00511  next Energy=  -280.955351 (dE=-0.697E-03)
 reached required accuracy - stopping structural energy minimisation
