WP2-P03-beta110-screening-t01-17.45A-500
           1
    12.148433    0.000000    0.000000
     0.000000    6.717385    0.000000
     0.000000    0.000000   37.452279
   S    In   Zn   S    In   Zn   S    In   Zn   S    In   Zn   S    In   Zn
     8     4     2     8     4     2     8     4     2     8     4     2     8     4     2
Direct configuration=           1
   0.15909864  0.48127349  0.25292379
   0.10943412  0.99415280  0.30967600
   0.38148108  0.64737007  0.32310430
   0.41037091  0.07070291  0.24081018
   0.60690825  0.50394280  0.26488395
   0.61490587  0.00235989  0.32213118
   0.86714276  0.34491595  0.32071822
   0.85616787  0.86245294  0.26411412
   0.17543169  0.63979709  0.31047620
   0.24238480  0.16756181  0.26857036
   0.53726977  0.34929666  0.32095684
   0.50403705  0.81480756  0.27602363
   0.79819471  0.57364775  0.28336046
   0.83009519  0.00485388  0.31768965
   0.09385352  0.48992492  0.36619345
   0.09330100  0.99225988  0.42005300
   0.38019527  0.66419322  0.42398896
   0.38288207  0.17054654  0.36756710
   0.61866700  0.51515480  0.37476957
   0.61249337  0.00629963  0.42334239
   0.87306368  0.34251036  0.42416840
   0.87322455  0.84694610  0.37081419
   0.17770249  0.65321830  0.41956721
   0.17936008  0.15024136  0.36666195
   0.50445398  0.33429058  0.42262490
   0.50052375  0.83970642  0.37344855
   0.82967002  0.51264747  0.37336807
   0.82175175  0.01232488  0.42186330
   0.09389245  0.49349871  0.47353085
   0.09389268  0.99349887  0.52646884
   0.38240324  0.66554056  0.52619689
   0.38240323  0.16554069  0.47380282
   0.61350562  0.50334504  0.47377615
   0.61350548  0.00334507  0.52622380
   0.86848747  0.34551737  0.52641478
   0.86848760  0.84551777  0.47358554
   0.17985939  0.65581059  0.52672504
   0.17985939  0.15581064  0.47327459
   0.50985141  0.33574141  0.52502360
   0.50985138  0.83574136  0.47497624
   0.82293386  0.51315096  0.47499713
   0.82293384  0.01315099  0.52500345
   0.09330135  0.49226012  0.57994676
   0.09385362  0.98992462  0.63380643
   0.38288211  0.67054675  0.63243278
   0.38019510  0.16419311  0.57601080
   0.61249317  0.50629930  0.57665761
   0.61866691  0.01515515  0.62523039
   0.87322482  0.34694603  0.62918606
   0.87306360  0.84251031  0.57583198
   0.17936016  0.65024107  0.63333790
   0.17770227  0.15321804  0.58043259
   0.50052322  0.33970619  0.62655131
   0.50445385  0.83429055  0.57737502
   0.82175189  0.51232457  0.57813695
   0.82967015  0.01264735  0.62663230
   0.10943441  0.49415269  0.69032388
   0.15909880  0.98127288  0.74707604
   0.41037093  0.57070173  0.75918985
   0.38148112  0.14736946  0.67689558
   0.61490598  0.50235934  0.67786880
   0.60690845  0.00394303  0.73511604
   0.85616911  0.36245102  0.73588626
   0.86714213  0.84491481  0.67928197
   0.24238527  0.66756146  0.73142952
   0.17543166  0.13979683  0.68952371
   0.50403685  0.31480715  0.72397619
   0.53727042  0.84929621  0.67904309
   0.83009554  0.50485255  0.68231092
   0.79819442  0.07364760  0.71663959
Direct configuration=           2
   0.15906457  0.48101036  0.25295432
   0.10961306  0.99423470  0.30969518
   0.38140592  0.64742114  0.32311754
   0.41037910  0.07017690  0.24078395
   0.60688479  0.50412047  0.26483723
   0.61494450  0.00246964  0.32214725
   0.86704735  0.34489802  0.32074740
   0.85624999  0.86246097  0.26407272
   0.17543661  0.63988258  0.31050895
   0.24235784  0.16767530  0.26854222
   0.53724264  0.34929555  0.32096811
   0.50395439  0.81476205  0.27600550
   0.79811115  0.57364829  0.28334494
   0.83008010  0.00493816  0.31770511
   0.09393682  0.48993168  0.36622445
   0.09331631  0.99229387  0.42009502
   0.38021216  0.66444648  0.42398209
   0.38290887  0.17051258  0.36759509
   0.61867468  0.51533244  0.37468963
   0.61248405  0.00631285  0.42331370
   0.87303051  0.34232632  0.42412529
   0.87330527  0.84694321  0.37079648
   0.17768639  0.65323844  0.41954438
   0.17934559  0.15038547  0.36667918
   0.50445685  0.33436323  0.42263034
   0.50069643  0.83959843  0.37341342
   0.82966750  0.51260833  0.37334121
   0.82178307  0.01225429  0.42193148
   0.09386904  0.49349820  0.47353094
   0.09386925  0.99349832  0.52646875
   0.38236214  0.66543569  0.52620837
   0.38236212  0.16543579  0.47379136
   0.61344957  0.50342778  0.47378731
   0.61344943  0.00342779  0.52621264
   0.86846941  0.34533386  0.52642752
   0.86846946  0.84533424  0.47357281
   0.17981112  0.65584417  0.52672358
   0.17981112  0.15584424  0.47327606
   0.50992765  0.33581607  0.52501701
   0.50992764  0.83581602  0.47498284
   0.82283334  0.51310728  0.47500633
   0.82283331  0.01310709  0.52499422
   0.09331664  0.49229409  0.57990473
   0.09393690  0.98993141  0.63377542
   0.38290893  0.67051274  0.63240479
   0.38021197  0.16444636  0.57601767
   0.61248386  0.50631258  0.57668629
   0.61867460  0.01533275  0.62531031
   0.87330551  0.34694311  0.62920380
   0.87303047  0.84232615  0.57587507
   0.17934565  0.65038518  0.63332068
   0.17768617  0.15323820  0.58045543
   0.50069592  0.33959822  0.62658646
   0.50445674  0.83436316  0.57736957
   0.82178317  0.51225406  0.57806881
   0.82966759  0.01260833  0.62665920
   0.10961335  0.49423458  0.69030469
   0.15906472  0.98100976  0.74704553
   0.41037910  0.57017573  0.75921608
   0.38140593  0.14742052  0.67688233
   0.61494461  0.50246907  0.67785270
   0.60688493  0.00412063  0.73516274
   0.85625120  0.36245909  0.73592764
   0.86704677  0.84489699  0.67925281
   0.24235829  0.66767495  0.73145765
   0.17543658  0.13988233  0.68949094
   0.50395418  0.31476166  0.72399434
   0.53724332  0.84929517  0.67903183
   0.83008045  0.50493684  0.68229541
   0.79811091  0.07364804  0.71665514
Direct configuration=           3
   0.15900804  0.48057371  0.25300497
   0.10991000  0.99437062  0.30972701
   0.38128120  0.64750589  0.32313952
   0.41039269  0.06930399  0.24074042
   0.60684586  0.50441532  0.26475970
   0.61500860  0.00265178  0.32217392
   0.86688902  0.34486826  0.32079582
   0.85638626  0.86247431  0.26400402
   0.17544477  0.64002443  0.31056330
   0.24231309  0.16786362  0.26849552
   0.53719764  0.34929372  0.32098682
   0.50381721  0.81468651  0.27597541
   0.79797247  0.57364919  0.28331917
   0.83005508  0.00507804  0.31773076
   0.09407506  0.48994291  0.36627591
   0.09334171  0.99235027  0.42016476
   0.38024017  0.66486676  0.42397069
   0.38295334  0.17045624  0.36764153
   0.61868743  0.51562723  0.37455696
   0.61246858  0.00633478  0.42326608
   0.87297545  0.34202090  0.42405375
   0.87343923  0.84693843  0.37076710
   0.17765967  0.65327186  0.41950648
   0.17932154  0.15062460  0.36670776
   0.50446160  0.33448378  0.42263938
   0.50098298  0.83941922  0.37335513
   0.82966330  0.51254339  0.37329662
   0.82183505  0.01213716  0.42204464
   0.09383020  0.49349736  0.47353110
   0.09383035  0.99349741  0.52646861
   0.38229394  0.66526166  0.52622742
   0.38229390  0.16526171  0.47377234
   0.61335656  0.50356508  0.47380581
   0.61335643  0.00356506  0.52619411
   0.86843944  0.34502932  0.52644867
   0.86843936  0.84502968  0.47355169
   0.17973102  0.65589990  0.52672115
   0.17973102  0.15589998  0.47327851
   0.51005418  0.33593997  0.52500608
   0.51005419  0.83593992  0.47499381
   0.82266653  0.51303480  0.47502158
   0.82266648  0.01303424  0.52497889
   0.09334202  0.49235045  0.57983500
   0.09407512  0.98994268  0.63372395
   0.38295344  0.67045631  0.63235835
   0.38023996  0.16486662  0.57602908
   0.61246841  0.50633461  0.57673387
   0.61868738  0.01562747  0.62544294
   0.87343942  0.34693827  0.62923324
   0.87297549  0.84202054  0.57594658
   0.17932157  0.65062433  0.63329209
   0.17765946  0.15327165  0.58049333
   0.50098251  0.33941903  0.62664479
   0.50446153  0.83448366  0.57736053
   0.82183509  0.51213706  0.57795574
   0.82966334  0.01254357  0.62670383
   0.10991030  0.49437049  0.69027285
   0.15900817  0.98057310  0.74699489
   0.41039267  0.56930286  0.75925960
   0.38128116  0.14750524  0.67686034
   0.61500870  0.50265117  0.67782599
   0.60684589  0.00441534  0.73524024
   0.85638744  0.36247248  0.73599631
   0.86688851  0.84486742  0.67920441
   0.24231352  0.66786329  0.73150433
   0.17544476  0.14002421  0.68943656
   0.50381699  0.31468618  0.72402446
   0.53719834  0.84929345  0.67901314
   0.83005542  0.50507671  0.68226968
   0.79797233  0.07364878  0.71668095
Direct configuration=           4
   0.15886783  0.48055609  0.25305210
   0.11010357  0.99446136  0.30975574
   0.38123555  0.64755411  0.32315081
   0.41022346  0.06876951  0.24068073
   0.60676121  0.50451450  0.26472691
   0.61503218  0.00273863  0.32215646
   0.86675435  0.34490910  0.32078888
   0.85646838  0.86244954  0.26400228
   0.17544960  0.64008348  0.31058804
   0.24249608  0.16769962  0.26845113
   0.53712721  0.34930947  0.32094314
   0.50377763  0.81452698  0.27599508
   0.79789836  0.57375253  0.28329305
   0.83005365  0.00503704  0.31770504
   0.09408544  0.48998117  0.36629443
   0.09334023  0.99237614  0.42018671
   0.38027728  0.66515953  0.42395827
   0.38299221  0.17040855  0.36768079
   0.61873990  0.51579199  0.37450062
   0.61250101  0.00640550  0.42324308
   0.87289606  0.34196680  0.42404205
   0.87353421  0.84692985  0.37078469
   0.17772060  0.65337672  0.41952223
   0.17937527  0.15069805  0.36675839
   0.50442870  0.33464665  0.42262267
   0.50114281  0.83938741  0.37331483
   0.82965575  0.51261793  0.37327409
   0.82186724  0.01193971  0.42207711
   0.09380872  0.49354538  0.47351627
   0.09380885  0.99354540  0.52648346
   0.38227612  0.66516869  0.52623676
   0.38227608  0.16516872  0.47376302
   0.61335523  0.50366340  0.47380432
   0.61335512  0.00366341  0.52619560
   0.86842406  0.34475810  0.52641827
   0.86842393  0.84475845  0.47358210
   0.17971568  0.65598814  0.52669723
   0.17971567  0.15598821  0.47330245
   0.51005333  0.33608215  0.52501721
   0.51005335  0.83608211  0.47498268
   0.82256002  0.51275121  0.47500817
   0.82255995  0.01275062  0.52499228
   0.09334049  0.49237628  0.57981306
   0.09408548  0.98998095  0.63370543
   0.38299231  0.67040858  0.63231908
   0.38027708  0.16515938  0.57604151
   0.61250086  0.50640535  0.57675686
   0.61873986  0.01579218  0.62549927
   0.87353441  0.34692967  0.62921566
   0.87289612  0.84196649  0.57595830
   0.17937531  0.65069780  0.63324145
   0.17772039  0.15337652  0.58047757
   0.50114238  0.33938722  0.62668508
   0.50442864  0.83464652  0.57737723
   0.82186725  0.51193960  0.57792331
   0.82965577  0.01261808  0.62672637
   0.11010386  0.49446122  0.69024411
   0.15886797  0.98055552  0.74694776
   0.41022344  0.56876843  0.75931929
   0.38123550  0.14755347  0.67684905
   0.61503227  0.50273801  0.67784344
   0.60676116  0.00451447  0.73527303
   0.85646953  0.36244784  0.73599802
   0.86675393  0.84490821  0.67921138
   0.24249648  0.66769934  0.73154872
   0.17544959  0.14008321  0.68941182
   0.50377741  0.31452666  0.72400478
   0.53712791  0.84930921  0.67905679
   0.83005397  0.50503580  0.68229536
   0.79789830  0.07375205  0.71670712
Direct configuration=           5
   0.15851778  0.48051212  0.25316976
   0.11058685  0.99468790  0.30982748
   0.38112156  0.64767451  0.32317900
   0.40980096  0.06743507  0.24053169
   0.60654984  0.50476212  0.26464505
   0.61509106  0.00295546  0.32211285
   0.86641813  0.34501105  0.32077154
   0.85667343  0.86238770  0.26399795
   0.17546167  0.64023089  0.31064980
   0.24295296  0.16729017  0.26834028
   0.53695136  0.34934879  0.32083409
   0.50367882  0.81412868  0.27604421
   0.79771336  0.57401052  0.28322782
   0.83005008  0.00493470  0.31764082
   0.09411138  0.49007670  0.36634068
   0.09333653  0.99244072  0.42024149
   0.38036994  0.66589049  0.42392728
   0.38308926  0.17028951  0.36777883
   0.61887091  0.51620335  0.37435996
   0.61258199  0.00658206  0.42318566
   0.87269784  0.34183173  0.42401282
   0.87377137  0.84690844  0.37082862
   0.17787271  0.65363852  0.41956154
   0.17950942  0.15088141  0.36688479
   0.50434656  0.33505328  0.42258095
   0.50154186  0.83930798  0.37321424
   0.82963691  0.51280404  0.37321782
   0.82194763  0.01144673  0.42215817
   0.09375511  0.49366528  0.47347923
   0.09375516  0.99366519  0.52652053
   0.38223160  0.66493659  0.52626008
   0.38223158  0.16493656  0.47373976
   0.61335190  0.50390886  0.47380060
   0.61335184  0.00390894  0.52619931
   0.86838566  0.34408093  0.52634238
   0.86838543  0.84408127  0.47365802
   0.17967737  0.65620844  0.52663749
   0.17967734  0.15620848  0.47336223
   0.51005121  0.33643713  0.52504500
   0.51005125  0.83643709  0.47495489
   0.82229408  0.51204318  0.47497468
   0.82229396  0.01204249  0.52502572
   0.09333670  0.49244078  0.57975829
   0.09411134  0.99007651  0.63365917
   0.38308935  0.67028942  0.63222105
   0.38036977  0.16589031  0.57607254
   0.61258189  0.50658197  0.57681426
   0.61887091  0.01620341  0.62563990
   0.87377157  0.34690820  0.62917175
   0.87269798  0.84183155  0.57598756
   0.17950948  0.65088123  0.63311502
   0.17787250  0.15363836  0.58043824
   0.50154151  0.33930780  0.62678568
   0.50434653  0.83505313  0.57741892
   0.82194754  0.51144661  0.57784236
   0.82963687  0.01280411  0.62678263
   0.11058713  0.49468776  0.69017236
   0.15851791  0.98051162  0.74683008
   0.40980090  0.56743412  0.75946832
   0.38112151  0.14767389  0.67682085
   0.61509112  0.50295483  0.67788702
   0.60654964  0.00476196  0.73535489
   0.85667448  0.36238631  0.73600228
   0.86641793  0.84501006  0.67922876
   0.24295326  0.66728999  0.73165953
   0.17546164  0.14023053  0.68935004
   0.50367859  0.31412838  0.72395565
   0.53695205  0.84934856  0.67916578
   0.83005036  0.50493365  0.68235949
   0.79771346  0.07400989  0.71677246
Direct configuration=           6
   0.15838328  0.48049522  0.25321497
   0.11077255  0.99477495  0.30985504
   0.38107776  0.64772078  0.32318983
   0.40963862  0.06692233  0.24047443
   0.60646863  0.50485726  0.26461359
   0.61511369  0.00303878  0.32209610
   0.86628894  0.34505022  0.32076487
   0.85675222  0.86236395  0.26399628
   0.17546630  0.64028753  0.31067354
   0.24312851  0.16713284  0.26829768
   0.53688379  0.34936390  0.32079218
   0.50364085  0.81397563  0.27606308
   0.79764227  0.57410965  0.28320276
   0.83004870  0.00489537  0.31761614
   0.09412134  0.49011341  0.36635845
   0.09333510  0.99246554  0.42026255
   0.38040554  0.66617135  0.42391537
   0.38312655  0.17024376  0.36781650
   0.61892125  0.51636140  0.37430591
   0.61261310  0.00664990  0.42316359
   0.87262167  0.34177983  0.42400159
   0.87386249  0.84690021  0.37084550
   0.17793116  0.65373912  0.41957665
   0.17956096  0.15095187  0.36693336
   0.50431500  0.33520952  0.42256492
   0.50169519  0.83927745  0.37317558
   0.82962967  0.51287555  0.37319620
   0.82197852  0.01125730  0.42218932
   0.09373451  0.49371135  0.47346500
   0.09373453  0.99371122  0.52653478
   0.38221450  0.66484741  0.52626904
   0.38221448  0.16484736  0.47373082
   0.61335062  0.50400318  0.47379916
   0.61335059  0.00400328  0.52620074
   0.86837090  0.34382074  0.52631321
   0.86837063  0.84382107  0.47368719
   0.17966265  0.65629309  0.52661454
   0.17966261  0.15629312  0.47338519
   0.51005040  0.33657352  0.52505568
   0.51005045  0.83657349  0.47494421
   0.82219190  0.51177113  0.47496181
   0.82219176  0.01177040  0.52503856
   0.09333524  0.49246557  0.57973725
   0.09412128  0.99011323  0.63364139
   0.38312663  0.67024363  0.63218339
   0.38040538  0.16617116  0.57608447
   0.61261302  0.50664983  0.57683631
   0.61892126  0.01636142  0.62569393
   0.87386270  0.34689995  0.62915489
   0.87262185  0.84177970  0.57599881
   0.17956103  0.65095172  0.63306644
   0.17793095  0.15373897  0.58042313
   0.50169487  0.33927728  0.62682433
   0.50431497  0.83520936  0.57743494
   0.82197839  0.51125719  0.57781125
   0.82962961  0.01287560  0.62680425
   0.11077282  0.49477480  0.69014479
   0.15838341  0.98049475  0.74678486
   0.40963855  0.56692143  0.75952559
   0.38107771  0.14772016  0.67681002
   0.61511374  0.50303814  0.67790376
   0.60646836  0.00485705  0.73538634
   0.85675323  0.36236267  0.73600392
   0.86628882  0.84504919  0.67923544
   0.24312877  0.66713270  0.73170210
   0.17546627  0.14028714  0.68932630
   0.50364061  0.31397535  0.72393677
   0.53688448  0.84936369  0.67920766
   0.83004898  0.50489440  0.68238414
   0.79764244  0.07410897  0.71679757
Direct configuration=           7
   0.15827136  0.48034851  0.25326469
   0.11097332  0.99492428  0.30988236
   0.38108887  0.64771357  0.32320321
   0.40960535  0.06630392  0.24037859
   0.60639746  0.50479623  0.26457851
   0.61511413  0.00312485  0.32204676
   0.86614639  0.34509315  0.32072847
   0.85683079  0.86234799  0.26399453
   0.17543089  0.64029755  0.31069304
   0.24311062  0.16718179  0.26828616
   0.53681196  0.34940046  0.32075537
   0.50358176  0.81396816  0.27608664
   0.79759578  0.57414686  0.28318596
   0.83008856  0.00482354  0.31760838
   0.09411816  0.49015767  0.36637954
   0.09331626  0.99249753  0.42028179
   0.38046677  0.66637332  0.42389962
   0.38319494  0.17023403  0.36784478
   0.61894519  0.51636822  0.37427159
   0.61265008  0.00678908  0.42315218
   0.87253135  0.34172709  0.42399217
   0.87393279  0.84695208  0.37085076
   0.17800167  0.65385121  0.41959570
   0.17962652  0.15101044  0.36697978
   0.50430487  0.33538607  0.42254031
   0.50180615  0.83935137  0.37316105
   0.82963220  0.51296514  0.37319250
   0.82201052  0.01106773  0.42220595
   0.09370325  0.49377744  0.47345070
   0.09370323  0.99377729  0.52654908
   0.38222744  0.66485686  0.52627181
   0.38222742  0.16485681  0.47372807
   0.61332945  0.50408188  0.47378799
   0.61332944  0.00408201  0.52621191
   0.86835825  0.34354212  0.52627956
   0.86835800  0.84354238  0.47372085
   0.17966411  0.65637117  0.52658910
   0.17966406  0.15637119  0.47341065
   0.51003037  0.33671137  0.52506970
   0.51003043  0.83671135  0.47493018
   0.82210156  0.51146227  0.47494207
   0.82210141  0.01146166  0.52505831
   0.09331636  0.49249754  0.57971801
   0.09411809  0.99015749  0.63362029
   0.38319502  0.67023388  0.63215511
   0.38046663  0.16637313  0.57610024
   0.61265002  0.50678899  0.57684773
   0.61894522  0.01636822  0.62572824
   0.87393302  0.34695175  0.62914962
   0.87253154  0.84172700  0.57600824
   0.17962659  0.65101031  0.63302001
   0.17800146  0.15385107  0.58040407
   0.50180586  0.33935119  0.62683885
   0.50430485  0.83538592  0.57745954
   0.82201038  0.51106761  0.57779463
   0.82963213  0.01296510  0.62680795
   0.11097359  0.49492411  0.69011746
   0.15827148  0.98034810  0.74673513
   0.40960524  0.56630307  0.75962142
   0.38108883  0.14771296  0.67679664
   0.61511418  0.50312422  0.67795310
   0.60639715  0.00479597  0.73542143
   0.85683176  0.36234687  0.73600565
   0.86614635  0.84509215  0.67927186
   0.24311088  0.66718165  0.73171361
   0.17543086  0.14029715  0.68930680
   0.50358151  0.31396790  0.72391321
   0.53681263  0.84940025  0.67924445
   0.83008881  0.50482267  0.68239189
   0.79759600  0.07414607  0.71681441
Direct configuration=           8
   0.15793559  0.47990838  0.25341385
   0.11157563  0.99537227  0.30996432
   0.38112219  0.64769195  0.32324335
   0.40950555  0.06444869  0.24009106
   0.60618394  0.50461312  0.26447327
   0.61511545  0.00338307  0.32189873
   0.86571876  0.34522193  0.32061925
   0.85706648  0.86230014  0.26398929
   0.17532467  0.64032761  0.31075153
   0.24305695  0.16732863  0.26825161
   0.53659646  0.34951016  0.32064495
   0.50340448  0.81394575  0.27615730
   0.79745629  0.57425847  0.28313553
   0.83020813  0.00460806  0.31758508
   0.09410862  0.49029045  0.36644283
   0.09325973  0.99259349  0.42033951
   0.38065047  0.66697924  0.42385235
   0.38340009  0.17020483  0.36792962
   0.61901700  0.51638866  0.37416863
   0.61276103  0.00720662  0.42311795
   0.87226039  0.34156888  0.42396391
   0.87414367  0.84710771  0.37086653
   0.17821320  0.65418750  0.41965286
   0.17982320  0.15118613  0.36711903
   0.50427450  0.33591572  0.42246648
   0.50213905  0.83957313  0.37311747
   0.82963981  0.51323390  0.37318141
   0.82210653  0.01049902  0.42225584
   0.09360947  0.49397571  0.47340781
   0.09360935  0.99397550  0.52659200
   0.38226625  0.66488524  0.52628010
   0.38226625  0.16488516  0.47371983
   0.61326595  0.50431799  0.47375448
   0.61326600  0.00431820  0.52624542
   0.86832029  0.34270626  0.52617859
   0.86832008  0.84270631  0.47382182
   0.17966848  0.65660541  0.52651279
   0.17966842  0.15660540  0.47348702
   0.50997028  0.33712493  0.52511178
   0.50997038  0.83712492  0.47488809
   0.82183056  0.51053572  0.47488285
   0.82183037  0.01053546  0.52511757
   0.09325971  0.49259345  0.57966030
   0.09410851  0.99029028  0.63355698
   0.38340016  0.67020462  0.63207026
   0.38065039  0.16697903  0.57614754
   0.61276104  0.50720649  0.57688196
   0.61901710  0.01638862  0.62583117
   0.87414397  0.34710716  0.62913384
   0.87226060  0.84156892  0.57603652
   0.17982329  0.65118609  0.63288074
   0.17821300  0.15418738  0.58034692
   0.50213883  0.33957293  0.62688241
   0.50427448  0.83591559  0.57753334
   0.82210634  0.51049886  0.57774476
   0.82963971  0.01323360  0.62681906
   0.11157589  0.49537206  0.69003548
   0.15793569  0.97990812  0.74658596
   0.40950532  0.56444798  0.75990892
   0.38112219  0.14769138  0.67675649
   0.61511550  0.50338247  0.67810112
   0.60618352  0.00461272  0.73552667
   0.85706734  0.36229949  0.73601083
   0.86571893  0.84522102  0.67938112
   0.24305722  0.66732851  0.73174815
   0.17532460  0.14032717  0.68924828
   0.50340419  0.31394556  0.72384254
   0.53659708  0.84950992  0.67935482
   0.83020830  0.50460746  0.68241516
   0.79745666  0.07425737  0.71686494
Direct configuration=           9
   0.15782617  0.47976495  0.25346246
   0.11177191  0.99551826  0.30999102
   0.38113304  0.64768491  0.32325643
   0.40947303  0.06384411  0.23999736
   0.60611436  0.50455344  0.26443897
   0.61511588  0.00346722  0.32185049
   0.86557941  0.34526390  0.32058365
   0.85714329  0.86228454  0.26398758
   0.17529005  0.64033740  0.31077060
   0.24303946  0.16737649  0.26824034
   0.53652624  0.34954590  0.32060896
   0.50334671  0.81393845  0.27618032
   0.79741084  0.57429484  0.28311910
   0.83024710  0.00453784  0.31757748
   0.09410551  0.49033372  0.36646345
   0.09324131  0.99262477  0.42035832
   0.38071033  0.66717669  0.42383695
   0.38346694  0.17019532  0.36795727
   0.61904041  0.51639532  0.37413508
   0.61279719  0.00734269  0.42310680
   0.87217208  0.34151733  0.42395470
   0.87421239  0.84715842  0.37087167
   0.17828213  0.65429709  0.41967149
   0.17988729  0.15124339  0.36716441
   0.50426460  0.33608833  0.42244242
   0.50224753  0.83964539  0.37310327
   0.82964229  0.51332148  0.37317780
   0.82213781  0.01031368  0.42227210
   0.09357890  0.49404032  0.47339383
   0.09357876  0.99404009  0.52660598
   0.38227890  0.66489448  0.52628280
   0.38227890  0.16489440  0.47371715
   0.61324525  0.50439493  0.47374356
   0.61324532  0.00439517  0.52625634
   0.86830792  0.34243387  0.52614569
   0.86830772  0.84243385  0.47385473
   0.17966990  0.65668175  0.52648792
   0.17966984  0.15668173  0.47351191
   0.50995070  0.33725970  0.52512550
   0.50995082  0.83725970  0.47487437
   0.82174224  0.51023378  0.47486356
   0.82174205  0.01023363  0.52513688
   0.09324125  0.49262470  0.57964149
   0.09410539  0.99033355  0.63353635
   0.38346701  0.67019508  0.63204262
   0.38071028  0.16717648  0.57616296
   0.61279722  0.50734254  0.57689311
   0.61904053  0.01639526  0.62586471
   0.87421272  0.34715780  0.62912869
   0.87217231  0.84151741  0.57604574
   0.17988739  0.65124338  0.63283536
   0.17828193  0.15429698  0.58032829
   0.50224733  0.33964519  0.62689660
   0.50426458  0.83608820  0.57755739
   0.82213761  0.51031352  0.57772851
   0.82964218  0.01332110  0.62682268
   0.11177216  0.49551804  0.69000876
   0.15782627  0.97976475  0.74653734
   0.40947276  0.56384345  0.76000261
   0.38113306  0.14768435  0.67674341
   0.61511593  0.50346663  0.67814936
   0.60611391  0.00455300  0.73556097
   0.85714412  0.36228404  0.73601252
   0.86557965  0.84526302  0.67941672
   0.24303973  0.66737637  0.73175940
   0.17528998  0.14033696  0.68922922
   0.50334641  0.31393828  0.72381952
   0.53652683  0.84954567  0.67939078
   0.83024724  0.50453732  0.68242275
   0.79741125  0.07429364  0.71688141
Direct configuration=          10
   0.15764089  0.47962513  0.25348883
   0.11194874  0.99563019  0.31004692
   0.38114537  0.64754683  0.32328761
   0.40921099  0.06315460  0.23986607
   0.60601132  0.50439601  0.26439374
   0.61509432  0.00359453  0.32177221
   0.86544194  0.34521947  0.32055287
   0.85724989  0.86223184  0.26397965
   0.17521952  0.64034103  0.31081392
   0.24323117  0.16736656  0.26820804
   0.53648876  0.34966060  0.32058186
   0.50326226  0.81397426  0.27616063
   0.79732278  0.57432870  0.28308217
   0.83037755  0.00448600  0.31760038
   0.09411600  0.49037329  0.36651009
   0.09320543  0.99270699  0.42039594
   0.38078839  0.66725385  0.42381408
   0.38356746  0.17029374  0.36796496
   0.61900877  0.51619590  0.37411669
   0.61284958  0.00761924  0.42311784
   0.87207785  0.34128510  0.42391962
   0.87426372  0.84726501  0.37084592
   0.17836318  0.65443854  0.41967899
   0.17999990  0.15139655  0.36721693
   0.50432551  0.33627494  0.42241433
   0.50238985  0.83990674  0.37311760
   0.82967740  0.51335910  0.37317297
   0.82218638  0.01011170  0.42229993
   0.09351701  0.49411412  0.47338517
   0.09351683  0.99411390  0.52661465
   0.38231059  0.66516688  0.52627626
   0.38231058  0.16516681  0.47372369
   0.61313526  0.50447306  0.47372434
   0.61313533  0.00447330  0.52627556
   0.86828235  0.34209557  0.52613934
   0.86828222  0.84209545  0.47386109
   0.17970117  0.65676181  0.52646618
   0.17970112  0.15676180  0.47353367
   0.50995992  0.33742474  0.52513221
   0.50996005  0.83742474  0.47486766
   0.82162790  0.50993192  0.47484614
   0.82162772  0.00993200  0.52515431
   0.09320533  0.49270692  0.57960387
   0.09411589  0.99037310  0.63348971
   0.38356754  0.67029352  0.63203492
   0.38078834  0.16725364  0.57618583
   0.61284962  0.50761906  0.57688208
   0.61900894  0.01619588  0.62588309
   0.87426410  0.34726430  0.62915443
   0.87207805  0.84128511  0.57608081
   0.17999999  0.65139655  0.63278285
   0.17836301  0.15443844  0.58032081
   0.50238968  0.33990652  0.62688226
   0.50432550  0.83627480  0.57758548
   0.82218621  0.51011158  0.57770064
   0.82967728  0.01335861  0.62682755
   0.11194899  0.49562997  0.68995285
   0.15764099  0.97962493  0.74651097
   0.40921072  0.56315393  0.76013388
   0.38114541  0.14754630  0.67671222
   0.61509439  0.50359396  0.67822764
   0.60601087  0.00439554  0.73560619
   0.85725065  0.36223138  0.73602046
   0.86544224  0.84521874  0.67944751
   0.24323142  0.66736649  0.73179169
   0.17521944  0.14034063  0.68918588
   0.50326195  0.31397410  0.72383921
   0.53648932  0.84966040  0.67941789
   0.83037763  0.50448558  0.68239985
   0.79732319  0.07432749  0.71691836
Direct configuration=          11
   0.15708502  0.47920568  0.25356794
   0.11247923  0.99596596  0.31021461
   0.38118236  0.64713261  0.32338116
   0.40842489  0.06108606  0.23947221
   0.60570221  0.50392370  0.26425804
   0.61502963  0.00397645  0.32153739
   0.86502952  0.34508618  0.32046054
   0.85756968  0.86207374  0.26395586
   0.17500790  0.64035191  0.31094388
   0.24380632  0.16733679  0.26811111
   0.53637633  0.35000471  0.32050057
   0.50300890  0.81408172  0.27610157
   0.79705859  0.57443029  0.28297139
   0.83076888  0.00433046  0.31766907
   0.09414746  0.49049200  0.36664999
   0.09309777  0.99295366  0.42050881
   0.38102257  0.66748532  0.42374548
   0.38386900  0.17058900  0.36798803
   0.61891387  0.51559766  0.37406153
   0.61300674  0.00844888  0.42315096
   0.87179514  0.34058841  0.42381438
   0.87441771  0.84758480  0.37076866
   0.17860632  0.65486289  0.41970149
   0.18033774  0.15185601  0.36737448
   0.50450824  0.33683477  0.42233006
   0.50281681  0.84069077  0.37316059
   0.82978272  0.51347194  0.37315847
   0.82233209  0.00950574  0.42238343
   0.09333134  0.49433552  0.47335920
   0.09333104  0.99433535  0.52664063
   0.38240566  0.66598406  0.52625665
   0.38240561  0.16598403  0.47374332
   0.61280527  0.50470744  0.47366668
   0.61280535  0.00470768  0.52633321
   0.86820565  0.34108067  0.52612031
   0.86820572  0.84108024  0.47388016
   0.17979495  0.65700199  0.52640098
   0.17979495  0.15700200  0.47359895
   0.50998759  0.33791986  0.52515233
   0.50998777  0.83791987  0.47484754
   0.82128486  0.50902637  0.47479389
   0.82128473  0.00902711  0.52520661
   0.09309756  0.49295358  0.57949101
   0.09414737  0.99049177  0.63334978
   0.38386912  0.67058883  0.63201183
   0.38102253  0.16748513  0.57625444
   0.61300682  0.50844863  0.57684897
   0.61891416  0.01559771  0.62593822
   0.87441823  0.34758379  0.62923164
   0.87179526  0.84058820  0.57618600
   0.18033779  0.65185605  0.63262532
   0.17860622  0.15486284  0.58029836
   0.50281671  0.34069051  0.62683925
   0.50450825  0.83683462  0.57766976
   0.82233199  0.50950576  0.57761702
   0.82978259  0.01347112  0.62684215
   0.11247947  0.49596576  0.68978511
   0.15708514  0.97920547  0.74643184
   0.40842458  0.56108538  0.76052768
   0.38118246  0.14713214  0.67661865
   0.61502975  0.50397596  0.67846247
   0.60570175  0.00392315  0.73574184
   0.85757024  0.36207337  0.73604428
   0.86503000  0.84508589  0.67953988
   0.24380647  0.66733686  0.73188858
   0.17500782  0.14035166  0.68905588
   0.50300856  0.31408154  0.72389828
   0.53637676  0.85000460  0.67949919
   0.83076882  0.50433035  0.68233117
   0.79705903  0.07442905  0.71702923
Direct configuration=          12
   0.15685760  0.47899627  0.25363215
   0.11274339  0.99615522  0.31028965
   0.38119020  0.64699952  0.32341036
   0.40799340  0.06000773  0.23922527
   0.60548594  0.50392277  0.26419212
   0.61493237  0.00403276  0.32144772
   0.86490347  0.34516243  0.32046404
   0.85769833  0.86202519  0.26398001
   0.17494610  0.64023253  0.31095794
   0.24389945  0.16753025  0.26810421
   0.53639891  0.35026072  0.32047854
   0.50285018  0.81378129  0.27601739
   0.79689648  0.57437902  0.28289752
   0.83102436  0.00430569  0.31763629
   0.09413215  0.49046111  0.36673300
   0.09313378  0.99311225  0.42055396
   0.38108081  0.66753127  0.42372445
   0.38397760  0.17081669  0.36796883
   0.61895215  0.51559552  0.37405490
   0.61313838  0.00872281  0.42320294
   0.87172233  0.34028024  0.42379201
   0.87442630  0.84740380  0.37078611
   0.17868049  0.65513028  0.41972657
   0.18048257  0.15203981  0.36744602
   0.50453409  0.33694160  0.42231609
   0.50308012  0.84102217  0.37315869
   0.82987307  0.51342668  0.37309806
   0.82240565  0.00915165  0.42239824
   0.09331201  0.49441064  0.47335221
   0.09331170  0.99441053  0.52664764
   0.38243417  0.66661610  0.52624856
   0.38243414  0.16661607  0.47375139
   0.61273907  0.50486871  0.47365825
   0.61273913  0.00486893  0.52634165
   0.86812273  0.34070793  0.52612822
   0.86812282  0.84070760  0.47387225
   0.17984673  0.65717920  0.52637101
   0.17984675  0.15717916  0.47362892
   0.50995181  0.33821431  0.52515337
   0.50995200  0.83821431  0.47484652
   0.82115279  0.50857951  0.47478044
   0.82115272  0.00858029  0.52522000
   0.09313353  0.49311214  0.57944588
   0.09413206  0.99046085  0.63326678
   0.38397771  0.67081657  0.63203101
   0.38108075  0.16753109  0.57627546
   0.61313843  0.50872256  0.57679699
   0.61895246  0.01559556  0.62594487
   0.87442683  0.34740293  0.62921418
   0.87172238  0.84028008  0.57620838
   0.18048264  0.65203982  0.63255377
   0.17868041  0.15513026  0.58027327
   0.50308007  0.34102192  0.62684117
   0.50453414  0.83694141  0.57768374
   0.82240558  0.50915175  0.57760217
   0.82987296  0.01342576  0.62690256
   0.11274357  0.49615504  0.68971005
   0.15685771  0.97899612  0.74636761
   0.40799307  0.56000708  0.76077460
   0.38119029  0.14699910  0.67658943
   0.61493250  0.50403234  0.67855216
   0.60548553  0.00392227  0.73580775
   0.85769879  0.36202481  0.73602019
   0.86490404  0.84516213  0.67953643
   0.24389958  0.66753033  0.73189547
   0.17494605  0.14023233  0.68904181
   0.50284989  0.31378103  0.72398246
   0.53639930  0.85026063  0.67952122
   0.83102426  0.50430559  0.68236393
   0.79689685  0.07437793  0.71710312
Direct configuration=          13
   0.15665393  0.47880873  0.25368965
   0.11297995  0.99632470  0.31035686
   0.38119721  0.64688033  0.32343652
   0.40760699  0.05904205  0.23900412
   0.60529225  0.50392193  0.26413309
   0.61484527  0.00408319  0.32136742
   0.86479059  0.34523073  0.32046717
   0.85781354  0.86198171  0.26400163
   0.17489075  0.64012562  0.31097053
   0.24398285  0.16770351  0.26809804
   0.53641914  0.35048999  0.32045882
   0.50270803  0.81351225  0.27594201
   0.79675130  0.57433311  0.28283137
   0.83125316  0.00428350  0.31760694
   0.09411843  0.49043345  0.36680734
   0.09316602  0.99325428  0.42059440
   0.38113297  0.66757242  0.42370562
   0.38407485  0.17102059  0.36795164
   0.61898644  0.51559360  0.37404897
   0.61325626  0.00896811  0.42324949
   0.87165713  0.34000426  0.42377198
   0.87443400  0.84724170  0.37080174
   0.17874691  0.65536973  0.41974903
   0.18061227  0.15220442  0.36751009
   0.50455724  0.33703728  0.42230358
   0.50331592  0.84131894  0.37315698
   0.82995398  0.51338616  0.37304395
   0.82247153  0.00883455  0.42241150
   0.09329470  0.49447791  0.47334596
   0.09329439  0.99447786  0.52665392
   0.38245971  0.66718211  0.52624132
   0.38245969  0.16718209  0.47375862
   0.61267978  0.50501314  0.47365069
   0.61267982  0.00501332  0.52634921
   0.86804847  0.34037411  0.52613530
   0.86804858  0.84037388  0.47386516
   0.17989310  0.65733790  0.52634418
   0.17989313  0.15733782  0.47365576
   0.50991977  0.33847799  0.52515430
   0.50991996  0.83847800  0.47484560
   0.82103452  0.50817934  0.47476840
   0.82103451  0.00818013  0.52523199
   0.09316575  0.49325415  0.57940546
   0.09411834  0.99043316  0.63319244
   0.38407496  0.67102052  0.63204819
   0.38113290  0.16757225  0.57629428
   0.61325629  0.50896788  0.57675045
   0.61898675  0.01559363  0.62595082
   0.87443454  0.34724097  0.62919853
   0.87165711  0.84000415  0.57622842
   0.18061236  0.65220440  0.63248969
   0.17874685  0.15536976  0.58025081
   0.50331592  0.34131870  0.62684289
   0.50455733  0.83703705  0.57769626
   0.82247149  0.50883473  0.57758887
   0.82995390  0.01338514  0.62695666
   0.11298009  0.49632454  0.68964284
   0.15665404  0.97880864  0.74631010
   0.40760662  0.55904143  0.76099573
   0.38119729  0.14687995  0.67656326
   0.61484540  0.50408284  0.67863247
   0.60529189  0.00392148  0.73586678
   0.85781390  0.36198132  0.73599862
   0.86479123  0.84523040  0.67953334
   0.24398296  0.66770359  0.73190164
   0.17489073  0.14012545  0.68902921
   0.50270780  0.31351192  0.72405784
   0.53641949  0.85048991  0.67954094
   0.83125302  0.50428343  0.68239326
   0.79675160  0.07433216  0.71716928
Direct configuration=          14
   0.15656126  0.47872340  0.25371581
   0.11308759  0.99640182  0.31038745
   0.38120040  0.64682610  0.32344842
   0.40743115  0.05860263  0.23890349
   0.60520412  0.50392155  0.26410623
   0.61480564  0.00410614  0.32133088
   0.86473922  0.34526180  0.32046860
   0.85786596  0.86196193  0.26401147
   0.17486556  0.64007698  0.31097626
   0.24402081  0.16778235  0.26809522
   0.53642835  0.35059432  0.32044985
   0.50264335  0.81338983  0.27590771
   0.79668524  0.57431221  0.28280127
   0.83135727  0.00427341  0.31759359
   0.09411219  0.49042086  0.36684117
   0.09318069  0.99331890  0.42061280
   0.38115671  0.66759114  0.42369705
   0.38411911  0.17111337  0.36794382
   0.61900204  0.51559273  0.37404627
   0.61330990  0.00907974  0.42327067
   0.87162746  0.33987869  0.42376287
   0.87443750  0.84716794  0.37080885
   0.17877713  0.65547869  0.41975926
   0.18067128  0.15227932  0.36753924
   0.50456778  0.33708082  0.42229789
   0.50342321  0.84145399  0.37315621
   0.82999080  0.51336772  0.37301933
   0.82250151  0.00869026  0.42241753
   0.09328683  0.49450852  0.47334312
   0.09328651  0.99450849  0.52665677
   0.38247133  0.66743966  0.52623802
   0.38247132  0.16743965  0.47376191
   0.61265281  0.50507886  0.47364725
   0.61265284  0.00507903  0.52635265
   0.86801468  0.34022222  0.52613852
   0.86801479  0.84022203  0.47386194
   0.17991420  0.65741012  0.52633197
   0.17991423  0.15741002  0.47366798
   0.50990519  0.33859798  0.52515472
   0.50990538  0.83859798  0.47484519
   0.82098070  0.50799725  0.47476292
   0.82098071  0.00799805  0.52523744
   0.09318041  0.49331876  0.57938707
   0.09411210  0.99042056  0.63315862
   0.38411921  0.67111332  0.63205601
   0.38115663  0.16759099  0.57630284
   0.61330993  0.50907951  0.57672927
   0.61900236  0.01559275  0.62595353
   0.87443805  0.34716727  0.62919142
   0.87162740  0.83987859  0.57623754
   0.18067138  0.65227928  0.63246053
   0.17877708  0.15547873  0.58024059
   0.50342324  0.34145375  0.62684367
   0.50456788  0.83708057  0.57770196
   0.82250148  0.50869048  0.57758282
   0.82999072  0.01336666  0.62698128
   0.11308771  0.49640168  0.68961226
   0.15656137  0.97872333  0.74628393
   0.40743078  0.55860202  0.76109635
   0.38120048  0.14682574  0.67655136
   0.61480577  0.50410582  0.67866902
   0.60520378  0.00392112  0.73589364
   0.85786629  0.36196153  0.73598880
   0.86473990  0.84526147  0.67953193
   0.24402090  0.66778243  0.73190445
   0.17486555  0.14007682  0.68902348
   0.50264314  0.31338946  0.72409214
   0.53642868  0.85059425  0.67954991
   0.83135711  0.50427334  0.68240661
   0.79668551  0.07431133  0.71719939
Direct configuration=          15
   0.15638638  0.47874561  0.25373189
   0.11329028  0.99640023  0.31041671
   0.38118153  0.64698424  0.32341675
   0.40700899  0.05764047  0.23874603
   0.60516388  0.50382851  0.26403465
   0.61463367  0.00399674  0.32127761
   0.86473271  0.34538516  0.32043020
   0.85794809  0.86181236  0.26400094
   0.17488874  0.64005895  0.31102018
   0.24406401  0.16771883  0.26812321
   0.53654910  0.35071952  0.32048433
   0.50226489  0.81346051  0.27581854
   0.79656947  0.57404937  0.28276715
   0.83156456  0.00435071  0.31758470
   0.09411017  0.49044013  0.36685520
   0.09330795  0.99345860  0.42062218
   0.38116769  0.66778753  0.42369881
   0.38416648  0.17121713  0.36791757
   0.61916205  0.51607615  0.37405441
   0.61336737  0.00898697  0.42330583
   0.87164785  0.33988869  0.42376687
   0.87436981  0.84685468  0.37082954
   0.17877951  0.65564665  0.41979997
   0.18074242  0.15233122  0.36758278
   0.50450764  0.33703789  0.42231994
   0.50363149  0.84151158  0.37312570
   0.83005993  0.51311732  0.37301555
   0.82254257  0.00851368  0.42239585
   0.09335643  0.49460145  0.47335574
   0.09335616  0.99460146  0.52664417
   0.38243768  0.66789032  0.52623973
   0.38243770  0.16789029  0.47376018
   0.61275429  0.50531025  0.47366591
   0.61275430  0.00531039  0.52633401
   0.86792536  0.34004795  0.52611997
   0.86792541  0.84004781  0.47388041
   0.17993124  0.65760532  0.52630480
   0.17993129  0.15760517  0.47369515
   0.50980998  0.33880661  0.52515219
   0.50981015  0.83880662  0.47484772
   0.82097480  0.50772165  0.47477381
   0.82097485  0.00772204  0.52522647
   0.09330770  0.49345848  0.57937771
   0.09411009  0.99043984  0.63314460
   0.38416659  0.67121710  0.63208226
   0.38116764  0.16778738  0.57630108
   0.61336739  0.50898676  0.57669412
   0.61916234  0.01607612  0.62594543
   0.87437025  0.34685414  0.62917073
   0.87164771  0.83988884  0.57623352
   0.18074255  0.65233119  0.63241699
   0.17877944  0.15564671  0.58019988
   0.50363153  0.34151139  0.62687420
   0.50450777  0.83703766  0.57767991
   0.82254255  0.50851390  0.57760450
   0.83005994  0.01311645  0.62698506
   0.11329035  0.49640010  0.68958301
   0.15638650  0.97874560  0.74626784
   0.40700864  0.55763984  0.76125380
   0.38118161  0.14698395  0.67658302
   0.61463379  0.50399649  0.67872230
   0.60516360  0.00382809  0.73596523
   0.85794832  0.36181219  0.73599933
   0.86473338  0.84538480  0.67957037
   0.24406406  0.66771886  0.73187645
   0.17488874  0.14005884  0.68897956
   0.50226471  0.31346018  0.72418131
   0.53654939  0.85071940  0.67951544
   0.83156446  0.50435035  0.68241552
   0.79656965  0.07404858  0.71723349
Direct configuration=          16
   0.15624308  0.47876380  0.25374507
   0.11345637  0.99639893  0.31044068
   0.38116606  0.64711383  0.32339081
   0.40666306  0.05685205  0.23861700
   0.60513091  0.50375228  0.26397599
   0.61449275  0.00390710  0.32123396
   0.86472737  0.34548625  0.32039874
   0.85801538  0.86168980  0.26399232
   0.17490773  0.64004418  0.31105617
   0.24409942  0.16766678  0.26814615
   0.53664805  0.35082211  0.32051258
   0.50195477  0.81351843  0.27574548
   0.79647461  0.57383398  0.28273918
   0.83173442  0.00441406  0.31757742
   0.09410851  0.49045592  0.36686670
   0.09341224  0.99357307  0.42062986
   0.38117668  0.66794847  0.42370024
   0.38420530  0.17130216  0.36789605
   0.61929317  0.51647227  0.37406109
   0.61341447  0.00891096  0.42333464
   0.87166456  0.33989689  0.42377016
   0.87431434  0.84659798  0.37084649
   0.17878147  0.65578429  0.41983333
   0.18080071  0.15237376  0.36761845
   0.50445836  0.33700271  0.42233802
   0.50380215  0.84155877  0.37310071
   0.83011657  0.51291214  0.37301245
   0.82257622  0.00836898  0.42237809
   0.09341347  0.49467761  0.47336609
   0.09341324  0.99467763  0.52663385
   0.38241011  0.66825960  0.52624112
   0.38241015  0.16825955  0.47375877
   0.61283745  0.50549986  0.47368120
   0.61283744  0.00549998  0.52631873
   0.86785217  0.33990515  0.52610477
   0.86785216  0.83990505  0.47389555
   0.17994520  0.65776527  0.52628253
   0.17994527  0.15776508  0.47371741
   0.50973196  0.33897757  0.52515012
   0.50973211  0.83897757  0.47484979
   0.82096996  0.50749581  0.47478272
   0.82097005  0.00749588  0.52521748
   0.09341200  0.49357296  0.57937003
   0.09410844  0.99045564  0.63313312
   0.38420542  0.67130213  0.63210377
   0.38117667  0.16794832  0.57629963
   0.61341449  0.50891076  0.57666531
   0.61929343  0.01647221  0.62593879
   0.87431470  0.34659756  0.62915377
   0.87166436  0.83989724  0.57623022
   0.18080086  0.65237372  0.63238132
   0.17878137  0.15578436  0.58016652
   0.50380220  0.34155861  0.62689921
   0.50445850  0.83700250  0.57766184
   0.82257621  0.50836921  0.57762227
   0.83011667  0.01291143  0.62698815
   0.11345640  0.49639880  0.68955905
   0.15624320  0.97876385  0.74625465
   0.40666273  0.55685140  0.76138282
   0.38116615  0.14711359  0.67660896
   0.61449286  0.50390691  0.67876596
   0.60513067  0.00375187  0.73602390
   0.85801554  0.36168981  0.73600797
   0.86472804  0.84548586  0.67960186
   0.24409943  0.66766678  0.73185351
   0.17490775  0.14004411  0.68894357
   0.50195462  0.31351813  0.72425437
   0.53664831  0.85082195  0.67948719
   0.83173437  0.50441345  0.68242282
   0.79647472  0.07383327  0.71726143
Direct configuration=          17
   0.15621998  0.47868769  0.25378690
   0.11352866  0.99629891  0.31046896
   0.38118978  0.64737107  0.32334085
   0.40606858  0.05615832  0.23845502
   0.60500928  0.50378931  0.26396968
   0.61433389  0.00374788  0.32115836
   0.86486001  0.34531353  0.32036670
   0.85803345  0.86131050  0.26399519
   0.17497074  0.63993738  0.31106550
   0.24405485  0.16782534  0.26815313
   0.53694391  0.35109792  0.32054768
   0.50169190  0.81326264  0.27568407
   0.79633636  0.57386387  0.28268197
   0.83192432  0.00439046  0.31758133
   0.09414856  0.49053540  0.36687940
   0.09349555  0.99372027  0.42065200
   0.38118664  0.66826330  0.42370388
   0.38427713  0.17134311  0.36788718
   0.61940886  0.51682313  0.37409899
   0.61334960  0.00881201  0.42332698
   0.87177728  0.33980400  0.42378667
   0.87423377  0.84646938  0.37081820
   0.17878063  0.65576092  0.41983425
   0.18087196  0.15248957  0.36760617
   0.50452589  0.33710539  0.42235644
   0.50388755  0.84158089  0.37306525
   0.83016331  0.51247172  0.37304165
   0.82262449  0.00841730  0.42236884
   0.09340826  0.49481860  0.47339604
   0.09340808  0.99481865  0.52660388
   0.38235543  0.66849513  0.52623899
   0.38235549  0.16849507  0.47376088
   0.61285328  0.50571426  0.47370254
   0.61285329  0.00571435  0.52629741
   0.86781925  0.33981455  0.52611248
   0.86781923  0.83981434  0.47388774
   0.17995164  0.65795118  0.52628336
   0.17995171  0.15795102  0.47371658
   0.50969096  0.33906619  0.52513194
   0.50969108  0.83906620  0.47486799
   0.82102336  0.50749140  0.47480388
   0.82102345  0.00749124  0.52519625
   0.09349534  0.49372023  0.57934787
   0.09414851  0.99053514  0.63312042
   0.38427725  0.67134308  0.63211265
   0.38118663  0.16826317  0.57629600
   0.61334963  0.50881182  0.57667298
   0.61940910  0.01682307  0.62590091
   0.87423400  0.34646907  0.62918208
   0.87177699  0.83980447  0.57621366
   0.18087212  0.65248954  0.63239362
   0.17878058  0.15576101  0.58016562
   0.50388760  0.34158074  0.62693468
   0.50452604  0.83710526  0.57764342
   0.82262452  0.50841748  0.57763147
   0.83016353  0.01247123  0.62695899
   0.11352863  0.49629879  0.68953079
   0.15622013  0.97868773  0.74621283
   0.40606823  0.55615776  0.76154480
   0.38118988  0.14737090  0.67665893
   0.61433401  0.50374770  0.67884156
   0.60500902  0.00378892  0.73603023
   0.85803350  0.36131056  0.73600511
   0.86486060  0.84531313  0.67963388
   0.24405486  0.66782531  0.73184655
   0.17497078  0.13993738  0.68893424
   0.50169180  0.31326230  0.72431579
   0.53694412  0.85109775  0.67945214
   0.83192438  0.50438969  0.68241892
   0.79633641  0.07386338  0.71731864
Direct configuration=          18
   0.15620462  0.47863711  0.25381469
   0.11357670  0.99623243  0.31048775
   0.38120554  0.64754204  0.32330765
   0.40567348  0.05569725  0.23834736
   0.60492845  0.50381392  0.26396549
   0.61422831  0.00364206  0.32110812
   0.86494816  0.34519874  0.32034540
   0.85804545  0.86105842  0.26399709
   0.17501262  0.63986639  0.31107171
   0.24402523  0.16793072  0.26815776
   0.53714055  0.35128123  0.32057100
   0.50151720  0.81309264  0.27564326
   0.79624448  0.57388373  0.28264395
   0.83205052  0.00437478  0.31758394
   0.09417517  0.49058823  0.36688784
   0.09355092  0.99381810  0.42066672
   0.38119326  0.66847254  0.42370630
   0.38432487  0.17137032  0.36788128
   0.61948575  0.51705631  0.37412419
   0.61330648  0.00874625  0.42332189
   0.87185219  0.33974226  0.42379765
   0.87418022  0.84638391  0.37079939
   0.17878008  0.65574538  0.41983487
   0.18091931  0.15256654  0.36759801
   0.50457078  0.33717364  0.42236869
   0.50394431  0.84159559  0.37304168
   0.83019437  0.51217901  0.37306105
   0.82265657  0.00844942  0.42236269
   0.09340480  0.49491231  0.47341595
   0.09340464  0.99491237  0.52658397
   0.38231909  0.66865166  0.52623758
   0.38231916  0.16865160  0.47376229
   0.61286380  0.50585675  0.47371672
   0.61286383  0.00585683  0.52628323
   0.86779736  0.33975433  0.52611760
   0.86779735  0.83975406  0.47388254
   0.17995591  0.65807475  0.52628391
   0.17995599  0.15807460  0.47371602
   0.50966371  0.33912509  0.52511985
   0.50966381  0.83912509  0.47488008
   0.82105884  0.50748846  0.47481793
   0.82105894  0.00748815  0.52518214
   0.09355073  0.49381811  0.57933315
   0.09417513  0.99058798  0.63311198
   0.38432499  0.67137030  0.63211855
   0.38119325  0.16847242  0.57629358
   0.61330652  0.50874606  0.57667807
   0.61948598  0.01705626  0.62587573
   0.87418037  0.34638367  0.62920090
   0.87185184  0.83974281  0.57620265
   0.18091948  0.65256652  0.63240180
   0.17878006  0.15574550  0.58016502
   0.50394436  0.34159545  0.62695826
   0.50457092  0.83717355  0.57763118
   0.82265663  0.50844956  0.57763759
   0.83019468  0.01217866  0.62693962
   0.11357664  0.49623232  0.68951201
   0.15620479  0.97863713  0.74618504
   0.40567311  0.55569675  0.76165245
   0.38120564  0.14754190  0.67669214
   0.61422843  0.50364189  0.67889180
   0.60492817  0.00381354  0.73603444
   0.85804543  0.36105850  0.73600322
   0.86494870  0.84519833  0.67965516
   0.24402523  0.66793068  0.73184193
   0.17501267  0.13986645  0.68892804
   0.50151713  0.31309228  0.72435661
   0.53714073  0.85128105  0.67942885
   0.83205065  0.50437391  0.68241632
   0.79624448  0.07388339  0.71735667
Direct configuration=          19
   0.15619603  0.47870088  0.25383894
   0.11353931  0.99607988  0.31051321
   0.38123890  0.64763018  0.32329901
   0.40506007  0.05475723  0.23818831
   0.60482072  0.50370215  0.26397904
   0.61412886  0.00361536  0.32098771
   0.86505285  0.34519364  0.32030127
   0.85812647  0.86102110  0.26398775
   0.17507826  0.63987393  0.31107939
   0.24392944  0.16793314  0.26816213
   0.53753542  0.35143336  0.32062883
   0.50121208  0.81329198  0.27553662
   0.79609525  0.57344865  0.28264482
   0.83219821  0.00414919  0.31755845
   0.09421864  0.49066382  0.36688964
   0.09361588  0.99390545  0.42066074
   0.38121774  0.66876173  0.42369605
   0.38443946  0.17152682  0.36789099
   0.61958854  0.51707473  0.37418550
   0.61321547  0.00882893  0.42328629
   0.87204717  0.33956537  0.42385631
   0.87407724  0.84619784  0.37078571
   0.17880411  0.65573398  0.41983415
   0.18100723  0.15264697  0.36757164
   0.50468982  0.33741033  0.42237816
   0.50382853  0.84179643  0.37300219
   0.83028320  0.51177008  0.37305722
   0.82270757  0.00849917  0.42234476
   0.09333897  0.49511918  0.47343262
   0.09333887  0.99511928  0.52656728
   0.38234246  0.66873443  0.52623233
   0.38234251  0.16873438  0.47376754
   0.61283124  0.50598572  0.47373094
   0.61283129  0.00598578  0.52626902
   0.86782502  0.33981487  0.52615515
   0.86782510  0.83981461  0.47384492
   0.17994642  0.65831981  0.52630540
   0.17994648  0.15831969  0.47369451
   0.50961547  0.33919800  0.52510367
   0.50961553  0.83919800  0.47489627
   0.82114707  0.50761746  0.47483774
   0.82114720  0.00761730  0.52516225
   0.09361574  0.49390551  0.57933913
   0.09421861  0.99066360  0.63311019
   0.38443956  0.67152680  0.63210885
   0.38121774  0.16876166  0.57630384
   0.61321550  0.50882876  0.57671368
   0.61958873  0.01707467  0.62581445
   0.87407729  0.34619780  0.62921455
   0.87204671  0.83956599  0.57614398
   0.18100737  0.65264693  0.63242820
   0.17880414  0.15573413  0.58016575
   0.50382860  0.34179624  0.62699775
   0.50468998  0.83741029  0.57762173
   0.82270774  0.50849924  0.57765540
   0.83028363  0.01176975  0.62694344
   0.11353919  0.49607981  0.68948655
   0.15619623  0.97870087  0.74616081
   0.40505974  0.55475680  0.76181151
   0.38123898  0.14763009  0.67670081
   0.61412897  0.50361517  0.67901222
   0.60482040  0.00370176  0.73602093
   0.85812637  0.36102129  0.73601261
   0.86505323  0.84519331  0.67969928
   0.24392941  0.66793310  0.73183758
   0.17507835  0.13987403  0.68892039
   0.50121203  0.31329174  0.72446327
   0.53753555  0.85143314  0.67937106
   0.83219843  0.50414848  0.68244181
   0.79609523  0.07344821  0.71735579
Direct configuration=          20
   0.15618956  0.47874891  0.25385721
   0.11351115  0.99596497  0.31053239
   0.38126403  0.64769656  0.32329250
   0.40459806  0.05404922  0.23806851
   0.60473958  0.50361797  0.26398925
   0.61405395  0.00359524  0.32089701
   0.86513170  0.34518980  0.32026803
   0.85818749  0.86099300  0.26398071
   0.17512771  0.63987961  0.31108517
   0.24385730  0.16793496  0.26816542
   0.53783283  0.35154793  0.32067239
   0.50098226  0.81344213  0.27545630
   0.79598286  0.57312095  0.28264547
   0.83230944  0.00397927  0.31753925
   0.09425138  0.49072075  0.36689100
   0.09366482  0.99397125  0.42065624
   0.38123618  0.66897955  0.42368833
   0.38452577  0.17164470  0.36789831
   0.61966596  0.51708860  0.37423168
   0.61314692  0.00889121  0.42325947
   0.87219403  0.33943213  0.42390048
   0.87399967  0.84605770  0.37077540
   0.17882222  0.65572539  0.41983361
   0.18107345  0.15270755  0.36755178
   0.50477948  0.33758861  0.42238529
   0.50374133  0.84194770  0.37297245
   0.83035011  0.51146208  0.37305434
   0.82274597  0.00853665  0.42233126
   0.09328940  0.49527499  0.47344517
   0.09328934  0.99527513  0.52655472
   0.38236007  0.66879678  0.52622837
   0.38236010  0.16879673  0.47377149
   0.61280671  0.50608285  0.47374164
   0.61280679  0.00608291  0.52625831
   0.86784586  0.33986047  0.52618342
   0.86784599  0.83986021  0.47381658
   0.17993926  0.65850438  0.52632158
   0.17993932  0.15850429  0.47367831
   0.50957913  0.33925293  0.52509148
   0.50957917  0.83925291  0.47490847
   0.82121353  0.50771463  0.47485266
   0.82121368  0.00771457  0.52514727
   0.09366471  0.49397135  0.57934364
   0.09425135  0.99072056  0.63310884
   0.38452584  0.67164467  0.63210154
   0.38123618  0.16897950  0.57631156
   0.61314694  0.50889104  0.57674050
   0.61966611  0.01708854  0.62576830
   0.87399966  0.34605780  0.62922483
   0.87219348  0.83943281  0.57609979
   0.18107358  0.65270750  0.63244808
   0.17882228  0.15572557  0.58016630
   0.50374142  0.34194748  0.62702749
   0.50477965  0.83758860  0.57761461
   0.82274623  0.50853665  0.57766882
   0.83035064  0.01146176  0.62694631
   0.11351099  0.49596493  0.68946738
   0.15618979  0.97874887  0.74614256
   0.40459775  0.55404884  0.76193131
   0.38126409  0.14769650  0.67670734
   0.61405406  0.50359505  0.67910292
   0.60473923  0.00361756  0.73601076
   0.85818733  0.36099326  0.73601969
   0.86513195  0.84518953  0.67973251
   0.24385723  0.66793493  0.73183430
   0.17512782  0.13987973  0.68891462
   0.50098223  0.31344197  0.72454361
   0.53783294  0.85154769  0.67932754
   0.83230974  0.50397870  0.68246100
   0.79598281  0.07312044  0.71735513
Direct configuration=          21
   0.15618705  0.47886429  0.25385044
   0.11340419  0.99593086  0.31053986
   0.38134533  0.64764187  0.32331067
   0.40403157  0.05316839  0.23788628
   0.60462945  0.50363530  0.26399523
   0.61401984  0.00352944  0.32078120
   0.86522079  0.34497012  0.32026734
   0.85820105  0.86058870  0.26397630
   0.17519994  0.63997206  0.31110752
   0.24367895  0.16780055  0.26817405
   0.53813787  0.35159976  0.32073553
   0.50080215  0.81352205  0.27538200
   0.79591088  0.57319113  0.28261745
   0.83239159  0.00373821  0.31751075
   0.09428362  0.49071178  0.36688325
   0.09373157  0.99399877  0.42061251
   0.38125519  0.66910093  0.42366954
   0.38457640  0.17196781  0.36791079
   0.61978541  0.51712895  0.37428400
   0.61311962  0.00902485  0.42322457
   0.87237823  0.33941412  0.42393151
   0.87389475  0.84584912  0.37078209
   0.17885520  0.65581263  0.41984913
   0.18117655  0.15272700  0.36754472
   0.50481431  0.33776444  0.42240377
   0.50358096  0.84219787  0.37292059
   0.83050150  0.51116776  0.37305374
   0.82274364  0.00849804  0.42229506
   0.09325223  0.49551165  0.47344592
   0.09325223  0.99551183  0.52655397
   0.38238649  0.66882116  0.52622874
   0.38238650  0.16882112  0.47377114
   0.61284551  0.50616518  0.47375346
   0.61284560  0.00616525  0.52624648
   0.86790224  0.34002708  0.52620390
   0.86790245  0.84002687  0.47379605
   0.17993158  0.65874915  0.52633956
   0.17993162  0.15874905  0.47366031
   0.50952834  0.33936805  0.52510730
   0.50952834  0.83936803  0.47489266
   0.82129523  0.50784181  0.47487839
   0.82129545  0.00784185  0.52512148
   0.09373151  0.49399889  0.57938737
   0.09428360  0.99071166  0.63311660
   0.38457645  0.67196776  0.63208908
   0.38125521  0.16910091  0.57633036
   0.61311963  0.50902471  0.57677541
   0.61978552  0.01712883  0.62571600
   0.87389467  0.34584938  0.62921808
   0.87237757  0.83941487  0.57606872
   0.18117665  0.65272697  0.63245514
   0.17885524  0.15581282  0.58015077
   0.50358107  0.34219762  0.62707935
   0.50481451  0.83776444  0.57759615
   0.82274401  0.50849804  0.57770492
   0.83050210  0.01116746  0.62694684
   0.11340399  0.49593082  0.68945993
   0.15618727  0.97886431  0.74614935
   0.40403126  0.55316813  0.76211356
   0.38134537  0.14764185  0.67668921
   0.61401994  0.50352923  0.67921875
   0.60462904  0.00363491  0.73600483
   0.85820075  0.36058890  0.73602409
   0.86522093  0.84496994  0.67973320
   0.24367888  0.66780045  0.73182568
   0.17520007  0.13997220  0.68889228
   0.50080215  0.31352195  0.72461792
   0.53813795  0.85159951  0.67926443
   0.83239195  0.50373777  0.68248954
   0.79591084  0.07319076  0.71738318
Direct configuration=          22
   0.15618452  0.47898042  0.25384363
   0.11329653  0.99589653  0.31054738
   0.38142715  0.64758682  0.32332895
   0.40346137  0.05228179  0.23770285
   0.60451861  0.50365275  0.26400124
   0.61398551  0.00346321  0.32066463
   0.86531047  0.34474901  0.32026664
   0.85821468  0.86018175  0.26397187
   0.17527265  0.64006512  0.31113003
   0.24349944  0.16766527  0.26818275
   0.53844491  0.35165194  0.32079908
   0.50062085  0.81360250  0.27530722
   0.79583844  0.57326177  0.28258925
   0.83247428  0.00349558  0.31748206
   0.09431606  0.49070275  0.36687545
   0.09379876  0.99402647  0.42056849
   0.38127432  0.66922311  0.42365063
   0.38462736  0.17229305  0.36792336
   0.61990564  0.51716956  0.37433667
   0.61309213  0.00915937  0.42318944
   0.87256364  0.33939599  0.42396274
   0.87378913  0.84563917  0.37078883
   0.17888840  0.65590044  0.41986475
   0.18128032  0.15274659  0.36753762
   0.50484936  0.33794142  0.42242237
   0.50341954  0.84244967  0.37286840
   0.83065388  0.51087151  0.37305314
   0.82274129  0.00845917  0.42225863
   0.09321482  0.49574986  0.47344668
   0.09321488  0.99575008  0.52655322
   0.38241309  0.66884570  0.52622911
   0.38241308  0.16884567  0.47377078
   0.61288457  0.50624805  0.47376536
   0.61288466  0.00624812  0.52623457
   0.86795899  0.34019478  0.52622451
   0.86795927  0.84019461  0.47377538
   0.17992384  0.65899552  0.52635765
   0.17992387  0.15899542  0.47364219
   0.50947723  0.33948393  0.52512322
   0.50947718  0.83948391  0.47487674
   0.82137747  0.50796982  0.47490430
   0.82137776  0.00796995  0.52509551
   0.09379876  0.49402662  0.57943140
   0.09431606  0.99070269  0.63312441
   0.38462738  0.67229298  0.63207653
   0.38127437  0.16922312  0.57634928
   0.61309214  0.50915926  0.57681054
   0.61990571  0.01716940  0.62566336
   0.87378900  0.34563959  0.62921128
   0.87256286  0.83939681  0.57603745
   0.18128040  0.65274656  0.63246224
   0.17888841  0.15590064  0.58013513
   0.50341967  0.34244940  0.62713155
   0.50484959  0.83794142  0.57757757
   0.82274178  0.50845918  0.57774125
   0.83065455  0.01087123  0.62694737
   0.11329629  0.49589649  0.68945243
   0.15618475  0.97898051  0.74615619
   0.40346107  0.55228165  0.76229700
   0.38142719  0.14758684  0.67667095
   0.61398560  0.50346299  0.67933533
   0.60451813  0.00365238  0.73599887
   0.85821427  0.36018189  0.73602853
   0.86531050  0.84474892  0.67973389
   0.24349937  0.66766509  0.73181701
   0.17527280  0.14006526  0.68886980
   0.50062089  0.31360245  0.72469272
   0.53844497  0.85165167  0.67920091
   0.83247471  0.50349526  0.68251826
   0.79583839  0.07326153  0.71741143
Direct configuration=          23
   0.15626145  0.47913277  0.25385646
   0.11311281  0.99598125  0.31056814
   0.38154456  0.64750258  0.32335672
   0.40272634  0.05115348  0.23749409
   0.60441112  0.50370748  0.26400455
   0.61397329  0.00330834  0.32056813
   0.86526665  0.34451216  0.32024862
   0.85832844  0.85992469  0.26391655
   0.17537712  0.64010840  0.31112871
   0.24329578  0.16749796  0.26813829
   0.53873593  0.35174602  0.32085265
   0.50041782  0.81355115  0.27523712
   0.79577458  0.57292218  0.28261018
   0.83251388  0.00323476  0.31747582
   0.09438726  0.49063146  0.36688932
   0.09385513  0.99411604  0.42052467
   0.38130311  0.66921239  0.42362724
   0.38463902  0.17279630  0.36793047
   0.62002460  0.51750600  0.37438147
   0.61309751  0.00926596  0.42314229
   0.87273272  0.33944323  0.42396964
   0.87369185  0.84541619  0.37077327
   0.17891122  0.65600554  0.41986429
   0.18137512  0.15280057  0.36751796
   0.50484225  0.33806938  0.42246362
   0.50334978  0.84268735  0.37279440
   0.83089796  0.51058283  0.37307041
   0.82267157  0.00849217  0.42221690
   0.09322296  0.49603265  0.47345605
   0.09322307  0.99603287  0.52654384
   0.38237892  0.66889601  0.52623127
   0.38237889  0.16889600  0.47376865
   0.61296885  0.50637440  0.47379321
   0.61296891  0.00637446  0.52620670
   0.86805593  0.34040482  0.52623245
   0.86805622  0.84040462  0.47376737
   0.17987678  0.65921609  0.52638275
   0.17987678  0.15921599  0.47361708
   0.50951172  0.33962646  0.52517761
   0.50951163  0.83962644  0.47482237
   0.82146540  0.50814086  0.47492372
   0.82146577  0.00814086  0.52507604
   0.09385517  0.49411624  0.57947520
   0.09438728  0.99063148  0.63311056
   0.38463901  0.67279616  0.63206945
   0.38130316  0.16921237  0.57637268
   0.61309755  0.50926589  0.57685769
   0.62002466  0.01750575  0.62561859
   0.87369165  0.34541675  0.62922681
   0.87273188  0.83944405  0.57603044
   0.18137517  0.65280060  0.63248191
   0.17891123  0.15600571  0.58013559
   0.50334991  0.34268708  0.62720556
   0.50484252  0.83806940  0.57753635
   0.82267215  0.50849229  0.57778292
   0.83089865  0.01058274  0.62692999
   0.11311255  0.49598119  0.68943169
   0.15626167  0.97913288  0.74614338
   0.40272608  0.55115348  0.76250579
   0.38154461  0.14750263  0.67664322
   0.61397337  0.50330812  0.67943183
   0.60441056  0.00370711  0.73599561
   0.85832794  0.35992503  0.73608386
   0.86526656  0.84451237  0.67975190
   0.24329567  0.66749780  0.73186148
   0.17537727  0.14010851  0.68887114
   0.50041786  0.31355116  0.72476284
   0.53873598  0.85174579  0.67914739
   0.83251434  0.50323449  0.68252452
   0.79577444  0.07292176  0.71739054
Direct configuration=          24
   0.15629542  0.47920005  0.25386213
   0.11303168  0.99601866  0.31057731
   0.38159641  0.64746538  0.32336898
   0.40240174  0.05065521  0.23740189
   0.60436365  0.50373164  0.26400601
   0.61396789  0.00323994  0.32052552
   0.86524730  0.34440756  0.32024066
   0.85837867  0.85981118  0.26389213
   0.17542326  0.64012752  0.31112814
   0.24320584  0.16742408  0.26811866
   0.53886445  0.35178756  0.32087631
   0.50032815  0.81352848  0.27520616
   0.79574638  0.57277221  0.28261942
   0.83253136  0.00311958  0.31747306
   0.09441871  0.49059997  0.36689544
   0.09388003  0.99415559  0.42050532
   0.38131582  0.66920765  0.42361691
   0.38464417  0.17301854  0.36793361
   0.62007713  0.51765457  0.37440125
   0.61309989  0.00931303  0.42312147
   0.87280739  0.33946409  0.42397269
   0.87364889  0.84531772  0.37076639
   0.17892130  0.65605195  0.41986408
   0.18141699  0.15282441  0.36750928
   0.50483912  0.33812590  0.42248183
   0.50331897  0.84279230  0.37276172
   0.83100574  0.51045535  0.37307804
   0.82264078  0.00850674  0.42219847
   0.09322656  0.49615753  0.47346019
   0.09322668  0.99615775  0.52653970
   0.38236382  0.66891823  0.52623223
   0.38236379  0.16891822  0.47376771
   0.61300606  0.50643020  0.47380552
   0.61300612  0.00643025  0.52619440
   0.86809873  0.34049757  0.52623596
   0.86809903  0.84049737  0.47376384
   0.17985600  0.65931349  0.52639383
   0.17985599  0.15931340  0.47360599
   0.50952695  0.33968941  0.52520162
   0.50952684  0.83968938  0.47479836
   0.82150423  0.50821639  0.47493229
   0.82150464  0.00821634  0.52506744
   0.09388008  0.49415581  0.57949455
   0.09441873  0.99060004  0.63310444
   0.38464415  0.67301838  0.63206633
   0.38131588  0.16920763  0.57638301
   0.61309993  0.50931298  0.57687851
   0.62007719  0.01765429  0.62559882
   0.87364866  0.34531835  0.62923367
   0.87280651  0.83946491  0.57602734
   0.18141703  0.65282447  0.63249060
   0.17892131  0.15605212  0.58013579
   0.50331911  0.34279204  0.62723825
   0.50483940  0.83812592  0.57751814
   0.82264140  0.50850692  0.57780132
   0.83100645  0.01045533  0.62692232
   0.11303141  0.49601860  0.68942253
   0.15629564  0.97920017  0.74613773
   0.40240149  0.55065526  0.76259799
   0.38159647  0.14746544  0.67663097
   0.61396796  0.50323973  0.67947445
   0.60436305  0.00373128  0.73599417
   0.85837814  0.35981160  0.73610829
   0.86524716  0.84440791  0.67975985
   0.24320571  0.66742392  0.73188112
   0.17542340  0.14012761  0.68887173
   0.50032820  0.31352851  0.72479381
   0.53886450  0.85178735  0.67912375
   0.83253185  0.50311933  0.68252728
   0.79574620  0.07277172  0.71738132
Direct configuration=          25
   0.15639875  0.47926463  0.25386909
   0.11298076  0.99601763  0.31058978
   0.38157987  0.64753261  0.32336787
   0.40211124  0.04983826  0.23734235
   0.60438289  0.50362963  0.26399678
   0.61393882  0.00322218  0.32052115
   0.86509835  0.34423903  0.32024616
   0.85842407  0.85965584  0.26389577
   0.17545323  0.64022258  0.31113606
   0.24308884  0.16732782  0.26805228
   0.53894350  0.35187972  0.32088176
   0.50014712  0.81355549  0.27518179
   0.79579695  0.57269497  0.28262730
   0.83250682  0.00290320  0.31744030
   0.09448806  0.49065893  0.36690445
   0.09386497  0.99426478  0.42051696
   0.38134578  0.66916022  0.42360727
   0.38470643  0.17317762  0.36792489
   0.62007168  0.51796761  0.37440436
   0.61312672  0.00934804  0.42308642
   0.87281243  0.33939105  0.42397988
   0.87366860  0.84534306  0.37074270
   0.17892902  0.65609296  0.41984656
   0.18141466  0.15285874  0.36747862
   0.50484346  0.33816021  0.42250473
   0.50342121  0.84284600  0.37274035
   0.83112294  0.51043574  0.37307634
   0.82258147  0.00863264  0.42219837
   0.09328476  0.49623671  0.47347285
   0.09328485  0.99623686  0.52652702
   0.38232823  0.66898686  0.52622219
   0.38232819  0.16898686  0.47377775
   0.61302182  0.50650436  0.47383917
   0.61302188  0.00650439  0.52616075
   0.86815372  0.34056821  0.52624634
   0.86815396  0.84056800  0.47375343
   0.17979282  0.65933025  0.52641445
   0.17979278  0.15933020  0.47358538
   0.50963259  0.33971769  0.52523527
   0.50963246  0.83971765  0.47476472
   0.82153703  0.50833415  0.47491149
   0.82153741  0.00833403  0.52508820
   0.09386502  0.49426502  0.57948289
   0.09448809  0.99065903  0.63309543
   0.38470642  0.67317744  0.63207506
   0.38134581  0.16916015  0.57639266
   0.61312680  0.50934797  0.57691356
   0.62007178  0.01796731  0.62559571
   0.87366835  0.34534379  0.62925738
   0.87281165  0.83939186  0.57602012
   0.18141470  0.65285881  0.63252126
   0.17892908  0.15609315  0.58015332
   0.50342132  0.34284577  0.62725963
   0.50484375  0.83816025  0.57749525
   0.82258205  0.50863282  0.57780144
   0.83112359  0.01043584  0.62692396
   0.11298051  0.49601757  0.68941005
   0.15639896  0.97926471  0.74613078
   0.40211099  0.54983838  0.76265754
   0.38157995  0.14753265  0.67663209
   0.61393889  0.50322201  0.67947882
   0.60438228  0.00362923  0.73600341
   0.85842353  0.35965630  0.73610465
   0.86509820  0.84423953  0.67975428
   0.24308871  0.66732771  0.73194752
   0.17545336  0.14022268  0.68886382
   0.50014714  0.31355560  0.72481820
   0.53894356  0.85187951  0.67911831
   0.83250729  0.50290298  0.68256000
   0.79579668  0.07269449  0.71737348
Direct configuration=          26
   0.15645704  0.47930106  0.25387302
   0.11295203  0.99601705  0.31059681
   0.38157054  0.64757054  0.32336724
   0.40194736  0.04937740  0.23730876
   0.60439375  0.50357209  0.26399158
   0.61392242  0.00321216  0.32051868
   0.86501433  0.34414396  0.32024926
   0.85844968  0.85956820  0.26389783
   0.17547014  0.64027620  0.31114053
   0.24302283  0.16727352  0.26801484
   0.53898809  0.35193171  0.32088484
   0.50004499  0.81357072  0.27516804
   0.79582547  0.57265140  0.28263175
   0.83249297  0.00278114  0.31742182
   0.09452719  0.49069219  0.36690953
   0.09385648  0.99432638  0.42052352
   0.38136268  0.66913346  0.42360184
   0.38474156  0.17326737  0.36791998
   0.62006861  0.51814420  0.37440611
   0.61314185  0.00936779  0.42306666
   0.87281528  0.33934985  0.42398394
   0.87367972  0.84535736  0.37072934
   0.17893338  0.65611609  0.41983668
   0.18141334  0.15287811  0.36746133
   0.50484592  0.33817957  0.42251765
   0.50347888  0.84287630  0.37272830
   0.83118905  0.51042469  0.37307537
   0.82254801  0.00870367  0.42219831
   0.09331759  0.49628138  0.47347999
   0.09331766  0.99628150  0.52651987
   0.38230815  0.66902557  0.52621653
   0.38230811  0.16902558  0.47378342
   0.61303070  0.50654619  0.47385816
   0.61303076  0.00654622  0.52614177
   0.86818474  0.34060806  0.52625219
   0.86818495  0.84060784  0.47374757
   0.17975717  0.65933971  0.52642608
   0.17975712  0.15933967  0.47357376
   0.50969218  0.33973364  0.52525426
   0.50969204  0.83973359  0.47474574
   0.82155554  0.50840058  0.47489976
   0.82155590  0.00840043  0.52509991
   0.09385652  0.49432663  0.57947632
   0.09452721  0.99069231  0.63309035
   0.38474154  0.67326718  0.63207998
   0.38136270  0.16913337  0.57639810
   0.61314195  0.50936770  0.57693333
   0.62006872  0.01814389  0.62559396
   0.87367946  0.34535815  0.62927076
   0.87281455  0.83935065  0.57601604
   0.18141338  0.65287818  0.63253856
   0.17893346  0.15611629  0.58016321
   0.50347899  0.34287608  0.62727169
   0.50484620  0.83817962  0.57748233
   0.82254857  0.50870384  0.57780151
   0.83118968  0.01042484  0.62692489
   0.11295180  0.49601698  0.68940302
   0.15645724  0.97930112  0.74612686
   0.40194711  0.54937755  0.76269113
   0.38157063  0.14757057  0.67663272
   0.61392250  0.50321201  0.67948129
   0.60439313  0.00357166  0.73600862
   0.85844913  0.35956869  0.73610260
   0.86501416  0.84414454  0.67975114
   0.24302270  0.66727343  0.73198497
   0.17547026  0.14027631  0.68885936
   0.50004499  0.31357088  0.72483196
   0.53898816  0.85193151  0.67911524
   0.83249343  0.50278093  0.68257846
   0.79582515  0.07265092  0.71736905
Direct configuration=          27
   0.15657235  0.47945140  0.25386094
   0.11293072  0.99600911  0.31057744
   0.38149743  0.64772727  0.32335907
   0.40163492  0.04852635  0.23722013
   0.60437953  0.50360584  0.26398315
   0.61385303  0.00323933  0.32050393
   0.86478533  0.34387636  0.32027145
   0.85853425  0.85937479  0.26388418
   0.17549945  0.64039844  0.31116064
   0.24286113  0.16706104  0.26794578
   0.53903030  0.35206655  0.32088610
   0.50000545  0.81319968  0.27520442
   0.79589916  0.57259137  0.28263318
   0.83240363  0.00257547  0.31739437
   0.09455006  0.49080401  0.36689320
   0.09381574  0.99438464  0.42050853
   0.38139797  0.66914889  0.42358817
   0.38479472  0.17327380  0.36790245
   0.62005806  0.51832391  0.37440577
   0.61322345  0.00950132  0.42303896
   0.87276772  0.33935649  0.42398099
   0.87374903  0.84551635  0.37072611
   0.17898707  0.65626952  0.41985214
   0.18146369  0.15287798  0.36745640
   0.50483882  0.33824003  0.42253367
   0.50355162  0.84294132  0.37272113
   0.83128642  0.51055131  0.37307140
   0.82249260  0.00871148  0.42219667
   0.09340469  0.49633447  0.47347214
   0.09340474  0.99633453  0.52652773
   0.38231981  0.66909354  0.52619764
   0.38231975  0.16909358  0.47380233
   0.61307441  0.50657116  0.47389095
   0.61307448  0.00657116  0.52610900
   0.86821652  0.34073564  0.52625244
   0.86821667  0.84073537  0.47374730
   0.17978633  0.65937232  0.52643504
   0.17978626  0.15937226  0.47356480
   0.50973803  0.33979282  0.52528487
   0.50973789  0.83979276  0.47471514
   0.82159638  0.50849515  0.47488117
   0.82159668  0.00849505  0.52511846
   0.09381577  0.49438484  0.57949131
   0.09455007  0.99080415  0.63310668
   0.38479472  0.67327361  0.63209752
   0.38139804  0.16914875  0.57641178
   0.61322356  0.50950119  0.57696104
   0.62005817  0.01832362  0.62559430
   0.87374880  0.34551711  0.62927398
   0.87276719  0.83935729  0.57601897
   0.18146371  0.65287806  0.63254347
   0.17898712  0.15626972  0.58014774
   0.50355173  0.34294111  0.62727886
   0.50483910  0.83824006  0.57746633
   0.82249309  0.50871157  0.57780318
   0.83128696  0.01055158  0.62692878
   0.11293054  0.49600906  0.68942240
   0.15657250  0.97945146  0.74613895
   0.40163466  0.54852662  0.76277977
   0.38149754  0.14772725  0.67664090
   0.61385311  0.50323919  0.67949607
   0.60437890  0.00360544  0.73601707
   0.85853368  0.35937538  0.73611622
   0.86478509  0.84387715  0.67972889
   0.24286098  0.66706098  0.73205403
   0.17549955  0.14039851  0.68883925
   0.50000546  0.31319980  0.72479558
   0.53903041  0.85206639  0.67911398
   0.83240406  0.50257540  0.68260590
   0.79589880  0.07259082  0.71736762
