       N       E                     dE             d eps       ncg     rms          rms(c)
DAV:   1     0.134375257937E+04    0.13438E+04   -0.52644E+04  6104   0.175E+03
DAV:   2     0.202738097986E+03   -0.11410E+04   -0.10914E+04  6096   0.479E+02
DAV:   3    -0.343733032675E+02   -0.23711E+03   -0.22611E+03  6960   0.205E+02
DAV:   4    -0.552605592123E+02   -0.20887E+02   -0.20620E+02  7688   0.601E+01
DAV:   5    -0.561722739351E+02   -0.91171E+00   -0.90942E+00  8056   0.137E+01    0.207E+01
DAV:   6    -0.530471933113E+02    0.31251E+01   -0.12890E+01  9808   0.455E+01    0.252E+01
DAV:   7    -0.519674197829E+02    0.10798E+01   -0.29033E+01  9352   0.184E+01    0.130E+01
DAV:   8    -0.525899608617E+02   -0.62254E+00   -0.12661E+01  9424   0.189E+01    0.142E+01
DAV:   9    -0.517588198129E+02    0.83114E+00   -0.20352E+01 10296   0.130E+01    0.201E+00
DAV:  10    -0.515197588932E+02    0.23906E+00   -0.80252E-01  8680   0.425E+00    0.147E+00
DAV:  11    -0.514884036566E+02    0.31355E-01   -0.18353E-01  9232   0.160E+00    0.173E+00
DAV:  12    -0.514946470297E+02   -0.62434E-02   -0.38785E-02  7776   0.917E-01    0.138E+00
DAV:  13    -0.515797714250E+02   -0.85124E-01   -0.66880E-01 10176   0.283E+00    0.358E+00
DAV:  14    -0.514950018858E+02    0.84770E-01   -0.22148E-01  8872   0.213E+00    0.800E-01
DAV:  15    -0.514881885626E+02    0.68133E-02   -0.28323E-02  9608   0.541E-01    0.312E-01
DAV:  16    -0.514886612206E+02   -0.47266E-03   -0.35822E-03  7624   0.254E-01    0.344E-01
DAV:  17    -0.514882647537E+02    0.39647E-03   -0.43856E-04  8448   0.940E-02    0.285E-01
DAV:  18    -0.514876966325E+02    0.56812E-03   -0.10181E-03  9160   0.162E-01    0.179E-01
DAV:  19    -0.514875094366E+02    0.18720E-03   -0.42567E-04  9840   0.120E-01    0.889E-02
DAV:  20    -0.514874947183E+02    0.14718E-04   -0.13623E-04  7696   0.419E-02    0.541E-02
DAV:  21    -0.514874919056E+02    0.28127E-05   -0.23602E-05  7648   0.197E-02    0.427E-02
DAV:  22    -0.514874941328E+02   -0.22273E-05   -0.63400E-05  6736   0.372E-02    0.371E-02
DAV:  23    -0.514874892754E+02    0.48574E-05   -0.22546E-05  7816   0.314E-02    0.228E-02
DAV:  24    -0.514874885350E+02    0.74045E-06   -0.15979E-05  5744   0.216E-02    0.251E-02
DAV:  25    -0.514874883242E+02    0.21080E-06   -0.17736E-05  6176   0.291E-02    0.186E-02
DAV:  26    -0.514874871482E+02    0.11760E-05   -0.39156E-06  5872   0.692E-03    0.162E-02
DAV:  27    -0.514874858521E+02    0.12960E-05   -0.91879E-07  3880   0.576E-03    0.119E-02
DAV:  28    -0.514874846781E+02    0.11740E-05   -0.12428E-06  4568   0.538E-03    0.679E-03
DAV:  29    -0.514874849101E+02   -0.23200E-06   -0.51390E-07  3632   0.406E-03
   1 F= -.55714118E+02 E0= -.55711040E+02  d E =-.557141E+02
       N       E                     dE             d eps       ncg     rms          rms(c)
DAV:   1    -0.570314228737E+02   -0.55439E+01   -0.36029E+02  9192   0.151E+02    0.187E+01
DAV:   2    -0.534135333180E+02    0.36179E+01   -0.25292E+01  8368   0.404E+01    0.643E+00
DAV:   3    -0.527416159109E+02    0.67192E+00   -0.28783E+00  8528   0.117E+01    0.323E+00
DAV:   4    -0.531182954437E+02   -0.37668E+00   -0.48336E+00  9080   0.823E+00    0.723E+00
DAV:   5    -0.526268915020E+02    0.49140E+00   -0.83734E+00 10080   0.890E+00    0.214E+00
DAV:   6    -0.526425131464E+02   -0.15622E-01   -0.14587E-01  8760   0.146E+00    0.185E+00
DAV:   7    -0.526016454951E+02    0.40868E-01   -0.30678E-02  8552   0.975E-01    0.130E+00
DAV:   8    -0.525613041172E+02    0.40341E-01   -0.67665E-02 10256   0.128E+00    0.640E-01
DAV:   9    -0.525565610933E+02    0.47430E-02   -0.13934E-02  8720   0.483E-01    0.520E-01
DAV:  10    -0.525547953283E+02    0.17658E-02   -0.24648E-03  8824   0.175E-01    0.439E-01
DAV:  11    -0.525537626901E+02    0.10326E-02   -0.29400E-04  8648   0.743E-02    0.381E-01
DAV:  12    -0.525500470596E+02    0.37156E-02   -0.86787E-03  9944   0.451E-01    0.782E-02
DAV:  13    -0.525500051308E+02    0.41929E-04   -0.90055E-04  7288   0.102E-01    0.757E-02
DAV:  14    -0.525499939176E+02    0.11213E-04   -0.11324E-04  8384   0.431E-02    0.685E-02
DAV:  15    -0.525501212322E+02   -0.12731E-03   -0.10291E-03  8984   0.153E-01    0.873E-02
DAV:  16    -0.525501146170E+02    0.66152E-05   -0.92974E-05  7640   0.435E-02    0.786E-02
DAV:  17    -0.525500214834E+02    0.93134E-04   -0.82029E-05  6376   0.395E-02    0.492E-02
DAV:  18    -0.525500332909E+02   -0.11807E-04   -0.80705E-06  6064   0.172E-02    0.535E-02
DAV:  19    -0.525499809102E+02    0.52381E-04   -0.70810E-05  7152   0.400E-02    0.250E-02
DAV:  20    -0.525499679015E+02    0.13009E-04   -0.35860E-05  8008   0.243E-02    0.544E-03
DAV:  21    -0.525499683613E+02   -0.45985E-06   -0.45569E-06  6104   0.797E-03
   2 F= -.56451257E+02 E0= -.56449863E+02  d E =-.737139E+00
       N       E                     dE             d eps       ncg     rms          rms(c)
DAV:   1    -0.525837475015E+02   -0.33780E-01   -0.35723E+00  9032   0.124E+01    0.264E+00
DAV:   2    -0.525357981838E+02    0.47949E-01   -0.31047E-01  9112   0.594E+00    0.796E-01
DAV:   3    -0.525383137438E+02   -0.25156E-02   -0.16186E-01  9408   0.188E+00    0.744E-01
DAV:   4    -0.525312987061E+02    0.70150E-02   -0.17501E-01  9464   0.174E+00    0.633E-01
DAV:   5    -0.525257102432E+02    0.55885E-02   -0.29718E-02  9024   0.974E-01    0.208E-01
DAV:   6    -0.525259935160E+02   -0.28327E-03   -0.34637E-03  7400   0.243E-01    0.147E-01
DAV:   7    -0.525259828354E+02    0.10681E-04   -0.27915E-04  8320   0.818E-02    0.119E-01
DAV:   8    -0.525259493677E+02    0.33468E-04   -0.25162E-04 10344   0.950E-02    0.388E-02
DAV:   9    -0.525259506878E+02   -0.13202E-05   -0.58265E-05  8728   0.419E-02    0.235E-02
DAV:  10    -0.525259489415E+02    0.17463E-05   -0.74013E-06  6408   0.141E-02    0.161E-02
DAV:  11    -0.525259472983E+02    0.16432E-05   -0.29259E-06  5408   0.695E-03    0.864E-03
DAV:  12    -0.525259472337E+02    0.64687E-07   -0.15791E-06  4032   0.729E-03
   3 F= -.56461123E+02 E0= -.56459443E+02  d E =-.747005E+00
       N       E                     dE             d eps       ncg     rms          rms(c)
DAV:   1    -0.527471081584E+02   -0.22116E+00   -0.78558E+01  7072   0.322E+01    0.667E+00
DAV:   2    -0.528847469144E+02   -0.13764E+00   -0.42737E+00  9024   0.135E+01    0.262E+00
DAV:   3    -0.528543437966E+02    0.30403E-01   -0.36487E-01  8928   0.396E+00    0.166E+00
DAV:   4    -0.528491473759E+02    0.51964E-02   -0.18626E-01  8976   0.283E+00    0.138E+00
DAV:   5    -0.528282615679E+02    0.20886E-01   -0.11180E-01  9128   0.241E+00    0.380E-01
DAV:   6    -0.528281925029E+02    0.69065E-04   -0.34093E-02  7920   0.960E-01    0.374E-01
DAV:   7    -0.528283370882E+02   -0.14459E-03   -0.58746E-03  7456   0.362E-01    0.326E-01
DAV:   8    -0.528284023373E+02   -0.65249E-04   -0.48528E-04  9176   0.828E-02    0.364E-01
DAV:   9    -0.528284883491E+02   -0.86012E-04   -0.11078E-04  8984   0.138E-01    0.375E-01
DAV:  10    -0.528282566222E+02    0.23173E-03   -0.88957E-04  8528   0.161E-01    0.393E-01
DAV:  11    -0.528282044690E+02    0.52153E-04   -0.34556E-04  7672   0.801E-02    0.345E-01
DAV:  12    -0.528281658882E+02    0.38581E-04   -0.39653E-05  8352   0.350E-02    0.295E-01
DAV:  13    -0.528281347135E+02    0.31175E-04   -0.27171E-05  7680   0.400E-02    0.213E-01
DAV:  14    -0.528281063520E+02    0.28361E-04   -0.15382E-04  7600   0.941E-02    0.524E-02
DAV:  15    -0.528281136024E+02   -0.72504E-05   -0.60209E-05  7296   0.625E-02    0.128E-01
DAV:  16    -0.528281130460E+02    0.55646E-06   -0.53607E-06  6120   0.927E-03
   4 F= -.56817527E+02 E0= -.56816712E+02  d E =-.356404E+00
       N       E                     dE             d eps       ncg     rms          rms(c)
DAV:   1    -0.528561478968E+02   -0.28034E-01   -0.64642E+01  7120   0.295E+01    0.615E+00
DAV:   2    -0.529573370997E+02   -0.10119E+00   -0.35530E+00  9128   0.128E+01    0.239E+00
DAV:   3    -0.529343769437E+02    0.22960E-01   -0.35064E-01  8808   0.368E+00    0.156E+00
DAV:   4    -0.529211079420E+02    0.13269E-01   -0.59717E-02  8696   0.177E+00    0.103E+00
DAV:   5    -0.529140348124E+02    0.70731E-02   -0.26310E-02  8256   0.124E+00    0.461E-01
DAV:   6    -0.529141282096E+02   -0.93397E-04   -0.73254E-03  7760   0.402E-01    0.271E-01
DAV:   7    -0.529140877445E+02    0.40465E-04   -0.64291E-04  8384   0.146E-01    0.188E-01
DAV:   8    -0.529140479146E+02    0.39830E-04   -0.83463E-04  9304   0.171E-01    0.573E-02
DAV:   9    -0.529140349346E+02    0.12980E-04   -0.16091E-04  7856   0.706E-02    0.579E-02
DAV:  10    -0.529140354819E+02   -0.54732E-06   -0.32651E-05  7560   0.221E-02    0.438E-02
DAV:  11    -0.529140318716E+02    0.36103E-05   -0.58029E-06  6528   0.134E-02    0.317E-02
DAV:  12    -0.529140297089E+02    0.21627E-05   -0.10296E-05  6704   0.104E-02    0.132E-02
DAV:  13    -0.529140295379E+02    0.17104E-06   -0.18798E-06  4464   0.589E-03
   5 F= -.56954547E+02 E0= -.56953771E+02  d E =-.493424E+00
       N       E                     dE             d eps       ncg     rms          rms(c)
DAV:   1    -0.529054836324E+02    0.85461E-02   -0.21876E+00  7128   0.572E+00    0.103E+00
DAV:   2    -0.529083828712E+02   -0.28992E-02   -0.11948E-01  8792   0.231E+00    0.364E-01
DAV:   3    -0.529076957457E+02    0.68713E-03   -0.91853E-03  8416   0.557E-01    0.278E-01
DAV:   4    -0.529072915082E+02    0.40424E-03   -0.10394E-03  8872   0.189E-01    0.162E-01
DAV:   5    -0.529071133673E+02    0.17814E-03   -0.34879E-04  8536   0.148E-01    0.620E-02
DAV:   6    -0.529071088022E+02    0.45651E-05   -0.11335E-04  8400   0.700E-02    0.467E-02
DAV:   7    -0.529071103891E+02   -0.15869E-05   -0.24917E-05  7456   0.336E-02    0.200E-02
DAV:   8    -0.529071120508E+02   -0.16617E-05   -0.58875E-06  7072   0.213E-02    0.765E-03
DAV:   9    -0.529071122234E+02   -0.17258E-06   -0.20275E-06  4296   0.104E-02
   6 F= -.56957222E+02 E0= -.56956433E+02  d E =-.496099E+00
       N       E                     dE             d eps       ncg     rms          rms(c)
DAV:   1    -0.529670590926E+02   -0.59947E-01   -0.15711E+01  6456   0.127E+01    0.197E+00
DAV:   2    -0.529922643753E+02   -0.25205E-01   -0.57080E-01  8696   0.373E+00    0.907E-01
DAV:   3    -0.529872070377E+02    0.50573E-02   -0.31294E-02  8384   0.815E-01    0.642E-01
DAV:   4    -0.529841112717E+02    0.30958E-02   -0.50143E-03  8392   0.319E-01    0.375E-01
DAV:   5    -0.529825630773E+02    0.15482E-02   -0.26883E-03  9200   0.372E-01    0.140E-01
DAV:   6    -0.529826216341E+02   -0.58557E-04   -0.12375E-03  8048   0.171E-01    0.122E-01
DAV:   7    -0.529826150795E+02    0.65546E-05   -0.11883E-04  7984   0.636E-02    0.807E-02
DAV:   8    -0.529826129151E+02    0.21644E-05   -0.65160E-05  8168   0.436E-02    0.137E-02
DAV:   9    -0.529826140633E+02   -0.11481E-05   -0.15075E-05  6760   0.225E-02    0.179E-02
DAV:  10    -0.529826141854E+02   -0.12217E-06   -0.13078E-06  4384   0.596E-03
   7 F= -.57026311E+02 E0= -.57025515E+02  d E =-.690894E-01
       N       E                     dE             d eps       ncg     rms          rms(c)
DAV:   1    -0.529918620847E+02   -0.92480E-02   -0.49618E+00  6424   0.706E+00    0.109E+00
DAV:   2    -0.529998562173E+02   -0.79941E-02   -0.17933E-01  8672   0.206E+00    0.504E-01
DAV:   3    -0.529981679791E+02    0.16882E-02   -0.92798E-03  8400   0.436E-01    0.357E-01
DAV:   4    -0.529971684322E+02    0.99955E-03   -0.15749E-03  8456   0.182E-01    0.206E-01
DAV:   5    -0.529966944229E+02    0.47401E-03   -0.85500E-04  9120   0.202E-01    0.762E-02
DAV:   6    -0.529967161343E+02   -0.21711E-04   -0.37909E-04  7896   0.960E-02    0.664E-02
DAV:   7    -0.529967134438E+02    0.26906E-05   -0.35893E-05  8240   0.350E-02    0.410E-02
DAV:   8    -0.529967128645E+02    0.57932E-06   -0.20011E-05  6896   0.257E-02    0.786E-03
DAV:   9    -0.529967129032E+02   -0.38714E-07   -0.43097E-06  6048   0.134E-02
   8 F= -.57036919E+02 E0= -.57036116E+02  d E =-.796977E-01
       N       E                     dE             d eps       ncg     rms          rms(c)
DAV:   1    -0.530079069377E+02   -0.11194E-01   -0.86976E+00  7240   0.110E+01    0.214E+00
DAV:   2    -0.530081127817E+02   -0.20584E-03   -0.39664E-01  8544   0.430E+00    0.813E-01
DAV:   3    -0.530028152951E+02    0.52975E-02   -0.58119E-02  8744   0.151E+00    0.534E-01
DAV:   4    -0.530006432734E+02    0.21720E-02   -0.25717E-02  9056   0.102E+00    0.468E-01
DAV:   5    -0.529984384731E+02    0.22048E-02   -0.95105E-03  8920   0.664E-01    0.137E-01
DAV:   6    -0.529985975222E+02   -0.15905E-03   -0.28805E-03  7240   0.284E-01    0.118E-01
DAV:   7    -0.529985955565E+02    0.19657E-05   -0.36271E-04  8032   0.106E-01    0.807E-02
DAV:   8    -0.529985720458E+02    0.23511E-04   -0.12940E-04  9848   0.642E-02    0.281E-02
DAV:   9    -0.529985760788E+02   -0.40330E-05   -0.52690E-05  7608   0.354E-02    0.188E-02
DAV:  10    -0.529985745368E+02    0.15421E-05   -0.54772E-06  6648   0.128E-02    0.140E-02
DAV:  11    -0.529985741071E+02    0.42967E-06   -0.36822E-06  6112   0.812E-03
   9 F= -.57056931E+02 E0= -.57055860E+02  d E =-.200117E-01
       N       E                     dE             d eps       ncg     rms          rms(c)
DAV:   1    -0.529982981105E+02    0.27643E-03   -0.21039E-03  7424   0.175E-01    0.326E-02
DAV:   2    -0.529982975345E+02    0.57602E-06   -0.93841E-05  8608   0.671E-02    0.123E-02
DAV:   3    -0.529982964256E+02    0.11089E-05   -0.10228E-05  7392   0.258E-02    0.753E-03
DAV:   4    -0.529982960681E+02    0.35759E-06   -0.40132E-06  5200   0.173E-02
  10 F= -.57056935E+02 E0= -.57055863E+02  d E =-.200161E-01
       N       E                     dE             d eps       ncg     rms          rms(c)
DAV:   1    -0.530025019457E+02   -0.42055E-02   -0.55862E+00  6600   0.756E+00    0.771E-01
DAV:   2    -0.530123122957E+02   -0.98104E-02   -0.15027E-01  9152   0.193E+00    0.390E-01
DAV:   3    -0.530113320309E+02    0.98026E-03   -0.42666E-03  8672   0.360E-01    0.273E-01
DAV:   4    -0.530109407905E+02    0.39124E-03   -0.12948E-03  9168   0.258E-01    0.201E-01
DAV:   5    -0.530106624463E+02    0.27834E-03   -0.10657E-03  9296   0.252E-01    0.989E-02
DAV:   6    -0.530105327585E+02    0.12969E-03   -0.66667E-04  8576   0.180E-01    0.528E-02
DAV:   7    -0.530105385880E+02   -0.58295E-05   -0.22444E-04  7712   0.906E-02    0.375E-02
DAV:   8    -0.530105394735E+02   -0.88548E-06   -0.28699E-05  8464   0.243E-02    0.283E-02
DAV:   9    -0.530105385680E+02    0.90547E-06   -0.60950E-06  6568   0.119E-02
  11 F= -.57068195E+02 E0= -.57067147E+02  d E =-.112596E-01
       N       E                     dE             d eps       ncg     rms          rms(c)
DAV:   1    -0.530048081104E+02    0.57314E-02   -0.72809E+00  6648   0.864E+00    0.880E-01
DAV:   2    -0.530176962684E+02   -0.12888E-01   -0.19756E-01  9144   0.222E+00    0.451E-01
DAV:   3    -0.530164148752E+02    0.12814E-02   -0.58732E-03  8672   0.417E-01    0.315E-01
DAV:   4    -0.530158897538E+02    0.52512E-03   -0.23250E-03  9224   0.290E-01    0.232E-01
DAV:   5    -0.530155147398E+02    0.37501E-03   -0.22500E-03  9376   0.286E-01    0.114E-01
DAV:   6    -0.530153492375E+02    0.16550E-03   -0.10302E-03  8616   0.207E-01    0.616E-02
DAV:   7    -0.530153577865E+02   -0.85490E-05   -0.31064E-04  7720   0.102E-01    0.438E-02
DAV:   8    -0.530153586119E+02   -0.82540E-06   -0.35668E-05  8736   0.267E-02    0.326E-02
DAV:   9    -0.530153575840E+02    0.10279E-05   -0.86555E-06  6704   0.132E-02    0.169E-02
DAV:  10    -0.530153576519E+02   -0.67910E-07   -0.44783E-06  6136   0.153E-02
  12 F= -.57071992E+02 E0= -.57071023E+02  d E =-.150567E-01
       N       E                     dE             d eps       ncg     rms          rms(c)
DAV:   1    -0.530821507090E+02   -0.66793E-01   -0.73387E+00  8472   0.128E+01    0.200E+00
DAV:   2    -0.530550856043E+02    0.27065E-01   -0.22726E-01  8720   0.428E+00    0.655E-01
DAV:   3    -0.530495518075E+02    0.55338E-02   -0.17823E-02  8680   0.104E+00    0.402E-01
DAV:   4    -0.530488535415E+02    0.69827E-03   -0.15839E-02  8816   0.817E-01    0.346E-01
DAV:   5    -0.530473519519E+02    0.15016E-02   -0.87754E-03  9176   0.594E-01    0.117E-01
DAV:   6    -0.530472837194E+02    0.68233E-04   -0.12814E-03  7312   0.174E-01    0.782E-02
DAV:   7    -0.530472907861E+02   -0.70667E-05   -0.24961E-04  8688   0.649E-02    0.621E-02
DAV:   8    -0.530472877577E+02    0.30284E-05   -0.55196E-05  8320   0.455E-02    0.318E-02
DAV:   9    -0.530472813017E+02    0.64560E-05   -0.13983E-05  8504   0.267E-02    0.108E-02
DAV:  10    -0.530472818182E+02   -0.51643E-06   -0.33856E-06  6128   0.974E-03
  13 F= -.57077744E+02 E0= -.57076887E+02  d E =-.575159E-02
       N       E                     dE             d eps       ncg     rms          rms(c)
DAV:   1    -0.530526225277E+02   -0.53412E-02   -0.19658E-01  8472   0.205E+00    0.334E-01
DAV:   2    -0.530518963908E+02    0.72614E-03   -0.61086E-03  8800   0.705E-01    0.109E-01
DAV:   3    -0.530517445221E+02    0.15187E-03   -0.43269E-04  8560   0.168E-01    0.676E-02
DAV:   4    -0.530517176549E+02    0.26867E-04   -0.27549E-04  8832   0.130E-01    0.558E-02
DAV:   5    -0.530516758562E+02    0.41799E-04   -0.14770E-04  9264   0.967E-02    0.196E-02
DAV:   6    -0.530516709632E+02    0.48930E-05   -0.33964E-05  7368   0.295E-02    0.123E-02
DAV:   7    -0.530516705344E+02    0.42874E-06   -0.73158E-06  7432   0.108E-02
  14 F= -.57077855E+02 E0= -.57077013E+02  d E =-.586281E-02
       N       E                     dE             d eps       ncg     rms          rms(c)
DAV:   1    -0.530499862137E+02    0.16847E-02   -0.41221E+00  8152   0.781E+00    0.937E-01
DAV:   2    -0.530461127402E+02    0.38735E-02   -0.85383E-02  9176   0.240E+00    0.355E-01
DAV:   3    -0.530451560929E+02    0.95665E-03   -0.74600E-03  8832   0.677E-01    0.194E-01
DAV:   4    -0.530449247544E+02    0.23134E-03   -0.37219E-03  8912   0.494E-01    0.200E-01
DAV:   5    -0.530445168062E+02    0.40795E-03   -0.15888E-03  8640   0.302E-01    0.671E-02
DAV:   6    -0.530445615014E+02   -0.44695E-04   -0.46693E-04  7408   0.825E-02    0.439E-02
DAV:   7    -0.530445624695E+02   -0.96808E-06   -0.29613E-05  8584   0.241E-02    0.454E-02
DAV:   8    -0.530445628024E+02   -0.33299E-06   -0.28923E-06  5672   0.602E-03
  15 F= -.57084011E+02 E0= -.57083244E+02  d E =-.615663E-02
       N       E                     dE             d eps       ncg     rms          rms(c)
DAV:   1    -0.530443807282E+02    0.18174E-03   -0.16768E+01  8152   0.155E+01    0.194E+00
DAV:   2    -0.530287588516E+02    0.15622E-01   -0.34211E-01  9248   0.476E+00    0.708E-01
DAV:   3    -0.530247188214E+02    0.40400E-02   -0.29333E-02  8840   0.124E+00    0.418E-01
DAV:   4    -0.530238228935E+02    0.89593E-03   -0.11941E-02  8888   0.893E-01    0.368E-01
DAV:   5    -0.530224754651E+02    0.13474E-02   -0.54127E-03  8744   0.570E-01    0.134E-01
DAV:   6    -0.530226091462E+02   -0.13368E-03   -0.15935E-03  7424   0.154E-01    0.865E-02
DAV:   7    -0.530226110158E+02   -0.18697E-05   -0.11708E-04  8776   0.488E-02    0.841E-02
DAV:   8    -0.530226113969E+02   -0.38102E-06   -0.26665E-05  8048   0.206E-02    0.564E-02
DAV:   9    -0.530226165705E+02   -0.51736E-05   -0.18442E-05  6792   0.379E-02    0.123E-02
DAV:  10    -0.530226143300E+02    0.22405E-05   -0.12837E-05  7392   0.278E-02    0.463E-03
DAV:  11    -0.530226145676E+02   -0.23760E-06   -0.29915E-06  5584   0.735E-03
  16 F= -.57089181E+02 E0= -.57088570E+02  d E =-.113264E-01
       N       E                     dE             d eps       ncg     rms          rms(c)
DAV:   1    -0.530207148241E+02    0.18995E-02   -0.48969E+00  6160   0.692E+00    0.625E-01
DAV:   2    -0.530299891929E+02   -0.92744E-02   -0.10093E-01  8712   0.151E+00    0.225E-01
DAV:   3    -0.530297429105E+02    0.24628E-03   -0.19432E-03  8488   0.304E-01    0.187E-01
DAV:   4    -0.530296962178E+02    0.46693E-04   -0.42582E-04  9096   0.109E-01    0.123E-01
DAV:   5    -0.530296656259E+02    0.30592E-04   -0.13636E-04  8856   0.660E-02    0.757E-02
DAV:   6    -0.530296637746E+02    0.18513E-05   -0.10156E-04  9168   0.770E-02    0.342E-02
DAV:   7    -0.530296621873E+02    0.15873E-05   -0.38316E-05  8848   0.357E-02    0.174E-02
DAV:   8    -0.530296629343E+02   -0.74703E-06   -0.10326E-05  6392   0.151E-02    0.839E-03
DAV:   9    -0.530296628944E+02    0.39956E-07   -0.93969E-07  4304   0.582E-03
  17 F= -.57094746E+02 E0= -.57094172E+02  d E =-.556494E-02
       N       E                     dE             d eps       ncg     rms          rms(c)
DAV:   1    -0.529549950206E+02    0.74668E-01   -0.44657E+01  6168   0.214E+01    0.188E+00
DAV:   2    -0.530477138873E+02   -0.92719E-01   -0.10028E+00  8688   0.474E+00    0.718E-01
DAV:   3    -0.530457575130E+02    0.19564E-02   -0.20316E-02  8128   0.965E-01    0.567E-01
DAV:   4    -0.530453825320E+02    0.37498E-03   -0.42570E-03  9032   0.344E-01    0.384E-01
DAV:   5    -0.530451000429E+02    0.28249E-03   -0.12252E-03  8632   0.185E-01    0.248E-01
DAV:   6    -0.530450829408E+02    0.17102E-04   -0.89383E-04  9184   0.221E-01    0.102E-01
DAV:   7    -0.530450782182E+02    0.47226E-05   -0.34775E-04  8840   0.104E-01    0.487E-02
DAV:   8    -0.530450844884E+02   -0.62701E-05   -0.96773E-05  6960   0.525E-02    0.302E-02
DAV:   9    -0.530450843076E+02    0.18074E-06   -0.11487E-05  7088   0.177E-02    0.207E-02
DAV:  10    -0.530450837187E+02    0.58896E-06   -0.26456E-06  5608   0.877E-03
  18 F= -.57106013E+02 E0= -.57105527E+02  d E =-.168322E-01
       N       E                     dE             d eps       ncg     rms          rms(c)
DAV:   1    -0.526140897721E+02    0.43099E+00   -0.18694E+02  6216   0.463E+01    0.403E+00
DAV:   2    -0.530615594190E+02   -0.44747E+00   -0.47655E+00  8648   0.985E+00    0.162E+00
DAV:   3    -0.530557406385E+02    0.58188E-02   -0.88796E-02  7648   0.168E+00    0.125E+00
DAV:   4    -0.530543663338E+02    0.13743E-02   -0.20720E-02  9280   0.803E-01    0.861E-01
DAV:   5    -0.530528133170E+02    0.15530E-02   -0.65753E-03  8432   0.408E-01    0.553E-01
DAV:   6    -0.530529333127E+02   -0.12000E-03   -0.38862E-03  8752   0.389E-01    0.215E-01
DAV:   7    -0.530529468786E+02   -0.13566E-04   -0.75224E-04  8144   0.146E-01    0.117E-01
DAV:   8    -0.530529498175E+02   -0.29390E-05   -0.15427E-04  8664   0.547E-02    0.485E-02
DAV:   9    -0.530529497246E+02    0.92976E-07   -0.57012E-05  7352   0.365E-02    0.256E-02
DAV:  10    -0.530529488335E+02    0.89110E-06   -0.14864E-05  7064   0.140E-02    0.124E-02
DAV:  11    -0.530529488739E+02   -0.40474E-07   -0.16665E-06  5136   0.662E-03
  19 F= -.57106810E+02 E0= -.57106350E+02  d E =-.176284E-01
       N       E                     dE             d eps       ncg     rms          rms(c)
DAV:   1    -0.529898861334E+02    0.63063E-01   -0.36366E+01  6136   0.188E+01    0.187E+00
DAV:   2    -0.530543076998E+02   -0.64422E-01   -0.69828E-01  8632   0.381E+00    0.606E-01
DAV:   3    -0.530532480382E+02    0.10597E-02   -0.16383E-02  8256   0.900E-01    0.505E-01
DAV:   4    -0.530530595327E+02    0.18851E-03   -0.37657E-03  9248   0.391E-01    0.358E-01
DAV:   5    -0.530528773857E+02    0.18215E-03   -0.11350E-03  7448   0.140E-01    0.209E-01
DAV:   6    -0.530528928089E+02   -0.15423E-04   -0.59944E-04  8280   0.106E-01    0.540E-02
DAV:   7    -0.530529044033E+02   -0.11594E-04   -0.11594E-04  9144   0.581E-02    0.306E-02
DAV:   8    -0.530529064706E+02   -0.20673E-05   -0.19698E-05  6992   0.168E-02    0.233E-02
DAV:   9    -0.530529058141E+02    0.65644E-06   -0.60199E-06  6784   0.138E-02
  20 F= -.57109765E+02 E0= -.57109319E+02  d E =-.205842E-01
       N       E                     dE             d eps       ncg     rms          rms(c)
DAV:   1    -0.530520056594E+02    0.90081E-03   -0.41582E-01  6544   0.210E+00    0.203E-01
DAV:   2    -0.530528302107E+02   -0.82455E-03   -0.10023E-02  8712   0.476E-01    0.704E-02
DAV:   3    -0.530528055736E+02    0.24637E-04   -0.38846E-04  8344   0.128E-01    0.577E-02
DAV:   4    -0.530527978255E+02    0.77481E-05   -0.74462E-05  8704   0.647E-02    0.449E-02
DAV:   5    -0.530527904848E+02    0.73407E-05   -0.37530E-05  8496   0.444E-02    0.210E-02
DAV:   6    -0.530527920144E+02   -0.15295E-05   -0.11509E-05  6928   0.174E-02    0.109E-02
DAV:   7    -0.530527924992E+02   -0.48488E-06   -0.14584E-06  3936   0.728E-03
  21 F= -.57111291E+02 E0= -.57110857E+02  d E =-.152566E-02
       N       E                     dE             d eps       ncg     rms          rms(c)
DAV:   1    -0.530452735872E+02    0.75184E-02   -0.37389E+00  6544   0.627E+00    0.599E-01
DAV:   2    -0.530527970787E+02   -0.75235E-02   -0.89763E-02  8720   0.139E+00    0.216E-01
DAV:   3    -0.530525334479E+02    0.26363E-03   -0.31522E-03  8144   0.354E-01    0.177E-01
DAV:   4    -0.530524585472E+02    0.74901E-04   -0.66980E-04  8896   0.191E-01    0.132E-01
DAV:   5    -0.530523906512E+02    0.67896E-04   -0.32385E-04  8536   0.127E-01    0.625E-02
DAV:   6    -0.530523985369E+02   -0.78857E-05   -0.10244E-04  7848   0.490E-02    0.314E-02
DAV:   7    -0.530523997423E+02   -0.12053E-05   -0.11357E-05  7272   0.180E-02    0.226E-02
DAV:   8    -0.530524014874E+02   -0.17451E-05   -0.33234E-06  5016   0.122E-02    0.723E-03
DAV:   9    -0.530524021342E+02   -0.64680E-06   -0.25243E-06  5232   0.106E-02
  22 F= -.57115845E+02 E0= -.57115448E+02  d E =-.607908E-02
       N       E                     dE             d eps       ncg     rms          rms(c)
DAV:   1    -0.530225459658E+02    0.29856E-01   -0.14954E+01  6544   0.125E+01    0.120E+00
DAV:   2    -0.530531721926E+02   -0.30626E-01   -0.36035E-01  8712   0.280E+00    0.436E-01
DAV:   3    -0.530518400830E+02    0.13321E-02   -0.11755E-02  8072   0.682E-01    0.356E-01
DAV:   4    -0.530515086705E+02    0.33141E-03   -0.25968E-03  9176   0.341E-01    0.247E-01
DAV:   5    -0.530512882551E+02    0.22042E-03   -0.10613E-03  8488   0.223E-01    0.121E-01
DAV:   6    -0.530513038181E+02   -0.15563E-04   -0.32214E-04  8536   0.952E-02    0.652E-02
DAV:   7    -0.530513082807E+02   -0.44626E-05   -0.34800E-05  7616   0.321E-02    0.476E-02
DAV:   8    -0.530513107043E+02   -0.24236E-05   -0.17352E-05  7696   0.366E-02    0.120E-02
DAV:   9    -0.530513112074E+02   -0.50305E-06   -0.74060E-06  6736   0.163E-02
  23 F= -.57124757E+02 E0= -.57124425E+02  d E =-.149917E-01
       N       E                     dE             d eps       ncg     rms          rms(c)
DAV:   1    -0.529333156965E+02    0.11800E+00   -0.60255E+01  6496   0.250E+01    0.245E+00
DAV:   2    -0.530572897225E+02   -0.12397E+00   -0.14498E+00  8784   0.589E+00    0.897E-01
DAV:   3    -0.530503084601E+02    0.69813E-02   -0.44899E-02  8136   0.146E+00    0.732E-01
DAV:   4    -0.530488220031E+02    0.14865E-02   -0.10304E-02  9296   0.627E-01    0.467E-01
DAV:   5    -0.530481173867E+02    0.70462E-03   -0.32870E-03  8400   0.381E-01    0.240E-01
DAV:   6    -0.530481283220E+02   -0.10935E-04   -0.72542E-04  9032   0.137E-01    0.145E-01
DAV:   7    -0.530481337384E+02   -0.54164E-05   -0.68080E-05  8120   0.441E-02    0.946E-02
DAV:   8    -0.530481299372E+02    0.38012E-05   -0.63899E-05  8832   0.904E-02    0.244E-02
DAV:   9    -0.530481309953E+02   -0.10581E-05   -0.22903E-05  6792   0.251E-02    0.143E-02
DAV:  10    -0.530481310989E+02   -0.10364E-06   -0.11418E-06  3928   0.529E-03
  24 F= -.57142017E+02 E0= -.57141700E+02  d E =-.322516E-01
       N       E                     dE             d eps       ncg     rms          rms(c)
DAV:   1    -0.525492061603E+02    0.49892E+00   -0.25184E+02  6456   0.530E+01    0.576E+00
DAV:   2    -0.530559335733E+02   -0.50673E+00   -0.63269E+00  8784   0.119E+01    0.210E+00
DAV:   3    -0.530459542791E+02    0.99793E-02   -0.18903E-01  8304   0.284E+00    0.163E+00
DAV:   4    -0.530417287007E+02    0.42256E-02   -0.33982E-02  8280   0.125E+00    0.106E+00
DAV:   5    -0.530396451335E+02    0.20836E-02   -0.96405E-03  8992   0.626E-01    0.573E-01
DAV:   6    -0.530395715474E+02    0.73586E-04   -0.21374E-03  9144   0.279E-01    0.267E-01
DAV:   7    -0.530396110892E+02   -0.39542E-04   -0.41521E-04  8800   0.117E-01    0.125E-01
DAV:   8    -0.530396158114E+02   -0.47221E-05   -0.17848E-04  8048   0.122E-01    0.388E-02
DAV:   9    -0.530396217370E+02   -0.59257E-05   -0.37311E-05  7664   0.289E-02    0.252E-02
DAV:  10    -0.530396201775E+02    0.15595E-05   -0.69922E-06  7320   0.129E-02    0.136E-02
DAV:  11    -0.530396199313E+02    0.24626E-06   -0.15798E-06  4720   0.630E-03
  25 F= -.57175878E+02 E0= -.57175605E+02  d E =-.661129E-01
       N       E                     dE             d eps       ncg     rms          rms(c)
DAV:   1    -0.496845534325E+02    0.33551E+01   -0.12553E+03  6888   0.142E+02    0.179E+01
DAV:   2    -0.531705174753E+02   -0.34860E+01   -0.40290E+01  8336   0.267E+01    0.665E+00
DAV:   3    -0.530474543355E+02    0.12306E+00   -0.11635E+00  8368   0.847E+00    0.504E+00
DAV:   4    -0.530374159753E+02    0.10038E-01   -0.20765E-01  8056   0.197E+00    0.358E+00
DAV:   5    -0.530245995582E+02    0.12816E-01   -0.24806E-02  9704   0.126E+00    0.216E+00
DAV:   6    -0.530202232265E+02    0.43763E-02   -0.18086E-02  9744   0.101E+00    0.783E-01
DAV:   7    -0.530205921911E+02   -0.36896E-03   -0.63691E-03  7640   0.352E-01    0.271E-01
DAV:   8    -0.530205951545E+02   -0.29635E-05   -0.95487E-04  8064   0.173E-01    0.126E-01
DAV:   9    -0.530206046654E+02   -0.95109E-05   -0.16232E-04  8160   0.974E-02    0.669E-02
DAV:  10    -0.530206036306E+02    0.10349E-05   -0.65452E-05  8048   0.506E-02    0.241E-02
DAV:  11    -0.530206032155E+02    0.41503E-06   -0.16240E-05  6568   0.175E-02    0.156E-02
DAV:  12    -0.530206026398E+02    0.57574E-06   -0.12223E-06  4400   0.700E-03
  26 F= -.57246183E+02 E0= -.57245919E+02  d E =-.136417E+00
       N       E                     dE             d eps       ncg     rms          rms(c)
DAV:   1    -0.331489234636E+01    0.49706E+02   -0.81600E+03  7056   0.378E+02    0.117E+02
DAV:   2    -0.548591085743E+02   -0.51544E+02   -0.59589E+02  7232   0.118E+02    0.415E+01
DAV:   3    -0.519950953092E+02    0.28640E+01   -0.52892E+01  8000   0.780E+01    0.318E+01
DAV:   4    -0.525512134902E+02   -0.55612E+00   -0.83221E+00  8216   0.176E+01    0.276E+01
DAV:   5    -0.524143629291E+02    0.13685E+00   -0.10117E+00  8312   0.502E+00    0.183E+01
DAV:   6    -0.523499615996E+02    0.64401E-01   -0.25802E-01  9272   0.216E+00    0.111E+01
DAV:   7    -0.522961280432E+02    0.53834E-01   -0.12572E-01  9504   0.357E+00    0.313E+00
DAV:   8    -0.522917955556E+02    0.43325E-02   -0.85556E-02  9200   0.217E+00    0.903E-01
DAV:   9    -0.522904844909E+02    0.13111E-02   -0.18056E-02  7536   0.585E-01    0.735E-01
DAV:  10    -0.522906375158E+02   -0.15302E-03   -0.74045E-03  8224   0.353E-01    0.347E-01
DAV:  11    -0.522903354774E+02    0.30204E-03   -0.12972E-03  7800   0.281E-01    0.140E-01
DAV:  12    -0.522903364629E+02   -0.98553E-06   -0.62035E-04  9656   0.228E-01    0.928E-02
DAV:  13    -0.522903323212E+02    0.41417E-05   -0.18761E-04  7432   0.762E-02    0.572E-02
DAV:  14    -0.522903331037E+02   -0.78250E-06   -0.45424E-05  8464   0.378E-02    0.500E-02
DAV:  15    -0.522903308335E+02    0.22702E-05   -0.10547E-05  8120   0.216E-02    0.218E-02
DAV:  16    -0.522903309279E+02   -0.94389E-07   -0.52862E-06  7424   0.141E-02
  27 F= -.56713168E+02 E0= -.56713168E+02  d E =0.396597E+00
       N       E                     dE             d eps       ncg     rms          rms(c)
DAV:   1    -0.723989548256E+01    0.45050E+02   -0.78431E+03  7056   0.453E+02    0.916E+01
DAV:   2    -0.564093319673E+02   -0.49169E+02   -0.59069E+02  6952   0.149E+02    0.409E+01
DAV:   3    -0.526535860900E+02    0.37557E+01   -0.76398E+01  8328   0.726E+01    0.287E+01
DAV:   4    -0.534387231778E+02   -0.78514E+00   -0.12498E+01  8688   0.208E+01    0.258E+01
DAV:   5    -0.533369550816E+02    0.10177E+00   -0.13441E+00  8312   0.529E+00    0.197E+01
DAV:   6    -0.531216717353E+02    0.21528E+00   -0.49854E-01  8368   0.484E+00    0.110E+01
DAV:   7    -0.530347709956E+02    0.86901E-01   -0.31139E-01  8872   0.351E+00    0.286E+00
DAV:   8    -0.530245146933E+02    0.10256E-01   -0.81983E-02  9256   0.185E+00    0.156E+00
DAV:   9    -0.530181942540E+02    0.63204E-02   -0.17690E-02  9536   0.928E-01    0.140E+00
DAV:  10    -0.530138296112E+02    0.43646E-02   -0.24133E-02  9136   0.172E+00    0.187E-01
DAV:  11    -0.530146171421E+02   -0.78753E-03   -0.84694E-03  6752   0.303E-01    0.163E-01
DAV:  12    -0.530146150487E+02    0.20935E-05   -0.44188E-04  7752   0.126E-01    0.124E-01
DAV:  13    -0.530146253995E+02   -0.10351E-04   -0.26378E-04  8648   0.110E-01    0.127E-01
DAV:  14    -0.530145940429E+02    0.31357E-04   -0.13369E-04  8608   0.706E-02    0.463E-02
DAV:  15    -0.530145935018E+02    0.54106E-06   -0.33532E-05  7536   0.342E-02    0.340E-02
DAV:  16    -0.530145944290E+02   -0.92719E-06   -0.30347E-06  5848   0.152E-02
  28 F= -.57248897E+02 E0= -.57248638E+02  d E =-.139131E+00
       N       E                     dE             d eps       ncg     rms          rms(c)
DAV:   1    -0.501766443525E+02    0.28379E+01   -0.11015E+03  6776   0.130E+02    0.168E+01
DAV:   2    -0.530251733306E+02   -0.28485E+01   -0.33225E+01  8424   0.245E+01    0.595E+00
DAV:   3    -0.529565902673E+02    0.68583E-01   -0.78063E-01  8760   0.569E+00    0.458E+00
DAV:   4    -0.529407810573E+02    0.15809E-01   -0.15108E-01  8512   0.185E+00    0.310E+00
DAV:   5    -0.529305818464E+02    0.10199E-01   -0.26559E-02  9424   0.117E+00    0.169E+00
DAV:   6    -0.529289492435E+02    0.16326E-02   -0.14115E-02  9448   0.738E-01    0.449E-01
DAV:   7    -0.529293358215E+02   -0.38658E-03   -0.37947E-03  6880   0.288E-01    0.228E-01
DAV:   8    -0.529293291630E+02    0.66586E-05   -0.36271E-04  9344   0.128E-01    0.107E-01
DAV:   9    -0.529293285183E+02    0.64465E-06   -0.10987E-04  8456   0.743E-02    0.382E-02
DAV:  10    -0.529293266512E+02    0.18672E-05   -0.25892E-05  7400   0.231E-02    0.221E-02
DAV:  11    -0.529293264957E+02    0.15548E-06   -0.47147E-06  6592   0.105E-02
  29 F= -.57254093E+02 E0= -.57254035E+02  d E =-.144327E+00
       N       E                     dE             d eps       ncg     rms          rms(c)
DAV:   1    -0.522624882770E+02    0.66684E+00   -0.41999E+02  7592   0.829E+01    0.595E+00
DAV:   2    -0.530229558301E+02   -0.76047E+00   -0.94387E+00  8296   0.171E+01    0.260E+00
DAV:   3    -0.530158354307E+02    0.71204E-02   -0.40921E-01  8168   0.412E+00    0.198E+00
DAV:   4    -0.530080832629E+02    0.77522E-02   -0.55464E-02  8448   0.146E+00    0.151E+00
DAV:   5    -0.530013665085E+02    0.67168E-02   -0.21597E-02  8320   0.103E+00    0.515E-01
DAV:   6    -0.530008910825E+02    0.47543E-03   -0.53832E-03  8968   0.462E-01    0.292E-01
DAV:   7    -0.530009174154E+02   -0.26333E-04   -0.97977E-04  7808   0.156E-01    0.180E-01
DAV:   8    -0.530008761383E+02    0.41277E-04   -0.96726E-05  9552   0.704E-02    0.970E-02
DAV:   9    -0.530008445790E+02    0.31559E-04   -0.15198E-04  8608   0.592E-02    0.379E-02
DAV:  10    -0.530008459226E+02   -0.13436E-05   -0.22061E-05  8320   0.276E-02    0.165E-02
DAV:  11    -0.530008465919E+02   -0.66934E-06   -0.39737E-06  5848   0.924E-03
  30 F= -.57266543E+02 E0= -.57266352E+02  d E =-.156778E+00
       N       E                     dE             d eps       ncg     rms          rms(c)
DAV:   1    -0.528030046419E+02    0.19784E+00   -0.91394E+01  6392   0.313E+01    0.325E+00
DAV:   2    -0.529887899286E+02   -0.18579E+00   -0.22017E+00  8576   0.735E+00    0.114E+00
DAV:   3    -0.529805113025E+02    0.82786E-02   -0.76161E-02  8288   0.198E+00    0.910E-01
DAV:   4    -0.529778404269E+02    0.26709E-02   -0.16109E-02  9136   0.109E+00    0.545E-01
DAV:   5    -0.529770668072E+02    0.77362E-03   -0.47526E-03  8552   0.447E-01    0.303E-01
DAV:   6    -0.529770538585E+02    0.12949E-04   -0.64115E-04  8984   0.123E-01    0.191E-01
DAV:   7    -0.529770350271E+02    0.18831E-04   -0.82922E-05  9072   0.926E-02    0.894E-02
DAV:   8    -0.529770410228E+02   -0.59957E-05   -0.85938E-05  8672   0.799E-02    0.254E-02
DAV:   9    -0.529770417902E+02   -0.76739E-06   -0.15148E-05  7512   0.238E-02    0.202E-02
DAV:  10    -0.529770417231E+02    0.67052E-07   -0.89188E-07  3976   0.511E-03
  31 F= -.57271931E+02 E0= -.57271811E+02  d E =-.162165E+00
       N       E                     dE             d eps       ncg     rms          rms(c)
DAV:   1    -0.529609913611E+02    0.16050E-01   -0.88854E+00  6360   0.946E+00    0.823E-01
DAV:   2    -0.529772001053E+02   -0.16209E-01   -0.17654E-01  8624   0.203E+00    0.285E-01
DAV:   3    -0.529766324904E+02    0.56761E-03   -0.44362E-03  8360   0.469E-01    0.232E-01
DAV:   4    -0.529764761235E+02    0.15637E-03   -0.95063E-04  9112   0.228E-01    0.144E-01
DAV:   5    -0.529764273622E+02    0.48761E-04   -0.34435E-04  8560   0.104E-01    0.683E-02
DAV:   6    -0.529764289586E+02   -0.15964E-05   -0.49343E-05  9048   0.375E-02    0.349E-02
DAV:   7    -0.529764303718E+02   -0.14133E-05   -0.70432E-06  7568   0.221E-02    0.193E-02
DAV:   8    -0.529764316562E+02   -0.12844E-05   -0.38871E-06  5848   0.165E-02    0.574E-03
DAV:   9    -0.529764316863E+02   -0.30061E-07   -0.74440E-07  3960   0.509E-03
  32 F= -.57276091E+02 E0= -.57275981E+02  d E =-.416041E-02
       N       E                     dE             d eps       ncg     rms          rms(c)
DAV:   1    -0.529495617905E+02    0.26870E-01   -0.13375E+01  6376   0.116E+01    0.102E+00
DAV:   2    -0.529735745570E+02   -0.24013E-01   -0.26164E-01  8640   0.244E+00    0.347E-01
DAV:   3    -0.529727854957E+02    0.78906E-03   -0.66890E-03  8584   0.564E-01    0.286E-01
DAV:   4    -0.529725676795E+02    0.21782E-03   -0.13612E-03  8968   0.268E-01    0.176E-01
DAV:   5    -0.529724937990E+02    0.73881E-04   -0.53755E-04  8608   0.130E-01    0.804E-02
DAV:   6    -0.529724976851E+02   -0.38862E-05   -0.77961E-05  8808   0.455E-02    0.416E-02
DAV:   7    -0.529724997861E+02   -0.21009E-05   -0.10265E-05  8832   0.235E-02    0.251E-02
DAV:   8    -0.529725013347E+02   -0.15487E-05   -0.69506E-06  6816   0.213E-02    0.605E-03
DAV:   9    -0.529725013257E+02    0.90040E-08   -0.10120E-06  4304   0.639E-03
  33 F= -.57278073E+02 E0= -.57277975E+02  d E =-.614200E-02
       N       E                     dE             d eps       ncg     rms          rms(c)
DAV:   1    -0.529870336018E+02   -0.14532E-01   -0.85509E-02  8712   0.199E+00    0.345E-01
DAV:   2    -0.529860701518E+02    0.96345E-03   -0.68928E-03  8920   0.842E-01    0.101E-01
DAV:   3    -0.529859193330E+02    0.15082E-03   -0.50832E-04  8160   0.175E-01    0.593E-02
DAV:   4    -0.529858723264E+02    0.47007E-04   -0.10867E-04  9296   0.696E-02    0.352E-02
DAV:   5    -0.529858619703E+02    0.10356E-04   -0.14833E-05  8552   0.231E-02    0.119E-02
DAV:   6    -0.529858589994E+02    0.29708E-05   -0.18857E-06  4936   0.139E-02    0.573E-03
DAV:   7    -0.529858580587E+02    0.94072E-06   -0.12041E-06  4032   0.697E-03
  34 F= -.57285920E+02 E0= -.57285809E+02  d E =-.784718E-02
       N       E                     dE             d eps       ncg     rms          rms(c)
DAV:   1    -0.530337044879E+02   -0.47845E-01   -0.77323E-01  8712   0.599E+00    0.102E+00
DAV:   2    -0.530249576442E+02    0.87468E-02   -0.61527E-02  8936   0.249E+00    0.299E-01
DAV:   3    -0.530236182332E+02    0.13394E-02   -0.46655E-03  8128   0.531E-01    0.172E-01
DAV:   4    -0.530232646025E+02    0.35363E-03   -0.98748E-04  9168   0.206E-01    0.105E-01
DAV:   5    -0.530232087825E+02    0.55820E-04   -0.13548E-04  8440   0.728E-02    0.354E-02
DAV:   6    -0.530231964109E+02    0.12372E-04   -0.28432E-05  9840   0.457E-02    0.235E-02
DAV:   7    -0.530231949591E+02    0.14518E-05   -0.70945E-06  6896   0.145E-02    0.774E-03
DAV:   8    -0.530231947873E+02    0.17177E-06   -0.37635E-07  3928   0.461E-03
  35 F= -.57306775E+02 E0= -.57306622E+02  d E =-.287020E-01
       N       E                     dE             d eps       ncg     rms          rms(c)
DAV:   1    -0.531277510945E+02   -0.10456E+00   -0.31137E+00  8696   0.121E+01    0.199E+00
DAV:   2    -0.530928428904E+02    0.34908E-01   -0.24259E-01  8888   0.491E+00    0.590E-01
DAV:   3    -0.530875113929E+02    0.53315E-02   -0.19419E-02  8184   0.106E+00    0.335E-01
DAV:   4    -0.530862008592E+02    0.13105E-02   -0.38472E-03  9152   0.397E-01    0.203E-01
DAV:   5    -0.530860137307E+02    0.18713E-03   -0.52106E-04  8464   0.142E-01    0.692E-02
DAV:   6    -0.530859825235E+02    0.31207E-04   -0.11113E-04  9800   0.845E-02    0.458E-02
DAV:   7    -0.530859800984E+02    0.24251E-05   -0.28709E-05  7424   0.269E-02    0.152E-02
DAV:   8    -0.530859795111E+02    0.58722E-06   -0.16230E-06  5072   0.750E-03
  36 F= -.57336815E+02 E0= -.57336585E+02  d E =-.587422E-01
       N       E                     dE             d eps       ncg     rms          rms(c)
DAV:   1    -0.533324012827E+02   -0.24642E+00   -0.12622E+01  8616   0.244E+01    0.379E+00
DAV:   2    -0.531940363168E+02    0.13836E+00   -0.94547E-01  8600   0.937E+00    0.116E+00
DAV:   3    -0.531724904825E+02    0.21546E-01   -0.83037E-02  8024   0.214E+00    0.647E-01
DAV:   4    -0.531682093126E+02    0.42812E-02   -0.12656E-02  9328   0.677E-01    0.401E-01
DAV:   5    -0.531673274404E+02    0.88187E-03   -0.14135E-03  9288   0.263E-01    0.141E-01
DAV:   6    -0.531672001307E+02    0.12731E-03   -0.38195E-04  9864   0.140E-01    0.725E-02
DAV:   7    -0.531672064721E+02   -0.63414E-05   -0.97067E-05  6952   0.533E-02    0.320E-02
DAV:   8    -0.531672063392E+02    0.13294E-06   -0.76170E-06  7728   0.158E-02
  37 F= -.57353398E+02 E0= -.57353115E+02  d E =-.753252E-01
       N       E                     dE             d eps       ncg     rms          rms(c)
DAV:   1    -0.531621205948E+02    0.50859E-02   -0.48713E-01  8696   0.461E+00    0.800E-01
DAV:   2    -0.531564333710E+02    0.56872E-02   -0.38324E-02  8840   0.199E+00    0.238E-01
DAV:   3    -0.531556279191E+02    0.80545E-03   -0.29591E-03  8120   0.415E-01    0.138E-01
DAV:   4    -0.531554491448E+02    0.17877E-03   -0.59023E-04  9320   0.158E-01    0.840E-02
DAV:   5    -0.531554422350E+02    0.69098E-05   -0.79239E-05  8616   0.532E-02    0.265E-02
DAV:   6    -0.531554447181E+02   -0.24830E-05   -0.15439E-05  9656   0.308E-02    0.168E-02
DAV:   7    -0.531554462216E+02   -0.15035E-05   -0.38087E-06  6128   0.103E-02    0.545E-03
DAV:   8    -0.531554461232E+02    0.98355E-07   -0.31280E-07  3856   0.397E-03
  38 F= -.57354480E+02 E0= -.57354199E+02  d E =-.764078E-01
       N       E                     dE             d eps       ncg     rms          rms(c)
DAV:   1    -0.531625123735E+02   -0.70662E-02   -0.19052E-01  6536   0.147E+00    0.254E-01
DAV:   2    -0.531623016297E+02    0.21074E-03   -0.77092E-03  9336   0.487E-01    0.132E-01
DAV:   3    -0.531621035669E+02    0.19806E-03   -0.46194E-04  8448   0.101E-01    0.800E-02
DAV:   4    -0.531620079305E+02    0.95636E-04   -0.90145E-05  8256   0.567E-02    0.388E-02
DAV:   5    -0.531619806145E+02    0.27316E-04   -0.39842E-05  8712   0.462E-02    0.142E-02
DAV:   6    -0.531619819339E+02   -0.13194E-05   -0.18285E-05  6904   0.259E-02    0.106E-02
DAV:   7    -0.531619820885E+02   -0.15465E-06   -0.15044E-06  4480   0.101E-02
  39 F= -.57360936E+02 E0= -.57360659E+02  d E =-.645599E-02
       N       E                     dE             d eps       ncg     rms          rms(c)
DAV:   1    -0.531814097283E+02   -0.19428E-01   -0.17118E+00  6504   0.440E+00    0.773E-01
DAV:   2    -0.531794883166E+02    0.19214E-02   -0.69169E-02  9296   0.146E+00    0.394E-01
DAV:   3    -0.531777010936E+02    0.17872E-02   -0.42112E-03  8544   0.304E-01    0.243E-01
DAV:   4    -0.531768454338E+02    0.85566E-03   -0.80499E-04  8264   0.169E-01    0.119E-01
DAV:   5    -0.531765911710E+02    0.25426E-03   -0.35371E-04  8896   0.143E-01    0.432E-02
DAV:   6    -0.531766020902E+02   -0.10919E-04   -0.16997E-04  7016   0.797E-02    0.319E-02
DAV:   7    -0.531766038999E+02   -0.18097E-05   -0.17519E-05  8248   0.312E-02    0.178E-02
DAV:   8    -0.531766046037E+02   -0.70378E-06   -0.36991E-06  5896   0.145E-02
  40 F= -.57375355E+02 E0= -.57375108E+02  d E =-.208744E-01
       N       E                     dE             d eps       ncg     rms          rms(c)
DAV:   1    -0.532028253011E+02   -0.26221E-01   -0.68336E+00  6496   0.878E+00    0.158E+00
DAV:   2    -0.531950915937E+02    0.77337E-02   -0.27672E-01  9304   0.291E+00    0.793E-01
DAV:   3    -0.531879443077E+02    0.71473E-02   -0.16901E-02  8576   0.611E-01    0.496E-01
DAV:   4    -0.531845205907E+02    0.34237E-02   -0.32544E-03  8168   0.338E-01    0.246E-01
DAV:   5    -0.531834474336E+02    0.10732E-02   -0.14368E-03  8848   0.297E-01    0.877E-02
DAV:   6    -0.531834899019E+02   -0.42468E-04   -0.71997E-04  6944   0.165E-01    0.652E-02
DAV:   7    -0.531834974423E+02   -0.75404E-05   -0.73615E-05  8480   0.615E-02    0.388E-02
DAV:   8    -0.531835001380E+02   -0.26958E-05   -0.16253E-05  7344   0.310E-02    0.151E-02
DAV:   9    -0.531834994083E+02    0.72973E-06   -0.37688E-06  5976   0.121E-02
  41 F= -.57382004E+02 E0= -.57381882E+02  d E =-.275239E-01
       N       E                     dE             d eps       ncg     rms          rms(c)
DAV:   1    -0.531859822025E+02   -0.24821E-02   -0.50123E-01  6480   0.239E+00    0.411E-01
DAV:   2    -0.531853921013E+02    0.59010E-03   -0.20458E-02  9336   0.801E-01    0.216E-01
DAV:   3    -0.531848762578E+02    0.51584E-03   -0.13070E-03  8456   0.169E-01    0.132E-01
DAV:   4    -0.531846167401E+02    0.25952E-03   -0.24425E-04  8256   0.936E-02    0.631E-02
DAV:   5    -0.531845446673E+02    0.72073E-04   -0.11100E-04  8520   0.713E-02    0.237E-02
DAV:   6    -0.531845473565E+02   -0.26892E-05   -0.46221E-05  6944   0.388E-02    0.174E-02
DAV:   7    -0.531845475316E+02   -0.17516E-06   -0.29877E-06  6112   0.928E-03
  42 F= -.57383099E+02 E0= -.57382940E+02  d E =-.286182E-01
       N       E                     dE             d eps       ncg     rms          rms(c)
DAV:   1    -0.531884692625E+02   -0.39219E-02   -0.43687E-01  6840   0.200E+00    0.204E-01
DAV:   2    -0.531895773527E+02   -0.11081E-02   -0.12748E-02  9400   0.510E-01    0.104E-01
DAV:   3    -0.531895336697E+02    0.43683E-04   -0.35890E-04  8752   0.128E-01    0.718E-02
DAV:   4    -0.531895165870E+02    0.17083E-04   -0.60923E-05  8752   0.448E-02    0.495E-02
DAV:   5    -0.531895083414E+02    0.82457E-05   -0.17575E-05  9112   0.326E-02    0.259E-02
DAV:   6    -0.531895063352E+02    0.20061E-05   -0.10577E-05  8336   0.219E-02    0.147E-02
DAV:   7    -0.531895061159E+02    0.21932E-06   -0.25206E-06  5224   0.819E-03
  43 F= -.57386772E+02 E0= -.57386612E+02  d E =-.367305E-02
       N       E                     dE             d eps       ncg     rms          rms(c)
DAV:   1    -0.531923170996E+02   -0.28108E-02   -0.39357E+00  6832   0.604E+00    0.636E-01
DAV:   2    -0.532029995288E+02   -0.10682E-01   -0.12150E-01  9368   0.154E+00    0.322E-01
DAV:   3    -0.532026206262E+02    0.37890E-03   -0.32171E-03  8784   0.387E-01    0.223E-01
DAV:   4    -0.532024643137E+02    0.15631E-03   -0.54866E-04  9208   0.135E-01    0.154E-01
DAV:   5    -0.532023910403E+02    0.73273E-04   -0.16947E-04  8952   0.103E-01    0.788E-02
DAV:   6    -0.532023794100E+02    0.11630E-04   -0.97192E-05  9328   0.618E-02    0.467E-02
DAV:   7    -0.532023801060E+02   -0.69597E-06   -0.22319E-05  8040   0.227E-02    0.243E-02
DAV:   8    -0.532023796715E+02    0.43450E-06   -0.12249E-06  4664   0.697E-03
  44 F= -.57395804E+02 E0= -.57395645E+02  d E =-.127056E-01
       N       E                     dE             d eps       ncg     rms          rms(c)
DAV:   1    -0.531757904389E+02    0.26590E-01   -0.15817E+01  6824   0.123E+01    0.133E+00
DAV:   2    -0.532208986754E+02   -0.45108E-01   -0.50767E-01  9304   0.307E+00    0.654E-01
DAV:   3    -0.532196018596E+02    0.12968E-02   -0.13011E-02  8776   0.760E-01    0.457E-01
DAV:   4    -0.532190173709E+02    0.58449E-03   -0.21431E-03  9088   0.262E-01    0.317E-01
DAV:   5    -0.532187297825E+02    0.28759E-03   -0.72842E-04  8808   0.210E-01    0.150E-01
DAV:   6    -0.532187092404E+02    0.20542E-04   -0.38295E-04  9344   0.110E-01    0.891E-02
DAV:   7    -0.532187122100E+02   -0.29695E-05   -0.75264E-05  7832   0.430E-02    0.512E-02
DAV:   8    -0.532187109910E+02    0.12190E-05   -0.56450E-06  7096   0.124E-02    0.282E-02
DAV:   9    -0.532187101513E+02    0.83963E-06   -0.52281E-06  6928   0.161E-02
  45 F= -.57404526E+02 E0= -.57404366E+02  d E =-.214270E-01
       N       E                     dE             d eps       ncg     rms          rms(c)
DAV:   1    -0.532242723237E+02   -0.55613E-02   -0.11619E+00  6088   0.359E+00    0.593E-01
DAV:   2    -0.532244413553E+02   -0.16903E-03   -0.40486E-02  9240   0.117E+00    0.282E-01
DAV:   3    -0.532235146206E+02    0.92673E-03   -0.18205E-03  8408   0.213E-01    0.194E-01
DAV:   4    -0.532229862859E+02    0.52833E-03   -0.51212E-04  8824   0.149E-01    0.788E-02
DAV:   5    -0.532229262144E+02    0.60072E-04   -0.33184E-04  7896   0.872E-02    0.377E-02
DAV:   6    -0.532229298294E+02   -0.36149E-05   -0.56779E-05  7080   0.469E-02    0.278E-02
DAV:   7    -0.532229298785E+02   -0.49193E-07   -0.42692E-06  6856   0.176E-02
  46 F= -.57410267E+02 E0= -.57410182E+02  d E =-.574142E-02
       N       E                     dE             d eps       ncg     rms          rms(c)
DAV:   1    -0.532408889528E+02   -0.17959E-01   -0.10506E+01  6080   0.108E+01    0.184E+00
DAV:   2    -0.532427638759E+02   -0.18749E-02   -0.36842E-01  9344   0.341E+00    0.861E-01
DAV:   3    -0.532342495052E+02    0.85144E-02   -0.14860E-02  8448   0.611E-01    0.596E-01
DAV:   4    -0.532294823659E+02    0.47671E-02   -0.47844E-03  8840   0.445E-01    0.249E-01
DAV:   5    -0.532288554464E+02    0.62692E-03   -0.28552E-03  8184   0.266E-01    0.116E-01
DAV:   6    -0.532288841987E+02   -0.28752E-04   -0.49024E-04  7184   0.132E-01    0.793E-02
DAV:   7    -0.532288806706E+02    0.35281E-05   -0.47104E-05  9448   0.427E-02    0.348E-02
DAV:   8    -0.532288852203E+02   -0.45498E-05   -0.18647E-05  8520   0.217E-02    0.209E-02
DAV:   9    -0.532288839804E+02    0.12399E-05   -0.57804E-06  6200   0.123E-02    0.122E-02
DAV:  10    -0.532288838587E+02    0.12173E-06   -0.11104E-06  4040   0.435E-03
  47 F= -.57420977E+02 E0= -.57420975E+02  d E =-.164511E-01
       N       E                     dE             d eps       ncg     rms          rms(c)
DAV:   1    -0.532503082458E+02   -0.21424E-01   -0.42395E+01  6088   0.217E+01    0.392E+00
DAV:   2    -0.532620150256E+02   -0.11707E-01   -0.15151E+00  9400   0.673E+00    0.176E+00
DAV:   3    -0.532277489557E+02    0.34266E-01   -0.56038E-02  8480   0.126E+00    0.124E+00
DAV:   4    -0.532089517728E+02    0.18797E-01   -0.20648E-02  8696   0.874E-01    0.541E-01
DAV:   5    -0.532060294179E+02    0.29224E-02   -0.10887E-02  8400   0.551E-01    0.235E-01
DAV:   6    -0.532061713622E+02   -0.14194E-03   -0.22305E-03  7120   0.299E-01    0.158E-01
DAV:   7    -0.532061594833E+02    0.11879E-04   -0.26496E-04  9272   0.124E-01    0.734E-02
DAV:   8    -0.532061711343E+02   -0.11651E-04   -0.80066E-05  8760   0.758E-02    0.396E-02
DAV:   9    -0.532061702880E+02    0.84626E-06   -0.22013E-05  6648   0.233E-02    0.300E-02
DAV:  10    -0.532061686343E+02    0.16537E-05   -0.64227E-06  7056   0.102E-02    0.106E-02
DAV:  11    -0.532061688819E+02   -0.24767E-06   -0.23007E-06  5496   0.579E-03
  48 F= -.57408656E+02 E0= -.57408656E+02  d E =-.413032E-02
       N       E                     dE             d eps       ncg     rms          rms(c)
DAV:   1    -0.532564905584E+02   -0.50322E-01   -0.24443E+01  6152   0.169E+01    0.262E+00
DAV:   2    -0.532595203616E+02   -0.30298E-02   -0.85542E-01  8952   0.553E+00    0.127E+00
DAV:   3    -0.532397667358E+02    0.19754E-01   -0.45772E-02  8392   0.112E+00    0.850E-01
DAV:   4    -0.532293785320E+02    0.10388E-01   -0.12213E-02  8600   0.697E-01    0.360E-01
DAV:   5    -0.532278714516E+02    0.15071E-02   -0.62952E-03  8280   0.436E-01    0.172E-01
DAV:   6    -0.532279291883E+02   -0.57737E-04   -0.12079E-03  7096   0.233E-01    0.128E-01
DAV:   7    -0.532279138896E+02    0.15299E-04   -0.16604E-04  9096   0.109E-01    0.710E-02
DAV:   8    -0.532279153555E+02   -0.14659E-05   -0.60002E-05  8632   0.513E-02    0.261E-02
DAV:   9    -0.532279157506E+02   -0.39515E-06   -0.15761E-05  7064   0.229E-02    0.217E-02
DAV:  10    -0.532279156904E+02    0.60279E-07   -0.23614E-06  5312   0.703E-03
  49 F= -.57422311E+02 E0= -.57422311E+02  d E =-.177857E-01
       N       E                     dE             d eps       ncg     rms          rms(c)
DAV:   1    -0.532826460743E+02   -0.54730E-01   -0.31668E+00  8088   0.924E+00    0.147E+00
DAV:   2    -0.532610802664E+02    0.21566E-01   -0.15269E-01  8400   0.370E+00    0.567E-01
DAV:   3    -0.532556027535E+02    0.54775E-02   -0.14068E-02  9256   0.856E-01    0.331E-01
DAV:   4    -0.532538914764E+02    0.17113E-02   -0.31441E-03  8936   0.329E-01    0.156E-01
DAV:   5    -0.532536848872E+02    0.20659E-03   -0.64390E-04  7856   0.143E-01    0.700E-02
DAV:   6    -0.532536490399E+02    0.35847E-04   -0.89665E-05  8816   0.791E-02    0.331E-02
DAV:   7    -0.532536481574E+02    0.88251E-06   -0.32378E-05  7264   0.350E-02    0.155E-02
DAV:   8    -0.532536487084E+02   -0.55095E-06   -0.30645E-06  5560   0.119E-02
  50 F= -.57426599E+02 E0= -.57426599E+02  d E =-.428745E-02
       N       E                     dE             d eps       ncg     rms          rms(c)
DAV:   1    -0.532652373595E+02   -0.11589E-01   -0.39574E-01  8088   0.323E+00    0.521E-01
DAV:   2    -0.532625449368E+02    0.26924E-02   -0.19190E-02  8496   0.132E+00    0.200E-01
DAV:   3    -0.532618529546E+02    0.69198E-03   -0.16835E-03  9160   0.298E-01    0.118E-01
DAV:   4    -0.532616241895E+02    0.22877E-03   -0.40117E-04  8920   0.117E-01    0.552E-02
DAV:   5    -0.532615954034E+02    0.28786E-04   -0.82372E-05  7840   0.501E-02    0.245E-02
DAV:   6    -0.532615888355E+02    0.65678E-05   -0.98849E-06  8392   0.250E-02    0.116E-02
DAV:   7    -0.532615880044E+02    0.83115E-06   -0.39379E-06  5808   0.120E-02
  51 F= -.57426965E+02 E0= -.57426965E+02  d E =-.465401E-02
       N       E                     dE             d eps       ncg     rms          rms(c)
DAV:   1    -0.532638456924E+02   -0.22569E-02   -0.45738E-01  6168   0.217E+00    0.253E-01
DAV:   2    -0.532654239656E+02   -0.15783E-02   -0.17455E-02  8552   0.585E-01    0.963E-02
DAV:   3    -0.532653904465E+02    0.33519E-04   -0.55805E-04  8104   0.146E-01    0.737E-02
DAV:   4    -0.532653745114E+02    0.15935E-04   -0.70831E-05  9288   0.487E-02    0.513E-02
DAV:   5    -0.532653660252E+02    0.84862E-05   -0.15710E-05  8200   0.298E-02    0.267E-02
DAV:   6    -0.532653634698E+02    0.25554E-05   -0.16302E-05  8728   0.299E-02    0.108E-02
DAV:   7    -0.532653634116E+02    0.58255E-07   -0.36697E-06  5776   0.100E-02
  52 F= -.57429021E+02 E0= -.57429021E+02  d E =-.205550E-02
       N       E                     dE             d eps       ncg     rms          rms(c)
DAV:   1    -0.532624437191E+02    0.29198E-02   -0.31280E+00  6160   0.571E+00    0.679E-01
DAV:   2    -0.532734206577E+02   -0.10977E-01   -0.12116E-01  8544   0.151E+00    0.254E-01
DAV:   3    -0.532732246262E+02    0.19603E-03   -0.38266E-03  8096   0.376E-01    0.195E-01
DAV:   4    -0.532731194700E+02    0.10516E-03   -0.47523E-04  9272   0.127E-01    0.137E-01
DAV:   5    -0.532730614784E+02    0.57992E-04   -0.11259E-04  8120   0.786E-02    0.692E-02
DAV:   6    -0.532730493662E+02    0.12112E-04   -0.10920E-04  8896   0.732E-02    0.279E-02
DAV:   7    -0.532730503136E+02   -0.94739E-06   -0.23804E-05  6936   0.249E-02    0.225E-02
DAV:   8    -0.532730503867E+02   -0.73142E-07   -0.77946E-07  4072   0.839E-03
  53 F= -.57432243E+02 E0= -.57432243E+02  d E =-.527800E-02
       N       E                     dE             d eps       ncg     rms          rms(c)
DAV:   1    -0.532732178330E+02   -0.16752E-03   -0.69183E-01  6152   0.267E+00    0.313E-01
DAV:   2    -0.532756330316E+02   -0.24152E-02   -0.26677E-02  8536   0.717E-01    0.120E-01
DAV:   3    -0.532755835687E+02    0.49463E-04   -0.84248E-04  8120   0.178E-01    0.926E-02
DAV:   4    -0.532755596152E+02    0.23953E-04   -0.10654E-04  9264   0.590E-02    0.650E-02
DAV:   5    -0.532755466201E+02    0.12995E-04   -0.24743E-05  8208   0.372E-02    0.334E-02
DAV:   6    -0.532755432062E+02    0.34139E-05   -0.25211E-05  8840   0.365E-02    0.132E-02
DAV:   7    -0.532755432275E+02   -0.21324E-07   -0.56143E-06  6336   0.121E-02
  54 F= -.57432651E+02 E0= -.57432651E+02  d E =-.568617E-02
       N       E                     dE             d eps       ncg     rms          rms(c)
DAV:   1    -0.532846710361E+02   -0.91278E-02   -0.31522E-01  7352   0.288E+00    0.463E-01
DAV:   2    -0.532843561630E+02    0.31487E-03   -0.29756E-02  8904   0.117E+00    0.163E-01
DAV:   3    -0.532841304004E+02    0.22576E-03   -0.20097E-03  8816   0.263E-01    0.106E-01
DAV:   4    -0.532840245062E+02    0.10589E-03   -0.34596E-04  8448   0.121E-01    0.563E-02
DAV:   5    -0.532840044827E+02    0.20023E-04   -0.74850E-05  8720   0.472E-02    0.288E-02
DAV:   6    -0.532839979577E+02    0.65249E-05   -0.89939E-06  8760   0.225E-02    0.194E-02
DAV:   7    -0.532839943651E+02    0.35926E-05   -0.25249E-06  5352   0.901E-03    0.685E-03
DAV:   8    -0.532839929292E+02    0.14359E-05   -0.69234E-07  3920   0.575E-03    0.173E-03
DAV:   9    -0.532839929073E+02    0.21850E-07   -0.38973E-07  3752   0.413E-03
  55 F= -.57433705E+02 E0= -.57433705E+02  d E =-.105394E-02
       N       E                     dE             d eps       ncg     rms          rms(c)
DAV:   1    -0.532854415724E+02   -0.14486E-02   -0.11180E-02  7368   0.540E-01    0.872E-02
DAV:   2    -0.532854328096E+02    0.87628E-05   -0.10572E-03  8936   0.221E-01    0.307E-02
DAV:   3    -0.532854240259E+02    0.87836E-05   -0.71393E-05  8776   0.496E-02    0.199E-02
DAV:   4    -0.532854189547E+02    0.50712E-05   -0.12459E-05  8168   0.230E-02    0.106E-02
DAV:   5    -0.532854172083E+02    0.17464E-05   -0.21796E-06  4624   0.888E-03    0.477E-03
DAV:   6    -0.532854161927E+02    0.10156E-05   -0.64316E-07  3800   0.570E-03    0.263E-03
DAV:   7    -0.532854158256E+02    0.36707E-06   -0.31895E-07  3760   0.375E-03
  56 F= -.57433737E+02 E0= -.57433737E+02  d E =-.108534E-02
       N       E                     dE             d eps       ncg     rms          rms(c)
DAV:   1    -0.532880289082E+02   -0.26127E-02   -0.35386E-01  6960   0.197E+00    0.336E-01
DAV:   2    -0.532896202396E+02   -0.15913E-02   -0.22463E-02  8320   0.730E-01    0.104E-01
DAV:   3    -0.532895332977E+02    0.86942E-04   -0.91330E-04  8936   0.160E-01    0.101E-01
DAV:   4    -0.532895049101E+02    0.28388E-04   -0.11144E-04  7752   0.486E-02    0.691E-02
DAV:   5    -0.532894756177E+02    0.29292E-04   -0.43359E-05  8968   0.478E-02    0.286E-02
DAV:   6    -0.532894696116E+02    0.60061E-05   -0.17287E-05  9216   0.255E-02    0.134E-02
DAV:   7    -0.532894691578E+02    0.45383E-06   -0.39172E-06  5800   0.112E-02
  57 F= -.57434729E+02 E0= -.57434729E+02  d E =-.992149E-03
       N       E                     dE             d eps       ncg     rms          rms(c)
DAV:   1    -0.532915656899E+02   -0.20961E-02   -0.63371E-01  6984   0.263E+00    0.448E-01
DAV:   2    -0.532944033147E+02   -0.28376E-02   -0.40116E-02  8288   0.973E-01    0.140E-01
DAV:   3    -0.532942506805E+02    0.15263E-03   -0.16610E-03  8912   0.216E-01    0.136E-01
DAV:   4    -0.532942006315E+02    0.50049E-04   -0.19991E-04  7744   0.649E-02    0.936E-02
DAV:   5    -0.532941489900E+02    0.51642E-04   -0.77407E-05  8960   0.641E-02    0.386E-02
DAV:   6    -0.532941388097E+02    0.10180E-04   -0.31806E-05  9232   0.349E-02    0.180E-02
DAV:   7    -0.532941383150E+02    0.49471E-06   -0.77560E-06  7168   0.154E-02
  58 F= -.57435316E+02 E0= -.57435316E+02  d E =-.157887E-02
       N       E                     dE             d eps       ncg     rms          rms(c)
DAV:   1    -0.532912134338E+02    0.29254E-02   -0.52720E-01  6488   0.228E+00    0.335E-01
DAV:   2    -0.532936340500E+02   -0.24206E-02   -0.27126E-02  8952   0.769E-01    0.121E-01
DAV:   3    -0.532935366161E+02    0.97434E-04   -0.45538E-04  8448   0.143E-01    0.999E-02
DAV:   4    -0.532935072226E+02    0.29394E-04   -0.10238E-04  9400   0.604E-02    0.628E-02
DAV:   5    -0.532934995074E+02    0.77152E-05   -0.23451E-05  9344   0.347E-02    0.317E-02
DAV:   6    -0.532934991601E+02    0.34726E-06   -0.79055E-06  8224   0.176E-02
  59 F= -.57436467E+02 E0= -.57436467E+02  d E =-.115154E-02
       N       E                     dE             d eps       ncg     rms          rms(c)
DAV:   1    -0.532715002546E+02    0.21999E-01   -0.47470E+00  6472   0.677E+00    0.998E-01
DAV:   2    -0.532921992907E+02   -0.20699E-01   -0.23323E-01  9192   0.232E+00    0.366E-01
DAV:   3    -0.532912034084E+02    0.99588E-03   -0.34870E-03  8256   0.440E-01    0.295E-01
DAV:   4    -0.532909244901E+02    0.27892E-03   -0.98523E-04  9424   0.188E-01    0.188E-01
DAV:   5    -0.532908606570E+02    0.63833E-04   -0.18847E-04  9576   0.937E-02    0.991E-02
DAV:   6    -0.532908439171E+02    0.16740E-04   -0.70654E-05  8608   0.617E-02    0.541E-02
DAV:   7    -0.532908476492E+02   -0.37321E-05   -0.18333E-05  8336   0.281E-02    0.174E-02
DAV:   8    -0.532908486705E+02   -0.10213E-05   -0.49982E-06  6552   0.127E-02    0.978E-03
DAV:   9    -0.532908488306E+02   -0.16004E-06   -0.75868E-07  3824   0.582E-03
  60 F= -.57439230E+02 E0= -.57439229E+02  d E =-.391387E-02
       N       E                     dE             d eps       ncg     rms          rms(c)
DAV:   1    -0.532115718661E+02    0.79277E-01   -0.19046E+01  6480   0.134E+01    0.206E+00
DAV:   2    -0.532862854376E+02   -0.74714E-01   -0.85597E-01  9000   0.444E+00    0.718E-01
DAV:   3    -0.532833795935E+02    0.29058E-02   -0.13842E-02  8336   0.738E-01    0.597E-01
DAV:   4    -0.532824695183E+02    0.91008E-03   -0.33684E-03  9304   0.331E-01    0.369E-01
DAV:   5    -0.532821853496E+02    0.28417E-03   -0.88790E-04  9360   0.221E-01    0.176E-01
DAV:   6    -0.532821784195E+02    0.69301E-05   -0.25756E-04  8320   0.815E-02    0.863E-02
DAV:   7    -0.532821814367E+02   -0.30172E-05   -0.36704E-05  8848   0.445E-02    0.441E-02
DAV:   8    -0.532821872944E+02   -0.58577E-05   -0.11478E-05  8176   0.185E-02    0.163E-02
DAV:   9    -0.532821874794E+02   -0.18497E-06   -0.38780E-06  5984   0.968E-03
  61 F= -.57441576E+02 E0= -.57441576E+02  d E =-.626072E-02
       N       E                     dE             d eps       ncg     rms          rms(c)
DAV:   1    -0.532850107504E+02   -0.28235E-02   -0.33030E-01  7112   0.204E+00    0.315E-01
DAV:   2    -0.532863765626E+02   -0.13658E-02   -0.19098E-02  7768   0.705E-01    0.950E-02
DAV:   3    -0.532863690815E+02    0.74811E-05   -0.10667E-03  8440   0.167E-01    0.960E-02
DAV:   4    -0.532863475698E+02    0.21512E-04   -0.91785E-05  8960   0.551E-02    0.602E-02
DAV:   5    -0.532863308240E+02    0.16746E-04   -0.27714E-05  8720   0.435E-02    0.285E-02
DAV:   6    -0.532863260099E+02    0.48141E-05   -0.10289E-05  9168   0.236E-02    0.123E-02
DAV:   7    -0.532863245087E+02    0.15012E-05   -0.14140E-06  4008   0.720E-03    0.480E-03
DAV:   8    -0.532863236745E+02    0.83418E-06   -0.33692E-07  3696   0.498E-03
  62 F= -.57442339E+02 E0= -.57442339E+02  d E =-.762245E-03
       N       E                     dE             d eps       ncg     rms          rms(c)
DAV:   1    -0.532889422021E+02   -0.26177E-02   -0.12527E+00  7128   0.400E+00    0.610E-01
DAV:   2    -0.532940766465E+02   -0.51344E-02   -0.72065E-02  7736   0.136E+00    0.184E-01
DAV:   3    -0.532940582330E+02    0.18413E-04   -0.40570E-03  8544   0.328E-01    0.188E-01
DAV:   4    -0.532939781442E+02    0.80089E-04   -0.31986E-04  8976   0.107E-01    0.117E-01
DAV:   5    -0.532939176680E+02    0.60476E-04   -0.11154E-04  8720   0.873E-02    0.535E-02
DAV:   6    -0.532939054126E+02    0.12255E-04   -0.38813E-05  9800   0.443E-02    0.239E-02
DAV:   7    -0.532939024775E+02    0.29351E-05   -0.59019E-06  6584   0.136E-02    0.102E-02
DAV:   8    -0.532939007462E+02    0.17313E-05   -0.71546E-07  3816   0.771E-03    0.485E-03
DAV:   9    -0.532939007074E+02    0.38786E-07   -0.43079E-07  3728   0.438E-03
  63 F= -.57443374E+02 E0= -.57443374E+02  d E =-.179778E-02
       N       E                     dE             d eps       ncg     rms          rms(c)
DAV:   1    -0.532878850706E+02    0.60157E-02   -0.50383E+00  7184   0.810E+00    0.120E+00
DAV:   2    -0.533079836881E+02   -0.20099E-01   -0.28441E-01  7752   0.270E+00    0.366E-01
DAV:   3    -0.533079032482E+02    0.80440E-04   -0.15847E-02  8752   0.656E-01    0.376E-01
DAV:   4    -0.533075790910E+02    0.32416E-03   -0.11041E-03  8952   0.210E-01    0.229E-01
DAV:   5    -0.533073387714E+02    0.24032E-03   -0.47896E-04  8688   0.181E-01    0.959E-02
DAV:   6    -0.533073094803E+02    0.29291E-04   -0.15026E-04  9736   0.805E-02    0.462E-02
DAV:   7    -0.533073036172E+02    0.58631E-05   -0.19470E-05  7624   0.256E-02    0.223E-02
DAV:   8    -0.533072991818E+02    0.44354E-05   -0.42164E-06  6976   0.157E-02    0.855E-03
DAV:   9    -0.533072989892E+02    0.19255E-06   -0.97210E-07  4104   0.547E-03
  64 F= -.57443768E+02 E0= -.57443768E+02  d E =-.219188E-02
       N       E                     dE             d eps       ncg     rms          rms(c)
DAV:   1    -0.533010372198E+02    0.62620E-02   -0.52831E-01  7072   0.254E+00    0.403E-01
DAV:   2    -0.533032864000E+02   -0.22492E-02   -0.31303E-02  8048   0.899E-01    0.129E-01
DAV:   3    -0.533032410391E+02    0.45361E-04   -0.14522E-03  8312   0.202E-01    0.121E-01
DAV:   4    -0.533032043733E+02    0.36666E-04   -0.16039E-04  9032   0.738E-02    0.718E-02
DAV:   5    -0.533031893768E+02    0.14997E-04   -0.43740E-05  8832   0.508E-02    0.327E-02
DAV:   6    -0.533031900380E+02   -0.66123E-06   -0.11079E-05  8760   0.224E-02    0.158E-02
DAV:   7    -0.533031913117E+02   -0.12737E-05   -0.12571E-06  3976   0.701E-03    0.622E-03
DAV:   8    -0.533031923277E+02   -0.10160E-05   -0.46650E-07  3576   0.473E-03    0.268E-03
DAV:   9    -0.533031923363E+02   -0.86093E-08   -0.26191E-07  3464   0.378E-03
  65 F= -.57443888E+02 E0= -.57443888E+02  d E =-.231179E-02
       N       E                     dE             d eps       ncg     rms          rms(c)
DAV:   1    -0.533036008095E+02   -0.40848E-03   -0.25928E-01  6664   0.142E+00    0.213E-01
DAV:   2    -0.533047719159E+02   -0.11711E-02   -0.12759E-02  8632   0.507E-01    0.826E-02
DAV:   3    -0.533047382347E+02    0.33681E-04   -0.20838E-04  9176   0.901E-02    0.700E-02
DAV:   4    -0.533047301067E+02    0.81280E-05   -0.39472E-05  8624   0.296E-02    0.456E-02
DAV:   5    -0.533047251370E+02    0.49697E-05   -0.11834E-05  8640   0.204E-02    0.254E-02
DAV:   6    -0.533047233410E+02    0.17960E-05   -0.56232E-06  7912   0.164E-02    0.873E-03
DAV:   7    -0.533047231833E+02    0.15772E-06   -0.18198E-06  4776   0.681E-03
  66 F= -.57444487E+02 E0= -.57444487E+02  d E =-.599024E-03
       N       E                     dE             d eps       ncg     rms          rms(c)
DAV:   1    -0.532981005742E+02    0.66228E-02   -0.23316E+00  6664   0.430E+00    0.659E-01
DAV:   2    -0.533092068043E+02   -0.11106E-01   -0.12057E-01  8632   0.154E+00    0.262E-01
DAV:   3    -0.533088693185E+02    0.33749E-03   -0.18502E-03  9152   0.278E-01    0.213E-01
DAV:   4    -0.533087893807E+02    0.79938E-04   -0.35684E-04  8696   0.895E-02    0.143E-01
DAV:   5    -0.533087429644E+02    0.46416E-04   -0.10080E-04  8880   0.599E-02    0.821E-02
DAV:   6    -0.533087249039E+02    0.18061E-04   -0.52158E-05  9040   0.514E-02    0.303E-02
DAV:   7    -0.533087249070E+02   -0.30923E-08   -0.22339E-05  9288   0.214E-02    0.191E-02
DAV:   8    -0.533087248985E+02    0.84710E-08   -0.36029E-06  5968   0.112E-02
  67 F= -.57445717E+02 E0= -.57445717E+02  d E =-.182841E-02
       N       E                     dE             d eps       ncg     rms          rms(c)
DAV:   1    -0.532691471590E+02    0.39578E-01   -0.93351E+00  6672   0.870E+00    0.138E+00
DAV:   2    -0.533158689970E+02   -0.46722E-01   -0.50411E-01  8608   0.303E+00    0.552E-01
DAV:   3    -0.533146140726E+02    0.12549E-02   -0.75113E-03  8928   0.538E-01    0.440E-01
DAV:   4    -0.533142798651E+02    0.33421E-03   -0.14704E-03  8752   0.183E-01    0.297E-01
DAV:   5    -0.533141169790E+02    0.16289E-03   -0.37204E-04  9016   0.106E-01    0.175E-01
DAV:   6    -0.533140409975E+02    0.75982E-04   -0.17918E-04  9024   0.987E-02    0.676E-02
DAV:   7    -0.533140397770E+02    0.12204E-05   -0.98945E-05  9152   0.475E-02    0.313E-02
DAV:   8    -0.533140403544E+02   -0.57736E-06   -0.19744E-05  7976   0.237E-02    0.215E-02
DAV:   9    -0.533140402127E+02    0.14166E-06   -0.17418E-06  4856   0.119E-02
  68 F= -.57445589E+02 E0= -.57445589E+02  d E =-.170045E-02
       N       E                     dE             d eps       ncg     rms          rms(c)
DAV:   1    -0.533010550606E+02    0.12985E-01   -0.25720E+00  6648   0.445E+00    0.670E-01
DAV:   2    -0.533120864993E+02   -0.11031E-01   -0.12014E-01  8544   0.157E+00    0.243E-01
DAV:   3    -0.533118319135E+02    0.25459E-03   -0.21695E-03  8472   0.242E-01    0.213E-01
DAV:   4    -0.533117493947E+02    0.82519E-04   -0.47699E-04  8784   0.109E-01    0.124E-01
DAV:   5    -0.533117293191E+02    0.20076E-04   -0.11438E-04  8792   0.458E-02    0.656E-02
DAV:   6    -0.533117207132E+02    0.86059E-05   -0.22763E-05  8688   0.292E-02    0.292E-02
DAV:   7    -0.533117211222E+02   -0.40900E-06   -0.13720E-05  8800   0.195E-02    0.100E-02
DAV:   8    -0.533117218558E+02   -0.73366E-06   -0.35595E-06  6088   0.109E-02
  69 F= -.57446108E+02 E0= -.57446108E+02  d E =-.221943E-02
       N       E                     dE             d eps       ncg     rms          rms(c)
DAV:   1    -0.533059500309E+02    0.57711E-02   -0.80159E-01  8280   0.376E+00    0.671E-01
DAV:   2    -0.533049312380E+02    0.10188E-02   -0.37589E-02  8800   0.145E+00    0.227E-01
DAV:   3    -0.533045883645E+02    0.34287E-03   -0.20906E-03  8856   0.269E-01    0.156E-01
DAV:   4    -0.533043955825E+02    0.19278E-03   -0.36410E-04  8344   0.129E-01    0.792E-02
DAV:   5    -0.533043889574E+02    0.66252E-05   -0.11902E-04  9240   0.542E-02    0.303E-02
DAV:   6    -0.533043900728E+02   -0.11155E-05   -0.11631E-05  6896   0.194E-02    0.168E-02
DAV:   7    -0.533043920303E+02   -0.19575E-05   -0.22450E-06  5296   0.154E-02    0.371E-03
DAV:   8    -0.533043928993E+02   -0.86901E-06   -0.21712E-06  4448   0.881E-03
  70 F= -.57446899E+02 E0= -.57446899E+02  d E =-.791384E-03
       N       E                     dE             d eps       ncg     rms          rms(c)
DAV:   1    -0.532984473263E+02    0.59447E-02   -0.68207E-01  8304   0.347E+00    0.620E-01
DAV:   2    -0.532975674668E+02    0.87986E-03   -0.31853E-02  8808   0.134E+00    0.209E-01
DAV:   3    -0.532972752251E+02    0.29224E-03   -0.17684E-03  8872   0.247E-01    0.145E-01
DAV:   4    -0.532971119681E+02    0.16326E-03   -0.30963E-04  8376   0.119E-01    0.733E-02
DAV:   5    -0.532971071704E+02    0.47978E-05   -0.10124E-04  9232   0.503E-02    0.279E-02
DAV:   6    -0.532971083829E+02   -0.12126E-05   -0.10324E-05  6744   0.182E-02    0.154E-02
DAV:   7    -0.532971102176E+02   -0.18346E-05   -0.17186E-06  4832   0.146E-02    0.344E-03
DAV:   8    -0.532971110458E+02   -0.82827E-06   -0.20071E-06  4184   0.863E-03
  71 F= -.57447130E+02 E0= -.57447130E+02  d E =-.102286E-02
       N       E                     dE             d eps       ncg     rms          rms(c)
DAV:   1    -0.532935657160E+02    0.35445E-02   -0.99126E-01  6544   0.300E+00    0.389E-01
DAV:   2    -0.532974663775E+02   -0.39007E-02   -0.43795E-02  8832   0.974E-01    0.143E-01
DAV:   3    -0.532973389965E+02    0.12738E-03   -0.86099E-04  8632   0.144E-01    0.129E-01
DAV:   4    -0.532972906585E+02    0.48338E-04   -0.16339E-04  8144   0.524E-02    0.774E-02
DAV:   5    -0.532972686836E+02    0.21975E-04   -0.45730E-05  8240   0.370E-02    0.347E-02
DAV:   6    -0.532972657528E+02    0.29307E-05   -0.21842E-05  8632   0.248E-02    0.117E-02
DAV:   7    -0.532972665334E+02   -0.78056E-06   -0.45132E-06  6448   0.134E-02
  72 F= -.57448023E+02 E0= -.57448023E+02  d E =-.892484E-03
       N       E                     dE             d eps       ncg     rms          rms(c)
DAV:   1    -0.532903600519E+02    0.69057E-02   -0.17503E+00  6544   0.398E+00    0.515E-01
DAV:   2    -0.532971139061E+02   -0.67539E-02   -0.76061E-02  8808   0.127E+00    0.185E-01
DAV:   3    -0.532968993139E+02    0.21459E-03   -0.15133E-03  8552   0.187E-01    0.169E-01
DAV:   4    -0.532968137826E+02    0.85531E-04   -0.29794E-04  8112   0.711E-02    0.978E-02
DAV:   5    -0.532967801444E+02    0.33638E-04   -0.83336E-05  8336   0.468E-02    0.429E-02
DAV:   6    -0.532967761944E+02    0.39500E-05   -0.31514E-05  8536   0.291E-02    0.150E-02
DAV:   7    -0.532967771553E+02   -0.96095E-06   -0.57468E-06  6736   0.158E-02
  73 F= -.57448534E+02 E0= -.57448534E+02  d E =-.140373E-02
       N       E                     dE             d eps       ncg     rms          rms(c)
DAV:   1    -0.532964546210E+02    0.32157E-03   -0.43614E-02  6592   0.630E-01    0.846E-02
DAV:   2    -0.532966341821E+02   -0.17956E-03   -0.20154E-03  8856   0.212E-01    0.310E-02
DAV:   3    -0.532966272190E+02    0.69631E-05   -0.39496E-05  8624   0.326E-02    0.272E-02
DAV:   4    -0.532966248971E+02    0.23219E-05   -0.70685E-06  6944   0.112E-02    0.171E-02
DAV:   5    -0.532966234658E+02    0.14313E-05   -0.21908E-06  5584   0.918E-03    0.731E-03
DAV:   6    -0.532966233746E+02    0.91135E-07   -0.13884E-06  3856   0.607E-03
  74 F= -.57448541E+02 E0= -.57448540E+02  d E =-.141009E-02
       N       E                     dE             d eps       ncg     rms          rms(c)
DAV:   1    -0.532966962480E+02   -0.72782E-04   -0.14906E-01  6944   0.107E+00    0.180E-01
DAV:   2    -0.532971668297E+02   -0.47058E-03   -0.62729E-03  9112   0.350E-01    0.625E-02
DAV:   3    -0.532971388780E+02    0.27952E-04   -0.10950E-04  8816   0.600E-02    0.495E-02
DAV:   4    -0.532971268539E+02    0.12024E-04   -0.19494E-05  7928   0.207E-02    0.311E-02
DAV:   5    -0.532971185986E+02    0.82553E-05   -0.98377E-06  8784   0.244E-02    0.747E-03
DAV:   6    -0.532971184672E+02    0.13138E-06   -0.48380E-06  6600   0.102E-02
  75 F= -.57448765E+02 E0= -.57448765E+02  d E =-.224643E-03
       N       E                     dE             d eps       ncg     rms          rms(c)
DAV:   1    -0.532971637315E+02   -0.45133E-04   -0.64233E-03  6968   0.222E-01    0.383E-02
DAV:   2    -0.532971829153E+02   -0.19184E-04   -0.26411E-04  9120   0.716E-02    0.125E-02
DAV:   3    -0.532971817458E+02    0.11695E-05   -0.45147E-06  6720   0.123E-02    0.943E-03
DAV:   4    -0.532971811745E+02    0.57133E-06   -0.96609E-07  3808   0.538E-03
  76 F= -.57448772E+02 E0= -.57448772E+02  d E =-.231533E-03
       N       E                     dE             d eps       ncg     rms          rms(c)
DAV:   1    -0.532944042991E+02    0.27774E-02   -0.58651E-02  7992   0.127E+00    0.213E-01
DAV:   2    -0.532941300197E+02    0.27428E-03   -0.38407E-03  8872   0.511E-01    0.726E-02
DAV:   3    -0.532941041824E+02    0.25837E-04   -0.36400E-04  8808   0.108E-01    0.473E-02
DAV:   4    -0.532940918937E+02    0.12289E-04   -0.30299E-05  9256   0.357E-02    0.272E-02
DAV:   5    -0.532940921897E+02   -0.29603E-06   -0.91998E-06  8768   0.224E-02
  77 F= -.57448914E+02 E0= -.57448914E+02  d E =-.142330E-03
       N       E                     dE             d eps       ncg     rms          rms(c)
DAV:   1    -0.532928256567E+02    0.12662E-02   -0.99848E-03  8064   0.526E-01    0.881E-02
DAV:   2    -0.532927739168E+02    0.51740E-04   -0.65345E-04  8904   0.213E-01    0.303E-02
DAV:   3    -0.532927699869E+02    0.39300E-05   -0.64780E-05  8808   0.452E-02    0.193E-02
DAV:   4    -0.532927689513E+02    0.10355E-05   -0.50179E-06  7592   0.147E-02    0.112E-02
DAV:   5    -0.532927701973E+02   -0.12460E-05   -0.15558E-06  4256   0.111E-02    0.352E-03
DAV:   6    -0.532927709400E+02   -0.74276E-06   -0.90743E-07  3776   0.544E-03
  78 F= -.57448927E+02 E0= -.57448927E+02  d E =-.155252E-03
       N       E                     dE             d eps       ncg     rms          rms(c)
DAV:   1    -0.532924571308E+02    0.31307E-03   -0.19169E-02  6464   0.452E-01    0.877E-02
DAV:   2    -0.532925046780E+02   -0.47547E-04   -0.10579E-03  8584   0.163E-01    0.375E-02
DAV:   3    -0.532924892092E+02    0.15469E-04   -0.38348E-05  8344   0.336E-02    0.276E-02
DAV:   4    -0.532924803113E+02    0.88979E-05   -0.18042E-05  7304   0.219E-02    0.110E-02
DAV:   5    -0.532924802374E+02    0.73876E-07   -0.71028E-06  6824   0.134E-02
  79 F= -.57448987E+02 E0= -.57448987E+02  d E =-.597662E-04
       N       E                     dE             d eps       ncg     rms          rms(c)
DAV:   1    -0.532922106435E+02    0.26967E-03   -0.10638E-02  6464   0.336E-01    0.679E-02
DAV:   2    -0.532922365159E+02   -0.25872E-04   -0.59033E-04  8584   0.121E-01    0.267E-02
DAV:   3    -0.532922275936E+02    0.89223E-05   -0.21425E-05  8296   0.254E-02    0.197E-02
DAV:   4    -0.532922228808E+02    0.47127E-05   -0.97511E-06  7056   0.164E-02    0.779E-03
DAV:   5    -0.532922228732E+02    0.75706E-08   -0.35971E-06  5888   0.997E-03
  80 F= -.57448993E+02 E0= -.57448993E+02  d E =-.652552E-04
       N       E                     dE             d eps       ncg     rms          rms(c)
DAV:   1    -0.532907255929E+02    0.14973E-02   -0.19771E-02  7992   0.683E-01    0.106E-01
DAV:   2    -0.532906371441E+02    0.88449E-04   -0.10135E-03  9168   0.264E-01    0.358E-02
DAV:   3    -0.532906204870E+02    0.16657E-04   -0.70605E-05  9000   0.542E-02    0.225E-02
DAV:   4    -0.532906169955E+02    0.34915E-05   -0.14247E-05  8928   0.240E-02    0.113E-02
DAV:   5    -0.532906183902E+02   -0.13947E-05   -0.23829E-06  5112   0.939E-03    0.446E-03
DAV:   6    -0.532906188157E+02   -0.42555E-06   -0.78637E-07  3744   0.552E-03
  81 F= -.57449033E+02 E0= -.57449033E+02  d E =-.401003E-04
