WP2-P02-beta001-vacuum-30A-500-k10      
   1.0000000000000000     
     3.8782842923155867    0.0000000000000000    0.0000000000000000
    -1.9391421461577933    3.3586927202930394    0.0000000000000000
     0.0000000000000000   -0.0000000000000000   39.4561054730850671
   S    In   Zn
     4     2     1
Direct
     0.0000009328819814    0.9999990675493606    0.3801693000398174
     0.6666674558440775    0.3333325101705711    0.4704029377715031
     0.0000006130220100    0.9999994892935788    0.5418630546097418
     0.3333315663518448    0.6666682684148526    0.6198306999601826
     0.6666675549394867    0.3333324596457743    0.4094436810520818
     0.3333340192907599    0.6666660563643632    0.5110357465509168
     0.9999977976698418    0.0000020885614873    0.6116779834814992

  0.00000000E+00  0.00000000E+00  0.00000000E+00
  0.00000000E+00  0.00000000E+00  0.00000000E+00
  0.00000000E+00  0.00000000E+00  0.00000000E+00
  0.00000000E+00  0.00000000E+00  0.00000000E+00
  0.00000000E+00  0.00000000E+00  0.00000000E+00
  0.00000000E+00  0.00000000E+00  0.00000000E+00
  0.00000000E+00  0.00000000E+00  0.00000000E+00
