    7    7    1    1
  0.7342198E+02  0.3878284E-09  0.3878284E-09  0.3945611E-08  0.5000000E-15
   1.0000000000000000E-004
  CAR 
 WP2-P02-beta001-vacuum-30A-500-k10      
     62     52     38

  0.1262379E-14  0.1262379E-14  0.1262379E-14  0.1000000E-01
      1        -18.316655   1.000000
      2        -18.127707   1.000000
      3        -18.127707   1.000000
      4        -17.965513   1.000000
      5        -17.965513   1.000000
      6        -17.201915   1.000000
      7        -17.201646   1.000000
      8        -17.201646   1.000000
      9        -17.054237   1.000000
     10        -17.054236   1.000000
     11        -16.959179   1.000000
     12        -16.113323   1.000000
     13        -15.114848   1.000000
     14        -14.143112   1.000000
     15         -9.168324   1.000000
     16         -8.301296   1.000000
     17         -8.301295   1.000000
     18         -7.803906   1.000000
     19         -7.748791   1.000000
     20         -7.748790   1.000000
     21         -6.827042   1.000000
     22         -5.235065   1.000000
     23         -5.235064   1.000000
     24         -5.125379   1.000000
     25         -4.230401   1.000000
     26         -4.230398   1.000000
     27         -3.932543   1.000000
     28         -3.932543   1.000000
     29         -3.354344   1.000000
     30         -2.335259   1.000000
     31         -2.088944   0.498509
     32         -2.088934   0.498398
     33         -0.857209   0.000000
     34          0.353089   0.000000
     35          0.974417   0.000000
     36          1.469825   0.000000
     37          1.775378   0.000000
     38          1.811754   0.000000

  0.1000000E+00  0.1262879E-14  0.1262379E-14  0.2000000E-01
      1        -18.322486   1.000000
      2        -18.158187   1.000000
      3        -18.118720   1.000000
      4        -17.976050   1.000000
      5        -17.965340   1.000000
      6        -17.265696   1.000000
      7        -17.193958   1.000000
      8        -17.165015   1.000000
      9        -17.062311   1.000000
     10        -17.052540   1.000000
     11        -16.834577   1.000000
     12        -16.043531   1.000000
     13        -15.022111   1.000000
     14        -14.085770   1.000000
     15         -9.125561   1.000000
     16         -8.301215   1.000000
     17         -8.274934   1.000000
     18         -7.802640   1.000000
     19         -7.761923   1.000000
     20         -7.750119   1.000000
     21         -6.888801   1.000000
     22         -5.721681   1.000000
     23         -5.348452   1.000000
     24         -5.121292   1.000000
     25         -4.801630   1.000000
     26         -4.444930   1.000000
     27         -4.256211   1.000000
     28         -3.871369   1.000000
     29         -3.088684   1.000000
     30         -2.714105   1.000000
     31         -2.249392   0.999997
     32         -1.973099   0.000518
     33         -0.530690   0.000000
     34          0.771081   0.000000
     35          1.141686   0.000000
     36          1.467542   0.000000
     37          1.679584   0.000000
     38          1.912598   0.000000

  0.1262379E-14  0.1000000E+00  0.1262379E-14  0.2000000E-01
      1        -18.322486   1.000000
      2        -18.158187   1.000000
      3        -18.118720   1.000000
      4        -17.976050   1.000000
      5        -17.965340   1.000000
      6        -17.265696   1.000000
      7        -17.193958   1.000000
      8        -17.165015   1.000000
      9        -17.062311   1.000000
     10        -17.052540   1.000000
     11        -16.834577   1.000000
     12        -16.043531   1.000000
     13        -15.022111   1.000000
     14        -14.085770   1.000000
     15         -9.125561   1.000000
     16         -8.301215   1.000000
     17         -8.274933   1.000000
     18         -7.802640   1.000000
     19         -7.761923   1.000000
     20         -7.750119   1.000000
     21         -6.888801   1.000000
     22         -5.721681   1.000000
     23         -5.348452   1.000000
     24         -5.121292   1.000000
     25         -4.801631   1.000000
     26         -4.444930   1.000000
     27         -4.256211   1.000000
     28         -3.871369   1.000000
     29         -3.088684   1.000000
     30         -2.714105   1.000000
     31         -2.249392   0.999997
     32         -1.973099   0.000518
     33         -0.530689   0.000000
     34          0.771081   0.000000
     35          1.141686   0.000000
     36          1.467542   0.000000
     37          1.679557   0.000000
     38          1.909012   0.000000

 -0.1000000E+00  0.1000000E+00  0.1262379E-14  0.2000000E-01
      1        -18.322486   1.000000
      2        -18.158187   1.000000
      3        -18.118720   1.000000
      4        -17.976051   1.000000
      5        -17.965339   1.000000
      6        -17.265696   1.000000
      7        -17.193958   1.000000
      8        -17.165015   1.000000
      9        -17.062311   1.000000
     10        -17.052540   1.000000
     11        -16.834577   1.000000
     12        -16.043531   1.000000
     13        -15.022111   1.000000
     14        -14.085770   1.000000
     15         -9.125561   1.000000
     16         -8.301215   1.000000
     17         -8.274933   1.000000
     18         -7.802640   1.000000
     19         -7.761922   1.000000
     20         -7.750119   1.000000
     21         -6.888800   1.000000
     22         -5.721680   1.000000
     23         -5.348453   1.000000
     24         -5.121292   1.000000
     25         -4.801630   1.000000
     26         -4.444932   1.000000
     27         -4.256210   1.000000
     28         -3.871370   1.000000
     29         -3.088684   1.000000
     30         -2.714099   1.000000
     31         -2.249398   0.999997
     32         -1.973099   0.000518
     33         -0.530690   0.000000
     34          0.771081   0.000000
     35          1.141686   0.000000
     36          1.467541   0.000000
     37          1.679577   0.000000
     38          1.911199   0.000000

  0.2000000E+00  0.1249001E-14  0.1262379E-14  0.2000000E-01
      1        -18.360182   1.000000
      2        -18.201278   1.000000
      3        -18.096524   1.000000
      4        -17.992900   1.000000
      5        -17.963357   1.000000
      6        -17.376084   1.000000
      7        -17.176752   1.000000
      8        -17.125243   1.000000
      9        -17.072523   1.000000
     10        -17.044924   1.000000
     11        -16.517420   1.000000
     12        -15.840770   1.000000
     13        -14.790730   1.000000
     14        -13.930116   1.000000
     15         -9.053845   1.000000
     16         -8.288504   1.000000
     17         -8.203300   1.000000
     18         -7.828193   1.000000
     19         -7.785886   1.000000
     20         -7.753059   1.000000
     21         -7.238097   1.000000
     22         -6.502280   1.000000
     23         -5.739230   1.000000
     24         -5.622999   1.000000
     25         -5.071018   1.000000
     26         -4.873406   1.000000
     27         -4.831044   1.000000
     28         -3.864029   1.000000
     29         -3.747210   1.000000
     30         -2.838522   1.000000
     31         -2.632342   1.000000
     32         -1.461220   0.000000
     33         -0.394578   0.000000
     34          0.458869   0.000000
     35          1.453753   0.000000
     36          1.919358   0.000000
     37          2.109886   0.000000
     38          2.268203   0.000000

  0.1262379E-14  0.2000000E+00  0.1262379E-14  0.2000000E-01
      1        -18.360182   1.000000
      2        -18.201278   1.000000
      3        -18.096524   1.000000
      4        -17.992900   1.000000
      5        -17.963357   1.000000
      6        -17.376084   1.000000
      7        -17.176751   1.000000
      8        -17.125243   1.000000
      9        -17.072523   1.000000
     10        -17.044924   1.000000
     11        -16.517420   1.000000
     12        -15.840770   1.000000
     13        -14.790730   1.000000
     14        -13.930116   1.000000
     15         -9.053845   1.000000
     16         -8.288505   1.000000
     17         -8.203300   1.000000
     18         -7.828193   1.000000
     19         -7.785886   1.000000
     20         -7.753059   1.000000
     21         -7.238097   1.000000
     22         -6.502280   1.000000
     23         -5.739230   1.000000
     24         -5.622999   1.000000
     25         -5.071018   1.000000
     26         -4.873406   1.000000
     27         -4.831044   1.000000
     28         -3.864029   1.000000
     29         -3.747211   1.000000
     30         -2.838522   1.000000
     31         -2.632342   1.000000
     32         -1.461220   0.000000
     33         -0.394578   0.000000
     34          0.458869   0.000000
     35          1.453753   0.000000
     36          1.919354   0.000000
     37          2.109877   0.000000
     38          2.279448   0.000000

 -0.2000000E+00  0.2000000E+00  0.1262379E-14  0.2000000E-01
      1        -18.360182   1.000000
      2        -18.201278   1.000000
      3        -18.096524   1.000000
      4        -17.992900   1.000000
      5        -17.963356   1.000000
      6        -17.376084   1.000000
      7        -17.176751   1.000000
      8        -17.125243   1.000000
      9        -17.072523   1.000000
     10        -17.044923   1.000000
     11        -16.517420   1.000000
     12        -15.840770   1.000000
     13        -14.790730   1.000000
     14        -13.930116   1.000000
     15         -9.053845   1.000000
     16         -8.288504   1.000000
     17         -8.203300   1.000000
     18         -7.828193   1.000000
     19         -7.785885   1.000000
     20         -7.753060   1.000000
     21         -7.238096   1.000000
     22         -6.502279   1.000000
     23         -5.739230   1.000000
     24         -5.623000   1.000000
     25         -5.071020   1.000000
     26         -4.873403   1.000000
     27         -4.831046   1.000000
     28         -3.864030   1.000000
     29         -3.747204   1.000000
     30         -2.838522   1.000000
     31         -2.632346   1.000000
     32         -1.461220   0.000000
     33         -0.394579   0.000000
     34          0.458867   0.000000
     35          1.453753   0.000000
     36          1.919339   0.000000
     37          2.109868   0.000000
     38          2.308038   0.000000

  0.3000000E+00  0.1221245E-14  0.1262379E-14  0.2000000E-01
      1        -18.431581   1.000000
      2        -18.209197   1.000000
      3        -18.073109   1.000000
      4        -18.007115   1.000000
      5        -17.956412   1.000000
      6        -17.490634   1.000000
      7        -17.162406   1.000000
      8        -17.110227   1.000000
      9        -17.060799   1.000000
     10        -17.028001   1.000000
     11        -16.100346   1.000000
     12        -15.548608   1.000000
     13        -14.522122   1.000000
     14        -13.725746   1.000000
     15         -9.158041   1.000000
     16         -8.237987   1.000000
     17         -8.116402   1.000000
     18         -8.109359   1.000000
     19         -7.846478   1.000000
     20         -7.754810   1.000000
     21         -7.657367   1.000000
     22         -6.977737   1.000000
     23         -6.389430   1.000000
     24         -5.927809   1.000000
     25         -5.487826   1.000000
     26         -5.255031   1.000000
     27         -5.204134   1.000000
     28         -4.397566   1.000000
     29         -3.924062   1.000000
     30         -3.052028   1.000000
     31         -2.660571   1.000000
     32         -1.356160   0.000000
     33         -0.775165   0.000000
     34          0.005198   0.000000
     35          1.670418   0.000000
     36          2.200181   0.000000
     37          2.429434   0.000000
     38          2.440963   0.000000

  0.1262379E-14  0.3000000E+00  0.1262379E-14  0.2000000E-01
      1        -18.431581   1.000000
      2        -18.209197   1.000000
      3        -18.073109   1.000000
      4        -18.007115   1.000000
      5        -17.956412   1.000000
      6        -17.490634   1.000000
      7        -17.162406   1.000000
      8        -17.110227   1.000000
      9        -17.060799   1.000000
     10        -17.028001   1.000000
     11        -16.100346   1.000000
     12        -15.548608   1.000000
     13        -14.522122   1.000000
     14        -13.725746   1.000000
     15         -9.158041   1.000000
     16         -8.237988   1.000000
     17         -8.116403   1.000000
     18         -8.109359   1.000000
     19         -7.846478   1.000000
     20         -7.754810   1.000000
     21         -7.657367   1.000000
     22         -6.977737   1.000000
     23         -6.389430   1.000000
     24         -5.927809   1.000000
     25         -5.487827   1.000000
     26         -5.255031   1.000000
     27         -5.204133   1.000000
     28         -4.397566   1.000000
     29         -3.924061   1.000000
     30         -3.052028   1.000000
     31         -2.660571   1.000000
     32         -1.356160   0.000000
     33         -0.775165   0.000000
     34          0.005198   0.000000
     35          1.670418   0.000000
     36          2.200181   0.000000
     37          2.429434   0.000000
     38          2.440964   0.000000

 -0.3000000E+00  0.3000000E+00  0.1262379E-14  0.2000000E-01
      1        -18.431581   1.000000
      2        -18.209197   1.000000
      3        -18.073109   1.000000
      4        -18.007115   1.000000
      5        -17.956412   1.000000
      6        -17.490634   1.000000
      7        -17.162406   1.000000
      8        -17.110226   1.000000
      9        -17.060800   1.000000
     10        -17.028001   1.000000
     11        -16.100346   1.000000
     12        -15.548608   1.000000
     13        -14.522123   1.000000
     14        -13.725747   1.000000
     15         -9.158041   1.000000
     16         -8.237986   1.000000
     17         -8.116401   1.000000
     18         -8.109360   1.000000
     19         -7.846476   1.000000
     20         -7.754810   1.000000
     21         -7.657368   1.000000
     22         -6.977735   1.000000
     23         -6.389431   1.000000
     24         -5.927809   1.000000
     25         -5.487823   1.000000
     26         -5.255033   1.000000
     27         -5.204134   1.000000
     28         -4.397560   1.000000
     29         -3.924062   1.000000
     30         -3.052030   1.000000
     31         -2.660574   1.000000
     32         -1.356160   0.000000
     33         -0.775165   0.000000
     34          0.005196   0.000000
     35          1.670417   0.000000
     36          2.200177   0.000000
     37          2.429434   0.000000
     38          2.440962   0.000000

  0.4000000E+00  0.1193490E-14  0.1262379E-14  0.2000000E-01
      1        -18.489914   1.000000
      2        -18.205091   1.000000
      3        -18.058928   1.000000
      4        -18.016762   1.000000
      5        -17.945647   1.000000
      6        -17.571357   1.000000
      7        -17.156320   1.000000
      8        -17.116377   1.000000
      9        -17.037449   1.000000
     10        -17.008306   1.000000
     11        -15.703208   1.000000
     12        -15.279886   1.000000
     13        -14.320835   1.000000
     14        -13.549912   1.000000
     15         -9.529260   1.000000
     16         -8.664328   1.000000
     17         -8.138075   1.000000
     18         -8.029597   1.000000
     19         -7.879612   1.000000
     20         -7.752858   1.000000
     21         -7.666735   1.000000
     22         -7.162805   1.000000
     23         -6.718520   1.000000
     24         -6.153277   1.000000
     25         -6.149629   1.000000
     26         -5.526733   1.000000
     27         -5.465397   1.000000
     28         -4.491212   1.000000
     29         -3.994996   1.000000
     30         -3.358798   1.000000
     31         -2.533787   1.000000
     32         -1.535395   0.000000
     33         -1.079095   0.000000
     34         -0.284012   0.000000
     35          1.606256   0.000000
     36          2.068906   0.000000
     37          2.445614   0.000000
     38          2.556366   0.000000

  0.1262379E-14  0.4000000E+00  0.1262379E-14  0.2000000E-01
      1        -18.489914   1.000000
      2        -18.205091   1.000000
      3        -18.058928   1.000000
      4        -18.016762   1.000000
      5        -17.945647   1.000000
      6        -17.571357   1.000000
      7        -17.156320   1.000000
      8        -17.116377   1.000000
      9        -17.037449   1.000000
     10        -17.008307   1.000000
     11        -15.703208   1.000000
     12        -15.279886   1.000000
     13        -14.320834   1.000000
     14        -13.549912   1.000000
     15         -9.529260   1.000000
     16         -8.664328   1.000000
     17         -8.138075   1.000000
     18         -8.029597   1.000000
     19         -7.879612   1.000000
     20         -7.752858   1.000000
     21         -7.666735   1.000000
     22         -7.162806   1.000000
     23         -6.718520   1.000000
     24         -6.153277   1.000000
     25         -6.149629   1.000000
     26         -5.526733   1.000000
     27         -5.465397   1.000000
     28         -4.491211   1.000000
     29         -3.994996   1.000000
     30         -3.358798   1.000000
     31         -2.533787   1.000000
     32         -1.535395   0.000000
     33         -1.079096   0.000000
     34         -0.284012   0.000000
     35          1.606256   0.000000
     36          2.068906   0.000000
     37          2.445614   0.000000
     38          2.556367   0.000000

 -0.4000000E+00  0.4000000E+00  0.1262379E-14  0.2000000E-01
      1        -18.489914   1.000000
      2        -18.205092   1.000000
      3        -18.058928   1.000000
      4        -18.016762   1.000000
      5        -17.945647   1.000000
      6        -17.571357   1.000000
      7        -17.156320   1.000000
      8        -17.116376   1.000000
      9        -17.037450   1.000000
     10        -17.008306   1.000000
     11        -15.703208   1.000000
     12        -15.279885   1.000000
     13        -14.320836   1.000000
     14        -13.549914   1.000000
     15         -9.529260   1.000000
     16         -8.664325   1.000000
     17         -8.138072   1.000000
     18         -8.029598   1.000000
     19         -7.879609   1.000000
     20         -7.752858   1.000000
     21         -7.666737   1.000000
     22         -7.162806   1.000000
     23         -6.718519   1.000000
     24         -6.153277   1.000000
     25         -6.149626   1.000000
     26         -5.526733   1.000000
     27         -5.465398   1.000000
     28         -4.491206   1.000000
     29         -3.994996   1.000000
     30         -3.358798   1.000000
     31         -2.533793   1.000000
     32         -1.535394   0.000000
     33         -1.079096   0.000000
     34         -0.284014   0.000000
     35          1.606253   0.000000
     36          2.068899   0.000000
     37          2.445615   0.000000
     38          2.556368   0.000000

  0.5000000E+00  0.1221245E-14  0.1262379E-14  0.1000000E-01
      1        -18.511236   1.000000
      2        -18.202977   1.000000
      3        -18.054812   1.000000
      4        -18.020208   1.000000
      5        -17.940142   1.000000
      6        -17.599847   1.000000
      7        -17.155073   1.000000
      8        -17.119765   1.000000
      9        -17.028287   1.000000
     10        -16.999590   1.000000
     11        -15.521027   1.000000
     12        -15.175665   1.000000
     13        -14.249945   1.000000
     14        -13.480161   1.000000
     15         -9.737153   1.000000
     16         -8.884479   1.000000
     17         -8.087365   1.000000
     18         -7.998764   1.000000
     19         -7.893844   1.000000
     20         -7.750486   1.000000
     21         -7.565568   1.000000
     22         -7.305891   1.000000
     23         -6.777975   1.000000
     24         -6.408409   1.000000
     25         -6.235320   1.000000
     26         -5.667469   1.000000
     27         -5.558598   1.000000
     28         -4.480341   1.000000
     29         -4.026926   1.000000
     30         -3.468550   1.000000
     31         -2.491730   1.000000
     32         -1.594658   0.000000
     33         -1.225745   0.000000
     34         -0.378652   0.000000
     35          1.541087   0.000000
     36          1.995407   0.000000
     37          2.429798   0.000000
     38          2.446954   0.000000

  0.1262379E-14  0.5000000E+00  0.1262379E-14  0.1000000E-01
      1        -18.511236   1.000000
      2        -18.202977   1.000000
      3        -18.054812   1.000000
      4        -18.020208   1.000000
      5        -17.940142   1.000000
      6        -17.599847   1.000000
      7        -17.155073   1.000000
      8        -17.119765   1.000000
      9        -17.028287   1.000000
     10        -16.999590   1.000000
     11        -15.521027   1.000000
     12        -15.175665   1.000000
     13        -14.249944   1.000000
     14        -13.480161   1.000000
     15         -9.737153   1.000000
     16         -8.884479   1.000000
     17         -8.087365   1.000000
     18         -7.998764   1.000000
     19         -7.893844   1.000000
     20         -7.750486   1.000000
     21         -7.565568   1.000000
     22         -7.305891   1.000000
     23         -6.777975   1.000000
     24         -6.408410   1.000000
     25         -6.235320   1.000000
     26         -5.667469   1.000000
     27         -5.558598   1.000000
     28         -4.480340   1.000000
     29         -4.026925   1.000000
     30         -3.468550   1.000000
     31         -2.491730   1.000000
     32         -1.594658   0.000000
     33         -1.225745   0.000000
     34         -0.378652   0.000000
     35          1.541087   0.000000
     36          1.995407   0.000000
     37          2.429799   0.000000
     38          2.446955   0.000000

  0.5000000E+00  0.5000000E+00  0.1262379E-14  0.1000000E-01
      1        -18.511236   1.000000
      2        -18.202977   1.000000
      3        -18.054812   1.000000
      4        -18.020208   1.000000
      5        -17.940142   1.000000
      6        -17.599847   1.000000
      7        -17.155073   1.000000
      8        -17.119765   1.000000
      9        -17.028287   1.000000
     10        -16.999590   1.000000
     11        -15.521028   1.000000
     12        -15.175664   1.000000
     13        -14.249946   1.000000
     14        -13.480163   1.000000
     15         -9.737152   1.000000
     16         -8.884477   1.000000
     17         -8.087363   1.000000
     18         -7.998766   1.000000
     19         -7.893841   1.000000
     20         -7.750486   1.000000
     21         -7.565570   1.000000
     22         -7.305895   1.000000
     23         -6.777971   1.000000
     24         -6.408408   1.000000
     25         -6.235320   1.000000
     26         -5.667469   1.000000
     27         -5.558598   1.000000
     28         -4.480335   1.000000
     29         -4.026926   1.000000
     30         -3.468549   1.000000
     31         -2.491738   1.000000
     32         -1.594656   0.000000
     33         -1.225745   0.000000
     34         -0.378654   0.000000
     35          1.541084   0.000000
     36          1.995401   0.000000
     37          2.429799   0.000000
     38          2.446957   0.000000

  0.1000000E+00  0.1000000E+00  0.1262379E-14  0.2000000E-01
      1        -18.344652   1.000000
      2        -18.193247   1.000000
      3        -18.103778   1.000000
      4        -17.987903   1.000000
      5        -17.964916   1.000000
      6        -17.337422   1.000000
      7        -17.195868   1.000000
      8        -17.128393   1.000000
      9        -17.071147   1.000000
     10        -17.047881   1.000000
     11        -16.615432   1.000000
     12        -15.905083   1.000000
     13        -14.861331   1.000000
     14        -13.979156   1.000000
     15         -9.066090   1.000000
     16         -8.296014   1.000000
     17         -8.224363   1.000000
     18         -7.814804   1.000000
     19         -7.777012   1.000000
     20         -7.752929   1.000000
     21         -7.090569   1.000000
     22         -6.286610   1.000000
     23         -5.612435   1.000000
     24         -5.349313   1.000000
     25         -5.257849   1.000000
     26         -4.955497   1.000000
     27         -4.213994   1.000000
     28         -4.123215   1.000000
     29         -3.435927   1.000000
     30         -2.886044   1.000000
     31         -2.582416   1.000000
     32         -1.535700   0.000000
     33         -0.276309   0.000000
     34          0.743301   0.000000
     35          1.429374   0.000000
     36          1.506023   0.000000
     37          1.886954   0.000000
     38          2.097692   0.000000

 -0.1000000E+00  0.2000000E+00  0.1262379E-14  0.2000000E-01
      1        -18.344651   1.000000
      2        -18.193247   1.000000
      3        -18.103778   1.000000
      4        -17.987903   1.000000
      5        -17.964916   1.000000
      6        -17.337422   1.000000
      7        -17.195868   1.000000
      8        -17.128393   1.000000
      9        -17.071147   1.000000
     10        -17.047881   1.000000
     11        -16.615432   1.000000
     12        -15.905083   1.000000
     13        -14.861332   1.000000
     14        -13.979157   1.000000
     15         -9.066090   1.000000
     16         -8.296014   1.000000
     17         -8.224362   1.000000
     18         -7.814804   1.000000
     19         -7.777011   1.000000
     20         -7.752930   1.000000
     21         -7.090569   1.000000
     22         -6.286609   1.000000
     23         -5.612436   1.000000
     24         -5.349312   1.000000
     25         -5.257849   1.000000
     26         -4.955498   1.000000
     27         -4.213995   1.000000
     28         -4.123214   1.000000
     29         -3.435920   1.000000
     30         -2.886044   1.000000
     31         -2.582423   1.000000
     32         -1.535700   0.000000
     33         -0.276309   0.000000
     34          0.743300   0.000000
     35          1.429375   0.000000
     36          1.506022   0.000000
     37          1.886953   0.000000
     38          2.097693   0.000000

 -0.2000000E+00  0.1000000E+00  0.1262379E-14  0.2000000E-01
      1        -18.344651   1.000000
      2        -18.193247   1.000000
      3        -18.103778   1.000000
      4        -17.987903   1.000000
      5        -17.964916   1.000000
      6        -17.337422   1.000000
      7        -17.195868   1.000000
      8        -17.128393   1.000000
      9        -17.071147   1.000000
     10        -17.047881   1.000000
     11        -16.615432   1.000000
     12        -15.905083   1.000000
     13        -14.861332   1.000000
     14        -13.979157   1.000000
     15         -9.066090   1.000000
     16         -8.296014   1.000000
     17         -8.224362   1.000000
     18         -7.814804   1.000000
     19         -7.777011   1.000000
     20         -7.752930   1.000000
     21         -7.090569   1.000000
     22         -6.286609   1.000000
     23         -5.612436   1.000000
     24         -5.349312   1.000000
     25         -5.257849   1.000000
     26         -4.955498   1.000000
     27         -4.213996   1.000000
     28         -4.123214   1.000000
     29         -3.435920   1.000000
     30         -2.886044   1.000000
     31         -2.582424   1.000000
     32         -1.535700   0.000000
     33         -0.276309   0.000000
     34          0.743300   0.000000
     35          1.429376   0.000000
     36          1.506022   0.000000
     37          1.886955   0.000000
     38          2.097692   0.000000

  0.2000000E+00  0.1000000E+00  0.1262379E-14  0.2000000E-01
      1        -18.403132   1.000000
      2        -18.209874   1.000000
      3        -18.082973   1.000000
      4        -18.000343   1.000000
      5        -17.961975   1.000000
      6        -17.437850   1.000000
      7        -17.194008   1.000000
      8        -17.099364   1.000000
      9        -17.074984   1.000000
     10        -17.033808   1.000000
     11        -16.249292   1.000000
     12        -15.646840   1.000000
     13        -14.616678   1.000000
     14        -13.798343   1.000000
     15         -9.069203   1.000000
     16         -8.265630   1.000000
     17         -8.136673   1.000000
     18         -7.915682   1.000000
     19         -7.823067   1.000000
     20         -7.756761   1.000000
     21         -7.545215   1.000000
     22         -6.820640   1.000000
     23         -6.113669   1.000000
     24         -5.977680   1.000000
     25         -5.579067   1.000000
     26         -5.210848   1.000000
     27         -4.688902   1.000000
     28         -4.245255   1.000000
     29         -4.099866   1.000000
     30         -3.093695   1.000000
     31         -2.691028   1.000000
     32         -1.171285   0.000000
     33         -0.452871   0.000000
     34          0.426831   0.000000
     35          1.554977   0.000000
     36          1.917346   0.000000
     37          2.409350   0.000000
     38          2.606768   0.000000

 -0.1000000E+00  0.3000000E+00  0.1262379E-14  0.2000000E-01
      1        -18.403132   1.000000
      2        -18.209874   1.000000
      3        -18.082973   1.000000
      4        -18.000343   1.000000
      5        -17.961974   1.000000
      6        -17.437850   1.000000
      7        -17.194008   1.000000
      8        -17.099364   1.000000
      9        -17.074984   1.000000
     10        -17.033808   1.000000
     11        -16.249292   1.000000
     12        -15.646839   1.000000
     13        -14.616679   1.000000
     14        -13.798344   1.000000
     15         -9.069203   1.000000
     16         -8.265632   1.000000
     17         -8.136671   1.000000
     18         -7.915682   1.000000
     19         -7.823066   1.000000
     20         -7.756762   1.000000
     21         -7.545215   1.000000
     22         -6.820639   1.000000
     23         -6.113669   1.000000
     24         -5.977680   1.000000
     25         -5.579066   1.000000
     26         -5.210848   1.000000
     27         -4.688902   1.000000
     28         -4.245251   1.000000
     29         -4.099866   1.000000
     30         -3.093698   1.000000
     31         -2.691030   1.000000
     32         -1.171285   0.000000
     33         -0.452871   0.000000
     34          0.426831   0.000000
     35          1.554977   0.000000
     36          1.917347   0.000000
     37          2.409346   0.000000
     38          2.606745   0.000000

 -0.3000000E+00  0.2000000E+00  0.1262379E-14  0.2000000E-01
      1        -18.403132   1.000000
      2        -18.209874   1.000000
      3        -18.082973   1.000000
      4        -18.000343   1.000000
      5        -17.961974   1.000000
      6        -17.437850   1.000000
      7        -17.194008   1.000000
      8        -17.099363   1.000000
      9        -17.074984   1.000000
     10        -17.033808   1.000000
     11        -16.249292   1.000000
     12        -15.646839   1.000000
     13        -14.616679   1.000000
     14        -13.798344   1.000000
     15         -9.069203   1.000000
     16         -8.265631   1.000000
     17         -8.136672   1.000000
     18         -7.915682   1.000000
     19         -7.823065   1.000000
     20         -7.756762   1.000000
     21         -7.545215   1.000000
     22         -6.820638   1.000000
     23         -6.113669   1.000000
     24         -5.977681   1.000000
     25         -5.579066   1.000000
     26         -5.210847   1.000000
     27         -4.688902   1.000000
     28         -4.245250   1.000000
     29         -4.099864   1.000000
     30         -3.093699   1.000000
     31         -2.691030   1.000000
     32         -1.171285   0.000000
     33         -0.452871   0.000000
     34          0.426829   0.000000
     35          1.554977   0.000000
     36          1.917346   0.000000
     37          2.409347   0.000000
     38          2.606738   0.000000

 -0.2000000E+00  0.3000000E+00  0.1262379E-14  0.2000000E-01
      1        -18.403132   1.000000
      2        -18.209874   1.000000
      3        -18.082973   1.000000
      4        -18.000343   1.000000
      5        -17.961974   1.000000
      6        -17.437850   1.000000
      7        -17.194008   1.000000
      8        -17.099363   1.000000
      9        -17.074984   1.000000
     10        -17.033808   1.000000
     11        -16.249292   1.000000
     12        -15.646839   1.000000
     13        -14.616679   1.000000
     14        -13.798344   1.000000
     15         -9.069203   1.000000
     16         -8.265631   1.000000
     17         -8.136672   1.000000
     18         -7.915682   1.000000
     19         -7.823065   1.000000
     20         -7.756762   1.000000
     21         -7.545215   1.000000
     22         -6.820638   1.000000
     23         -6.113669   1.000000
     24         -5.977681   1.000000
     25         -5.579067   1.000000
     26         -5.210847   1.000000
     27         -4.688902   1.000000
     28         -4.245250   1.000000
     29         -4.099864   1.000000
     30         -3.093699   1.000000
     31         -2.691030   1.000000
     32         -1.171285   0.000000
     33         -0.452871   0.000000
     34          0.426829   0.000000
     35          1.554977   0.000000
     36          1.917346   0.000000
     37          2.409347   0.000000
     38          2.606743   0.000000

  0.1000000E+00  0.2000000E+00  0.1262379E-14  0.2000000E-01
      1        -18.403132   1.000000
      2        -18.209874   1.000000
      3        -18.082973   1.000000
      4        -18.000343   1.000000
      5        -17.961975   1.000000
      6        -17.437850   1.000000
      7        -17.194007   1.000000
      8        -17.099364   1.000000
      9        -17.074984   1.000000
     10        -17.033808   1.000000
     11        -16.249292   1.000000
     12        -15.646840   1.000000
     13        -14.616678   1.000000
     14        -13.798343   1.000000
     15         -9.069203   1.000000
     16         -8.265630   1.000000
     17         -8.136673   1.000000
     18         -7.915682   1.000000
     19         -7.823067   1.000000
     20         -7.756761   1.000000
     21         -7.545215   1.000000
     22         -6.820640   1.000000
     23         -6.113669   1.000000
     24         -5.977680   1.000000
     25         -5.579067   1.000000
     26         -5.210848   1.000000
     27         -4.688902   1.000000
     28         -4.245255   1.000000
     29         -4.099866   1.000000
     30         -3.093695   1.000000
     31         -2.691028   1.000000
     32         -1.171285   0.000000
     33         -0.452871   0.000000
     34          0.426831   0.000000
     35          1.554977   0.000000
     36          1.917346   0.000000
     37          2.409345   0.000000
     38          2.606722   0.000000

  0.3000000E+00 -0.1000000E+00  0.1262379E-14  0.2000000E-01
      1        -18.403132   1.000000
      2        -18.209874   1.000000
      3        -18.082973   1.000000
      4        -18.000343   1.000000
      5        -17.961975   1.000000
      6        -17.437850   1.000000
      7        -17.194008   1.000000
      8        -17.099364   1.000000
      9        -17.074984   1.000000
     10        -17.033808   1.000000
     11        -16.249292   1.000000
     12        -15.646839   1.000000
     13        -14.616679   1.000000
     14        -13.798344   1.000000
     15         -9.069203   1.000000
     16         -8.265632   1.000000
     17         -8.136671   1.000000
     18         -7.915682   1.000000
     19         -7.823066   1.000000
     20         -7.756762   1.000000
     21         -7.545215   1.000000
     22         -6.820639   1.000000
     23         -6.113669   1.000000
     24         -5.977680   1.000000
     25         -5.579066   1.000000
     26         -5.210847   1.000000
     27         -4.688902   1.000000
     28         -4.245251   1.000000
     29         -4.099866   1.000000
     30         -3.093698   1.000000
     31         -2.691030   1.000000
     32         -1.171285   0.000000
     33         -0.452871   0.000000
     34          0.426831   0.000000
     35          1.554977   0.000000
     36          1.917347   0.000000
     37          2.409348   0.000000
     38          2.606761   0.000000

  0.3000000E+00  0.1000000E+00  0.1262379E-14  0.2000000E-01
      1        -18.467244   1.000000
      2        -18.207133   1.000000
      3        -18.067127   1.000000
      4        -18.009929   1.000000
      5        -17.954263   1.000000
      6        -17.527348   1.000000
      7        -17.190203   1.000000
      8        -17.103202   1.000000
      9        -17.053579   1.000000
     10        -17.016384   1.000000
     11        -15.835799   1.000000
     12        -15.345493   1.000000
     13        -14.391396   1.000000
     14        -13.606468   1.000000
     15         -9.325983   1.000000
     16         -8.421027   1.000000
     17         -8.185666   1.000000
     18         -8.042880   1.000000
     19         -7.864378   1.000000
     20         -7.760099   1.000000
     21         -7.671194   1.000000
     22         -7.086203   1.000000
     23         -6.634167   1.000000
     24         -6.281941   1.000000
     25         -5.875385   1.000000
     26         -5.724757   1.000000
     27         -5.148066   1.000000
     28         -4.512336   1.000000
     29         -4.153165   1.000000
     30         -3.514904   1.000000
     31         -2.545468   1.000000
     32         -1.195269   0.000000
     33         -0.784910   0.000000
     34          0.083717   0.000000
     35          1.843535   0.000000
     36          1.963611   0.000000
     37          2.543624   0.000000
     38          2.828613   0.000000

 -0.1000000E+00  0.4000000E+00  0.1262379E-14  0.2000000E-01
      1        -18.467244   1.000000
      2        -18.207133   1.000000
      3        -18.067127   1.000000
      4        -18.009929   1.000000
      5        -17.954263   1.000000
      6        -17.527348   1.000000
      7        -17.190203   1.000000
      8        -17.103202   1.000000
      9        -17.053579   1.000000
     10        -17.016384   1.000000
     11        -15.835799   1.000000
     12        -15.345492   1.000000
     13        -14.391397   1.000000
     14        -13.606469   1.000000
     15         -9.325983   1.000000
     16         -8.421027   1.000000
     17         -8.185669   1.000000
     18         -8.042878   1.000000
     19         -7.864378   1.000000
     20         -7.760099   1.000000
     21         -7.671195   1.000000
     22         -7.086203   1.000000
     23         -6.634166   1.000000
     24         -6.281941   1.000000
     25         -5.875385   1.000000
     26         -5.724755   1.000000
     27         -5.148067   1.000000
     28         -4.512335   1.000000
     29         -4.153166   1.000000
     30         -3.514905   1.000000
     31         -2.545470   1.000000
     32         -1.195269   0.000000
     33         -0.784910   0.000000
     34          0.083717   0.000000
     35          1.843537   0.000000
     36          1.963610   0.000000
     37          2.543625   0.000000
     38          2.828613   0.000000

 -0.4000000E+00  0.3000000E+00  0.1262379E-14  0.2000000E-01
      1        -18.467244   1.000000
      2        -18.207133   1.000000
      3        -18.067127   1.000000
      4        -18.009930   1.000000
      5        -17.954263   1.000000
      6        -17.527348   1.000000
      7        -17.190203   1.000000
      8        -17.103202   1.000000
      9        -17.053579   1.000000
     10        -17.016384   1.000000
     11        -15.835799   1.000000
     12        -15.345492   1.000000
     13        -14.391397   1.000000
     14        -13.606470   1.000000
     15         -9.325983   1.000000
     16         -8.421025   1.000000
     17         -8.185667   1.000000
     18         -8.042879   1.000000
     19         -7.864376   1.000000
     20         -7.760099   1.000000
     21         -7.671196   1.000000
     22         -7.086202   1.000000
     23         -6.634167   1.000000
     24         -6.281942   1.000000
     25         -5.875382   1.000000
     26         -5.724756   1.000000
     27         -5.148067   1.000000
     28         -4.512332   1.000000
     29         -4.153165   1.000000
     30         -3.514907   1.000000
     31         -2.545473   1.000000
     32         -1.195269   0.000000
     33         -0.784909   0.000000
     34          0.083715   0.000000
     35          1.843535   0.000000
     36          1.963609   0.000000
     37          2.543621   0.000000
     38          2.828612   0.000000

 -0.3000000E+00  0.4000000E+00  0.1262379E-14  0.2000000E-01
      1        -18.467244   1.000000
      2        -18.207133   1.000000
      3        -18.067127   1.000000
      4        -18.009930   1.000000
      5        -17.954263   1.000000
      6        -17.527348   1.000000
      7        -17.190203   1.000000
      8        -17.103202   1.000000
      9        -17.053579   1.000000
     10        -17.016384   1.000000
     11        -15.835799   1.000000
     12        -15.345492   1.000000
     13        -14.391397   1.000000
     14        -13.606470   1.000000
     15         -9.325983   1.000000
     16         -8.421025   1.000000
     17         -8.185667   1.000000
     18         -8.042879   1.000000
     19         -7.864376   1.000000
     20         -7.760099   1.000000
     21         -7.671196   1.000000
     22         -7.086202   1.000000
     23         -6.634167   1.000000
     24         -6.281942   1.000000
     25         -5.875382   1.000000
     26         -5.724756   1.000000
     27         -5.148067   1.000000
     28         -4.512332   1.000000
     29         -4.153165   1.000000
     30         -3.514907   1.000000
     31         -2.545473   1.000000
     32         -1.195268   0.000000
     33         -0.784910   0.000000
     34          0.083715   0.000000
     35          1.843535   0.000000
     36          1.963609   0.000000
     37          2.543621   0.000000
     38          2.828612   0.000000

  0.1000000E+00  0.3000000E+00  0.1262379E-14  0.2000000E-01
      1        -18.467244   1.000000
      2        -18.207133   1.000000
      3        -18.067127   1.000000
      4        -18.009929   1.000000
      5        -17.954263   1.000000
      6        -17.527348   1.000000
      7        -17.190203   1.000000
      8        -17.103202   1.000000
      9        -17.053579   1.000000
     10        -17.016384   1.000000
     11        -15.835799   1.000000
     12        -15.345493   1.000000
     13        -14.391396   1.000000
     14        -13.606468   1.000000
     15         -9.325983   1.000000
     16         -8.421028   1.000000
     17         -8.185666   1.000000
     18         -8.042880   1.000000
     19         -7.864378   1.000000
     20         -7.760099   1.000000
     21         -7.671194   1.000000
     22         -7.086203   1.000000
     23         -6.634167   1.000000
     24         -6.281941   1.000000
     25         -5.875385   1.000000
     26         -5.724757   1.000000
     27         -5.148066   1.000000
     28         -4.512336   1.000000
     29         -4.153165   1.000000
     30         -3.514904   1.000000
     31         -2.545468   1.000000
     32         -1.195269   0.000000
     33         -0.784910   0.000000
     34          0.083717   0.000000
     35          1.843535   0.000000
     36          1.963611   0.000000
     37          2.543625   0.000000
     38          2.828613   0.000000

  0.4000000E+00 -0.1000000E+00  0.1262379E-14  0.2000000E-01
      1        -18.467244   1.000000
      2        -18.207133   1.000000
      3        -18.067127   1.000000
      4        -18.009929   1.000000
      5        -17.954263   1.000000
      6        -17.527348   1.000000
      7        -17.190203   1.000000
      8        -17.103202   1.000000
      9        -17.053579   1.000000
     10        -17.016384   1.000000
     11        -15.835799   1.000000
     12        -15.345492   1.000000
     13        -14.391397   1.000000
     14        -13.606469   1.000000
     15         -9.325983   1.000000
     16         -8.421027   1.000000
     17         -8.185669   1.000000
     18         -8.042878   1.000000
     19         -7.864378   1.000000
     20         -7.760099   1.000000
     21         -7.671195   1.000000
     22         -7.086203   1.000000
     23         -6.634166   1.000000
     24         -6.281941   1.000000
     25         -5.875385   1.000000
     26         -5.724755   1.000000
     27         -5.148067   1.000000
     28         -4.512335   1.000000
     29         -4.153166   1.000000
     30         -3.514905   1.000000
     31         -2.545470   1.000000
     32         -1.195269   0.000000
     33         -0.784910   0.000000
     34          0.083717   0.000000
     35          1.843537   0.000000
     36          1.963610   0.000000
     37          2.543625   0.000000
     38          2.828612   0.000000

  0.4000000E+00  0.1000000E+00  0.1262379E-14  0.2000000E-01
      1        -18.505138   1.000000
      2        -18.202842   1.000000
      3        -18.060221   1.000000
      4        -18.015186   1.000000
      5        -17.946509   1.000000
      6        -17.577893   1.000000
      7        -17.188868   1.000000
      8        -17.109747   1.000000
      9        -17.033014   1.000000
     10        -17.008545   1.000000
     11        -15.528228   1.000000
     12        -15.141357   1.000000
     13        -14.267512   1.000000
     14        -13.482029   1.000000
     15         -9.646016   1.000000
     16         -8.810985   1.000000
     17         -8.105200   1.000000
     18         -7.988204   1.000000
     19         -7.885206   1.000000
     20         -7.760663   1.000000
     21         -7.578989   1.000000
     22         -7.224501   1.000000
     23         -6.832916   1.000000
     24         -6.447571   1.000000
     25         -6.374818   1.000000
     26         -5.788070   1.000000
     27         -5.490148   1.000000
     28         -4.598237   1.000000
     29         -4.140911   1.000000
     30         -3.745762   1.000000
     31         -2.464140   1.000000
     32         -1.310235   0.000000
     33         -1.009489   0.000000
     34         -0.097716   0.000000
     35          1.793718   0.000000
     36          2.076233   0.000000
     37          2.371283   0.000000
     38          2.680134   0.000000

 -0.1000000E+00  0.5000000E+00  0.1262379E-14  0.2000000E-01
      1        -18.505138   1.000000
      2        -18.202842   1.000000
      3        -18.060221   1.000000
      4        -18.015186   1.000000
      5        -17.946509   1.000000
      6        -17.577893   1.000000
      7        -17.188868   1.000000
      8        -17.109747   1.000000
      9        -17.033013   1.000000
     10        -17.008545   1.000000
     11        -15.528228   1.000000
     12        -15.141357   1.000000
     13        -14.267512   1.000000
     14        -13.482030   1.000000
     15         -9.646016   1.000000
     16         -8.810985   1.000000
     17         -8.105201   1.000000
     18         -7.988202   1.000000
     19         -7.885206   1.000000
     20         -7.760663   1.000000
     21         -7.578989   1.000000
     22         -7.224501   1.000000
     23         -6.832916   1.000000
     24         -6.447571   1.000000
     25         -6.374817   1.000000
     26         -5.788069   1.000000
     27         -5.490149   1.000000
     28         -4.598237   1.000000
     29         -4.140911   1.000000
     30         -3.745763   1.000000
     31         -2.464141   1.000000
     32         -1.310234   0.000000
     33         -1.009489   0.000000
     34         -0.097716   0.000000
     35          1.793718   0.000000
     36          2.076234   0.000000
     37          2.371282   0.000000
     38          2.680134   0.000000

  0.5000000E+00  0.4000000E+00  0.1262379E-14  0.2000000E-01
      1        -18.505138   1.000000
      2        -18.202842   1.000000
      3        -18.060221   1.000000
      4        -18.015187   1.000000
      5        -17.946509   1.000000
      6        -17.577893   1.000000
      7        -17.188868   1.000000
      8        -17.109747   1.000000
      9        -17.033014   1.000000
     10        -17.008545   1.000000
     11        -15.528228   1.000000
     12        -15.141356   1.000000
     13        -14.267513   1.000000
     14        -13.482031   1.000000
     15         -9.646015   1.000000
     16         -8.810982   1.000000
     17         -8.105200   1.000000
     18         -7.988203   1.000000
     19         -7.885203   1.000000
     20         -7.760663   1.000000
     21         -7.578991   1.000000
     22         -7.224504   1.000000
     23         -6.832915   1.000000
     24         -6.447572   1.000000
     25         -6.374814   1.000000
     26         -5.788069   1.000000
     27         -5.490149   1.000000
     28         -4.598234   1.000000
     29         -4.140910   1.000000
     30         -3.745764   1.000000
     31         -2.464148   1.000000
     32         -1.310232   0.000000
     33         -1.009489   0.000000
     34         -0.097717   0.000000
     35          1.793716   0.000000
     36          2.076232   0.000000
     37          2.371282   0.000000
     38          2.680130   0.000000

 -0.4000000E+00  0.5000000E+00  0.1262379E-14  0.2000000E-01
      1        -18.505138   1.000000
      2        -18.202842   1.000000
      3        -18.060221   1.000000
      4        -18.015187   1.000000
      5        -17.946509   1.000000
      6        -17.577893   1.000000
      7        -17.188868   1.000000
      8        -17.109747   1.000000
      9        -17.033014   1.000000
     10        -17.008545   1.000000
     11        -15.528228   1.000000
     12        -15.141356   1.000000
     13        -14.267513   1.000000
     14        -13.482031   1.000000
     15         -9.646015   1.000000
     16         -8.810982   1.000000
     17         -8.105200   1.000000
     18         -7.988203   1.000000
     19         -7.885203   1.000000
     20         -7.760663   1.000000
     21         -7.578991   1.000000
     22         -7.224504   1.000000
     23         -6.832915   1.000000
     24         -6.447572   1.000000
     25         -6.374814   1.000000
     26         -5.788069   1.000000
     27         -5.490149   1.000000
     28         -4.598234   1.000000
     29         -4.140910   1.000000
     30         -3.745764   1.000000
     31         -2.464148   1.000000
     32         -1.310232   0.000000
     33         -1.009489   0.000000
     34         -0.097717   0.000000
     35          1.793716   0.000000
     36          2.076232   0.000000
     37          2.371282   0.000000
     38          2.680130   0.000000

  0.1000000E+00  0.4000000E+00  0.1262379E-14  0.2000000E-01
      1        -18.505138   1.000000
      2        -18.202842   1.000000
      3        -18.060221   1.000000
      4        -18.015186   1.000000
      5        -17.946509   1.000000
      6        -17.577893   1.000000
      7        -17.188868   1.000000
      8        -17.109747   1.000000
      9        -17.033014   1.000000
     10        -17.008545   1.000000
     11        -15.528228   1.000000
     12        -15.141357   1.000000
     13        -14.267512   1.000000
     14        -13.482029   1.000000
     15         -9.646016   1.000000
     16         -8.810985   1.000000
     17         -8.105200   1.000000
     18         -7.988204   1.000000
     19         -7.885206   1.000000
     20         -7.760663   1.000000
     21         -7.578989   1.000000
     22         -7.224502   1.000000
     23         -6.832916   1.000000
     24         -6.447571   1.000000
     25         -6.374818   1.000000
     26         -5.788070   1.000000
     27         -5.490148   1.000000
     28         -4.598237   1.000000
     29         -4.140911   1.000000
     30         -3.745762   1.000000
     31         -2.464141   1.000000
     32         -1.310234   0.000000
     33         -1.009489   0.000000
     34         -0.097716   0.000000
     35          1.793718   0.000000
     36          2.076233   0.000000
     37          2.371283   0.000000
     38          2.680134   0.000000

  0.5000000E+00 -0.1000000E+00  0.1262379E-14  0.2000000E-01
      1        -18.505138   1.000000
      2        -18.202842   1.000000
      3        -18.060221   1.000000
      4        -18.015186   1.000000
      5        -17.946509   1.000000
      6        -17.577893   1.000000
      7        -17.188868   1.000000
      8        -17.109747   1.000000
      9        -17.033013   1.000000
     10        -17.008545   1.000000
     11        -15.528228   1.000000
     12        -15.141357   1.000000
     13        -14.267512   1.000000
     14        -13.482030   1.000000
     15         -9.646016   1.000000
     16         -8.810985   1.000000
     17         -8.105201   1.000000
     18         -7.988203   1.000000
     19         -7.885206   1.000000
     20         -7.760663   1.000000
     21         -7.578989   1.000000
     22         -7.224501   1.000000
     23         -6.832916   1.000000
     24         -6.447571   1.000000
     25         -6.374817   1.000000
     26         -5.788069   1.000000
     27         -5.490149   1.000000
     28         -4.598237   1.000000
     29         -4.140911   1.000000
     30         -3.745763   1.000000
     31         -2.464141   1.000000
     32         -1.310234   0.000000
     33         -1.009489   0.000000
     34         -0.097716   0.000000
     35          1.793718   0.000000
     36          2.076234   0.000000
     37          2.371281   0.000000
     38          2.680133   0.000000

  0.2000000E+00  0.2000000E+00  0.1262379E-14  0.2000000E-01
      1        -18.455263   1.000000
      2        -18.208472   1.000000
      3        -18.072997   1.000000
      4        -18.004128   1.000000
      5        -17.960956   1.000000
      6        -17.492599   1.000000
      7        -17.228149   1.000000
      8        -17.082179   1.000000
      9        -17.075964   1.000000
     10        -17.018676   1.000000
     11        -15.883431   1.000000
     12        -15.359744   1.000000
     13        -14.424486   1.000000
     14        -13.628426   1.000000
     15         -9.222522   1.000000
     16         -8.276985   1.000000
     17         -8.202558   1.000000
     18         -8.042278   1.000000
     19         -7.855366   1.000000
     20         -7.764274   1.000000
     21         -7.649033   1.000000
     22         -7.059208   1.000000
     23         -6.612231   1.000000
     24         -6.398574   1.000000
     25         -5.989496   1.000000
     26         -5.629898   1.000000
     27         -4.855254   1.000000
     28         -4.692587   1.000000
     29         -4.256076   1.000000
     30         -3.753350   1.000000
     31         -2.540626   1.000000
     32         -0.913258   0.000000
     33         -0.529907   0.000000
     34          0.632708   0.000000
     35          1.259891   0.000000
     36          2.434197   0.000000
     37          2.665008   0.000000
     38          3.021597   0.000000

 -0.2000000E+00  0.4000000E+00  0.1262379E-14  0.2000000E-01
      1        -18.455263   1.000000
      2        -18.208472   1.000000
      3        -18.072997   1.000000
      4        -18.004128   1.000000
      5        -17.960955   1.000000
      6        -17.492599   1.000000
      7        -17.228149   1.000000
      8        -17.082179   1.000000
      9        -17.075964   1.000000
     10        -17.018676   1.000000
     11        -15.883431   1.000000
     12        -15.359743   1.000000
     13        -14.424487   1.000000
     14        -13.628427   1.000000
     15         -9.222521   1.000000
     16         -8.276984   1.000000
     17         -8.202560   1.000000
     18         -8.042275   1.000000
     19         -7.855364   1.000000
     20         -7.764274   1.000000
     21         -7.649034   1.000000
     22         -7.059207   1.000000
     23         -6.612232   1.000000
     24         -6.398574   1.000000
     25         -5.989496   1.000000
     26         -5.629894   1.000000
     27         -4.855252   1.000000
     28         -4.692590   1.000000
     29         -4.256072   1.000000
     30         -3.753355   1.000000
     31         -2.540629   1.000000
     32         -0.913258   0.000000
     33         -0.529906   0.000000
     34          0.632708   0.000000
     35          1.259891   0.000000
     36          2.434195   0.000000
     37          2.665012   0.000000
     38          3.021602   0.000000

 -0.4000000E+00  0.2000000E+00  0.1262379E-14  0.2000000E-01
      1        -18.455263   1.000000
      2        -18.208472   1.000000
      3        -18.072997   1.000000
      4        -18.004128   1.000000
      5        -17.960955   1.000000
      6        -17.492598   1.000000
      7        -17.228149   1.000000
      8        -17.082179   1.000000
      9        -17.075964   1.000000
     10        -17.018676   1.000000
     11        -15.883431   1.000000
     12        -15.359743   1.000000
     13        -14.424487   1.000000
     14        -13.628427   1.000000
     15         -9.222521   1.000000
     16         -8.276983   1.000000
     17         -8.202560   1.000000
     18         -8.042275   1.000000
     19         -7.855364   1.000000
     20         -7.764274   1.000000
     21         -7.649034   1.000000
     22         -7.059207   1.000000
     23         -6.612231   1.000000
     24         -6.398574   1.000000
     25         -5.989496   1.000000
     26         -5.629894   1.000000
     27         -4.855252   1.000000
     28         -4.692590   1.000000
     29         -4.256072   1.000000
     30         -3.753355   1.000000
     31         -2.540629   1.000000
     32         -0.913258   0.000000
     33         -0.529906   0.000000
     34          0.632708   0.000000
     35          1.259891   0.000000
     36          2.434195   0.000000
     37          2.665012   0.000000
     38          3.021603   0.000000

  0.3000000E+00  0.2000000E+00  0.1262379E-14  0.2000000E-01
      1        -18.494798   1.000000
      2        -18.203012   1.000000
      3        -18.069117   1.000000
      4        -18.004404   1.000000
      5        -17.959471   1.000000
      6        -17.531524   1.000000
      7        -17.254217   1.000000
      8        -17.086969   1.000000
      9        -17.053526   1.000000
     10        -17.016101   1.000000
     11        -15.538487   1.000000
     12        -15.085676   1.000000
     13        -14.298196   1.000000
     14        -13.485054   1.000000
     15         -9.476723   1.000000
     16         -8.665236   1.000000
     17         -8.127746   1.000000
     18         -7.975797   1.000000
     19         -7.872330   1.000000
     20         -7.776231   1.000000
     21         -7.576831   1.000000
     22         -7.189260   1.000000
     23         -7.067367   1.000000
     24         -6.648295   1.000000
     25         -6.185155   1.000000
     26         -5.978890   1.000000
     27         -5.323261   1.000000
     28         -4.930334   1.000000
     29         -4.286222   1.000000
     30         -4.133354   1.000000
     31         -2.439791   1.000000
     32         -0.858986   0.000000
     33         -0.741644   0.000000
     34          0.552955   0.000000
     35          1.447282   0.000000
     36          2.458609   0.000000
     37          2.758060   0.000000
     38          3.345858   0.000000

 -0.2000000E+00  0.5000000E+00  0.1262379E-14  0.2000000E-01
      1        -18.494798   1.000000
      2        -18.203012   1.000000
      3        -18.069117   1.000000
      4        -18.004404   1.000000
      5        -17.959471   1.000000
      6        -17.531524   1.000000
      7        -17.254217   1.000000
      8        -17.086969   1.000000
      9        -17.053525   1.000000
     10        -17.016102   1.000000
     11        -15.538487   1.000000
     12        -15.085676   1.000000
     13        -14.298196   1.000000
     14        -13.485055   1.000000
     15         -9.476722   1.000000
     16         -8.665235   1.000000
     17         -8.127748   1.000000
     18         -7.975794   1.000000
     19         -7.872330   1.000000
     20         -7.776231   1.000000
     21         -7.576832   1.000000
     22         -7.189260   1.000000
     23         -7.067367   1.000000
     24         -6.648295   1.000000
     25         -6.185154   1.000000
     26         -5.978888   1.000000
     27         -5.323261   1.000000
     28         -4.930335   1.000000
     29         -4.286222   1.000000
     30         -4.133355   1.000000
     31         -2.439793   1.000000
     32         -0.858985   0.000000
     33         -0.741644   0.000000
     34          0.552956   0.000000
     35          1.447283   0.000000
     36          2.458606   0.000000
     37          2.758065   0.000000
     38          3.345857   0.000000

  0.5000000E+00  0.3000000E+00  0.1262379E-14  0.2000000E-01
      1        -18.494798   1.000000
      2        -18.203012   1.000000
      3        -18.069117   1.000000
      4        -18.004404   1.000000
      5        -17.959471   1.000000
      6        -17.531524   1.000000
      7        -17.254217   1.000000
      8        -17.086969   1.000000
      9        -17.053526   1.000000
     10        -17.016102   1.000000
     11        -15.538487   1.000000
     12        -15.085676   1.000000
     13        -14.298197   1.000000
     14        -13.485055   1.000000
     15         -9.476722   1.000000
     16         -8.665234   1.000000
     17         -8.127748   1.000000
     18         -7.975794   1.000000
     19         -7.872328   1.000000
     20         -7.776231   1.000000
     21         -7.576833   1.000000
     22         -7.189260   1.000000
     23         -7.067367   1.000000
     24         -6.648297   1.000000
     25         -6.185150   1.000000
     26         -5.978889   1.000000
     27         -5.323261   1.000000
     28         -4.930335   1.000000
     29         -4.286218   1.000000
     30         -4.133358   1.000000
     31         -2.439796   1.000000
     32         -0.858984   0.000000
     33         -0.741643   0.000000
     34          0.552955   0.000000
     35          1.447281   0.000000
     36          2.458609   0.000000
     37          2.758063   0.000000
     38          3.345852   0.000000

 -0.3000000E+00  0.5000000E+00  0.1262379E-14  0.2000000E-01
      1        -18.494798   1.000000
      2        -18.203012   1.000000
      3        -18.069117   1.000000
      4        -18.004404   1.000000
      5        -17.959471   1.000000
      6        -17.531524   1.000000
      7        -17.254217   1.000000
      8        -17.086969   1.000000
      9        -17.053526   1.000000
     10        -17.016102   1.000000
     11        -15.538487   1.000000
     12        -15.085676   1.000000
     13        -14.298197   1.000000
     14        -13.485055   1.000000
     15         -9.476722   1.000000
     16         -8.665234   1.000000
     17         -8.127748   1.000000
     18         -7.975794   1.000000
     19         -7.872328   1.000000
     20         -7.776231   1.000000
     21         -7.576833   1.000000
     22         -7.189260   1.000000
     23         -7.067367   1.000000
     24         -6.648297   1.000000
     25         -6.185150   1.000000
     26         -5.978889   1.000000
     27         -5.323261   1.000000
     28         -4.930335   1.000000
     29         -4.286218   1.000000
     30         -4.133358   1.000000
     31         -2.439796   1.000000
     32         -0.858984   0.000000
     33         -0.741643   0.000000
     34          0.552955   0.000000
     35          1.447281   0.000000
     36          2.458609   0.000000
     37          2.758063   0.000000
     38          3.345852   0.000000

  0.2000000E+00  0.3000000E+00  0.1262379E-14  0.2000000E-01
      1        -18.494798   1.000000
      2        -18.203012   1.000000
      3        -18.069117   1.000000
      4        -18.004404   1.000000
      5        -17.959471   1.000000
      6        -17.531524   1.000000
      7        -17.254217   1.000000
      8        -17.086969   1.000000
      9        -17.053526   1.000000
     10        -17.016101   1.000000
     11        -15.538487   1.000000
     12        -15.085676   1.000000
     13        -14.298196   1.000000
     14        -13.485054   1.000000
     15         -9.476723   1.000000
     16         -8.665236   1.000000
     17         -8.127746   1.000000
     18         -7.975797   1.000000
     19         -7.872330   1.000000
     20         -7.776231   1.000000
     21         -7.576831   1.000000
     22         -7.189260   1.000000
     23         -7.067367   1.000000
     24         -6.648295   1.000000
     25         -6.185155   1.000000
     26         -5.978890   1.000000
     27         -5.323261   1.000000
     28         -4.930334   1.000000
     29         -4.286222   1.000000
     30         -4.133354   1.000000
     31         -2.439791   1.000000
     32         -0.858986   0.000000
     33         -0.741644   0.000000
     34          0.552956   0.000000
     35          1.447282   0.000000
     36          2.458609   0.000000
     37          2.758060   0.000000
     38          3.345856   0.000000

  0.5000000E+00 -0.2000000E+00  0.1262379E-14  0.2000000E-01
      1        -18.494798   1.000000
      2        -18.203012   1.000000
      3        -18.069117   1.000000
      4        -18.004404   1.000000
      5        -17.959471   1.000000
      6        -17.531524   1.000000
      7        -17.254217   1.000000
      8        -17.086969   1.000000
      9        -17.053525   1.000000
     10        -17.016102   1.000000
     11        -15.538487   1.000000
     12        -15.085676   1.000000
     13        -14.298197   1.000000
     14        -13.485055   1.000000
     15         -9.476722   1.000000
     16         -8.665235   1.000000
     17         -8.127749   1.000000
     18         -7.975794   1.000000
     19         -7.872330   1.000000
     20         -7.776231   1.000000
     21         -7.576832   1.000000
     22         -7.189260   1.000000
     23         -7.067367   1.000000
     24         -6.648295   1.000000
     25         -6.185154   1.000000
     26         -5.978888   1.000000
     27         -5.323261   1.000000
     28         -4.930335   1.000000
     29         -4.286222   1.000000
     30         -4.133355   1.000000
     31         -2.439793   1.000000
     32         -0.858985   0.000000
     33         -0.741644   0.000000
     34          0.552956   0.000000
     35          1.447283   0.000000
     36          2.458606   0.000000
     37          2.758065   0.000000
     38          3.345856   0.000000

  0.4000000E+00  0.2000000E+00  0.1262379E-14  0.2000000E-01
      1        -18.509230   1.000000
      2        -18.200376   1.000000
      3        -18.068473   1.000000
      4        -18.003984   1.000000
      5        -17.958668   1.000000
      6        -17.545841   1.000000
      7        -17.263566   1.000000
      8        -17.089461   1.000000
      9        -17.033488   1.000000
     10        -17.026365   1.000000
     11        -15.386913   1.000000
     12        -14.969268   1.000000
     13        -14.262756   1.000000
     14        -13.428879   1.000000
     15         -9.604648   1.000000
     16         -8.834341   1.000000
     17         -8.085012   1.000000
     18         -7.959093   1.000000
     19         -7.878663   1.000000
     20         -7.780667   1.000000
     21         -7.463259   1.000000
     22         -7.279955   1.000000
     23         -7.193808   1.000000
     24         -6.778408   1.000000
     25         -6.403880   1.000000
     26         -5.836405   1.000000
     27         -5.626214   1.000000
     28         -5.042464   1.000000
     29         -4.414483   1.000000
     30         -4.115391   1.000000
     31         -2.408488   1.000000
     32         -0.899880   0.000000
     33         -0.814845   0.000000
     34          0.483630   0.000000
     35          1.532990   0.000000
     36          2.441374   0.000000
     37          2.741970   0.000000
     38          3.340854   0.000000

 -0.2000000E+00 -0.4000000E+00  0.1262379E-14  0.2000000E-01
      1        -18.509230   1.000000
      2        -18.200376   1.000000
      3        -18.068473   1.000000
      4        -18.003984   1.000000
      5        -17.958668   1.000000
      6        -17.545841   1.000000
      7        -17.263566   1.000000
      8        -17.089461   1.000000
      9        -17.033488   1.000000
     10        -17.026365   1.000000
     11        -15.386913   1.000000
     12        -14.969268   1.000000
     13        -14.262755   1.000000
     14        -13.428879   1.000000
     15         -9.604648   1.000000
     16         -8.834341   1.000000
     17         -8.085012   1.000000
     18         -7.959093   1.000000
     19         -7.878663   1.000000
     20         -7.780667   1.000000
     21         -7.463259   1.000000
     22         -7.279955   1.000000
     23         -7.193809   1.000000
     24         -6.778408   1.000000
     25         -6.403880   1.000000
     26         -5.836405   1.000000
     27         -5.626214   1.000000
     28         -5.042464   1.000000
     29         -4.414483   1.000000
     30         -4.115391   1.000000
     31         -2.408488   1.000000
     32         -0.899880   0.000000
     33         -0.814845   0.000000
     34          0.483631   0.000000
     35          1.532990   0.000000
     36          2.441374   0.000000
     37          2.741969   0.000000
     38          3.340854   0.000000

  0.4000000E+00  0.4000000E+00  0.1262379E-14  0.2000000E-01
      1        -18.509230   1.000000
      2        -18.200376   1.000000
      3        -18.068473   1.000000
      4        -18.003984   1.000000
      5        -17.958668   1.000000
      6        -17.545841   1.000000
      7        -17.263566   1.000000
      8        -17.089461   1.000000
      9        -17.033489   1.000000
     10        -17.026365   1.000000
     11        -15.386914   1.000000
     12        -14.969267   1.000000
     13        -14.262756   1.000000
     14        -13.428880   1.000000
     15         -9.604648   1.000000
     16         -8.834340   1.000000
     17         -8.085013   1.000000
     18         -7.959092   1.000000
     19         -7.878661   1.000000
     20         -7.780668   1.000000
     21         -7.463260   1.000000
     22         -7.279955   1.000000
     23         -7.193810   1.000000
     24         -6.778410   1.000000
     25         -6.403874   1.000000
     26         -5.836403   1.000000
     27         -5.626215   1.000000
     28         -5.042464   1.000000
     29         -4.414482   1.000000
     30         -4.115392   1.000000
     31         -2.408493   1.000000
     32         -0.899878   0.000000
     33         -0.814846   0.000000
     34          0.483630   0.000000
     35          1.532989   0.000000
     36          2.441376   0.000000
     37          2.741969   0.000000
     38          3.340844   0.000000

  0.3000000E+00  0.3000000E+00  0.1262379E-14  0.2000000E-01
      1        -18.509013   1.000000
      2        -18.199272   1.000000
      3        -18.073089   1.000000
      4        -17.992288   1.000000
      5        -17.971135   1.000000
      6        -17.515945   1.000000
      7        -17.312039   1.000000
      8        -17.066497   1.000000
      9        -17.051546   1.000000
     10        -17.031317   1.000000
     11        -15.335021   1.000000
     12        -14.881757   1.000000
     13        -14.276794   1.000000
     14        -13.409023   1.000000
     15         -9.536683   1.000000
     16         -8.815667   1.000000
     17         -8.074662   1.000000
     18         -7.954329   1.000000
     19         -7.873066   1.000000
     20         -7.792724   1.000000
     21         -7.549719   1.000000
     22         -7.416137   1.000000
     23         -7.233495   1.000000
     24         -6.845612   1.000000
     25         -6.240444   1.000000
     26         -5.974309   1.000000
     27         -5.614315   1.000000
     28         -5.294614   1.000000
     29         -4.731946   1.000000
     30         -4.102125   1.000000
     31         -2.393366   1.000000
     32         -0.802244   0.000000
     33         -0.669129   0.000000
     34          0.728058   0.000000
     35          1.476482   0.000000
     36          2.685470   0.000000
     37          2.959060   0.000000
     38          3.580132   0.000000

 -0.3000000E+00 -0.4000000E+00  0.1262379E-14  0.2000000E-01
      1        -18.509013   1.000000
      2        -18.199272   1.000000
      3        -18.073089   1.000000
      4        -17.992288   1.000000
      5        -17.971135   1.000000
      6        -17.515945   1.000000
      7        -17.312039   1.000000
      8        -17.066497   1.000000
      9        -17.051546   1.000000
     10        -17.031318   1.000000
     11        -15.335021   1.000000
     12        -14.881756   1.000000
     13        -14.276795   1.000000
     14        -13.409024   1.000000
     15         -9.536682   1.000000
     16         -8.815666   1.000000
     17         -8.074664   1.000000
     18         -7.954327   1.000000
     19         -7.873066   1.000000
     20         -7.792724   1.000000
     21         -7.549720   1.000000
     22         -7.416138   1.000000
     23         -7.233495   1.000000
     24         -6.845613   1.000000
     25         -6.240440   1.000000
     26         -5.974309   1.000000
     27         -5.614315   1.000000
     28         -5.294615   1.000000
     29         -4.731946   1.000000
     30         -4.102124   1.000000
     31         -2.393368   1.000000
     32         -0.802243   0.000000
     33         -0.669129   0.000000
     34          0.728058   0.000000
     35          1.476482   0.000000
     36          2.685470   0.000000
     37          2.959060   0.000000
     38          3.580134   0.000000

  0.4000000E+00  0.3000000E+00  0.1262379E-14  0.2000000E-01
      1        -18.509013   1.000000
      2        -18.199272   1.000000
      3        -18.073089   1.000000
      4        -17.992288   1.000000
      5        -17.971135   1.000000
      6        -17.515945   1.000000
      7        -17.312039   1.000000
      8        -17.066497   1.000000
      9        -17.051546   1.000000
     10        -17.031318   1.000000
     11        -15.335021   1.000000
     12        -14.881756   1.000000
     13        -14.276795   1.000000
     14        -13.409024   1.000000
     15         -9.536682   1.000000
     16         -8.815666   1.000000
     17         -8.074664   1.000000
     18         -7.954327   1.000000
     19         -7.873066   1.000000
     20         -7.792724   1.000000
     21         -7.549720   1.000000
     22         -7.416138   1.000000
     23         -7.233495   1.000000
     24         -6.845612   1.000000
     25         -6.240440   1.000000
     26         -5.974308   1.000000
     27         -5.614315   1.000000
     28         -5.294615   1.000000
     29         -4.731946   1.000000
     30         -4.102124   1.000000
     31         -2.393368   1.000000
     32         -0.802243   0.000000
     33         -0.669129   0.000000
     34          0.728058   0.000000
     35          1.476482   0.000000
     36          2.685470   0.000000
     37          2.959060   0.000000
     38          3.580134   0.000000
