WP2-P02-beta001-vacuum-30A-500-k10
1.0
   3.8782842923155867    0.0000000000000000    0.0000000000000000
  -1.9391421461577933    3.3586927202930394    0.0000000000000000
   0.0000000000000000   -0.0000000000000000   39.4561054730850671
S In Zn
4 2 1
direct
   0.0000009328819783    0.9999990675493606    0.3801693000398184 S
   0.6666674558440757    0.3333325101705703    0.4704029377715039 S
   0.0000006130220095    0.9999994892935781    0.5418630546097426 S
   0.3333315663518467    0.6666682684148559    0.6198306999601815 S
   0.6666675549394873    0.3333324596457766    0.4094436810520821 In
   0.3333340192907590    0.6666660563643667    0.5110357465509160 In
   0.9999977976698390    0.0000020885614866    0.6116779834814959 Zn
