 running    8 mpi-ranks, on    1 nodes
 distrk:  each k-point on    8 cores,    1 groups
 distr:  one band on    4 cores,    2 groups
 vasp.6.6.1 17Jul2026 (build Sep  7 2026 10:40:42) complex                       
 POSCAR found type information on POSCAR S InZn
 POSCAR found :  3 types and       7 ions
 scaLAPACK will be used
 LDA part: xc-table for (Slater+PW92), standard interpolation
 POSCAR, INCAR and KPOINTS ok, starting setup
 FFT: planning ... GRIDC
 FFT: planning ... GRID_SOFT
 FFT: planning ... GRID
 WAVECAR not read
 entering main loop
       N       E                     dE             d eps       ncg     rms          rms(c)
DAV:   1     0.512556300011E+03    0.51256E+03   -0.24738E+04  4240   0.131E+03
DAV:   2     0.432712407904E+02   -0.46929E+03   -0.45914E+03  4978   0.318E+02
DAV:   3    -0.252345463745E+02   -0.68506E+02   -0.67657E+02  5118   0.144E+02
DAV:   4    -0.283577410431E+02   -0.31232E+01   -0.31140E+01  4908   0.349E+01
DAV:   5    -0.284629930559E+02   -0.10525E+00   -0.10523E+00  5896   0.657E+00    0.132E+01
DAV:   6    -0.264943228340E+02    0.19687E+01   -0.36802E+00  6488   0.420E+01    0.100E+01
DAV:   7    -0.266335319310E+02   -0.13921E+00   -0.43334E+00  5568   0.115E+01    0.359E+00
DAV:   8    -0.266373209253E+02   -0.37890E-02   -0.28497E+00  5576   0.107E+01    0.184E+00
DAV:   9    -0.265301389491E+02    0.10718E+00   -0.64899E-01  6520   0.128E+01    0.105E+00
DAV:  10    -0.265350696734E+02   -0.49307E-02   -0.12040E-01  5188   0.181E+00    0.720E-01
DAV:  11    -0.265338165224E+02    0.12532E-02   -0.15973E-02  6274   0.820E-01    0.359E-01
DAV:  12    -0.265344296579E+02   -0.61314E-03   -0.79415E-03  5120   0.591E-01    0.186E-01
DAV:  13    -0.265343878860E+02    0.41772E-04   -0.14299E-03  5292   0.359E-01    0.715E-02
DAV:  14    -0.265344298005E+02   -0.41914E-04   -0.23946E-04  4784   0.834E-02    0.460E-02
DAV:  15    -0.265344410675E+02   -0.11267E-04   -0.41557E-05  6372   0.545E-02    0.330E-02
DAV:  16    -0.265344628582E+02   -0.21791E-04   -0.25368E-05  4532   0.405E-02    0.190E-02
DAV:  17    -0.265344772467E+02   -0.14388E-04   -0.59272E-06  4530   0.183E-02    0.109E-02
DAV:  18    -0.265344912525E+02   -0.14006E-04   -0.14900E-06  3298   0.141E-02    0.598E-03
DAV:  19    -0.265345070099E+02   -0.15757E-04   -0.19823E-06  3414   0.867E-03    0.400E-03
DAV:  20    -0.265345185237E+02   -0.11514E-04   -0.49369E-07  3170   0.390E-03    0.157E-03
DAV:  21    -0.265345390357E+02   -0.20512E-04   -0.75603E-07  3232   0.379E-03    0.203E-03
DAV:  22    -0.265345405505E+02   -0.15148E-05   -0.65162E-08  2904   0.186E-03    0.156E-03
DAV:  23    -0.265345481406E+02   -0.75901E-05   -0.16167E-07  3046   0.138E-03    0.119E-03
DAV:  24    -0.265345533683E+02   -0.52277E-05   -0.21303E-07  3204   0.187E-03    0.836E-04
DAV:  25    -0.265345541169E+02   -0.74863E-06   -0.32707E-08  2842   0.161E-03
   1 F= -.28279564E+02 E0= -.28279278E+02  d E =-.572040E-03
