WP2-P02-beta001-vacuum-30A-500-k10      
           1
     3.878284    0.000000    0.000000
    -1.939142    3.358693    0.000000
     0.000000   -0.000000   39.456105
   S    In   Zn
     4     2     1
Direct configuration=           1
   0.00000093  0.99999907  0.38016930
   0.66666746  0.33333251  0.47040294
   0.00000061  0.99999949  0.54186305
   0.33333157  0.66666827  0.61983070
   0.66666755  0.33333246  0.40944368
   0.33333402  0.66666606  0.51103575
   0.99999780  0.00000209  0.61167798
