WP2-P02-beta001-thickness-4L-relax-500-k
   1.0000000000000000     
     3.8782842923155867    0.0000000000000000    0.0000000000000000
    -1.9391421461577933    3.3586927202930394    0.0000000000000000
     0.0000000000000000    0.0000000000000000   65.8651576100203897
   S    In   Zn   S    In   Zn   S    In   Zn   S    In   Zn
     4     2     1     4     2     1     4     2     1     4     2     1
Direct
     0.0000003610431069    0.9999999577529413    0.1511469569789166
     0.6666669701961759    0.3333331342203329    0.2053218811987158
     0.0000002212736970    0.0000000047576311    0.2478861798126523
     0.3333328180532053    0.6666674350702795    0.2944453942378119
     0.6666668066885379    0.3333330591043422    0.1683507467330947
     0.3333334587677935    0.6666663151628111    0.2289396155854133
     0.9999990702644695    0.0000012013588559    0.2868643850530617
     0.0000005718930316    0.9999994888995707    0.3363512397704905
     0.6666669434933304    0.3333328957498186    0.3899435070672251
     0.0000001790927899    0.9999997684775978    0.4322860245184315
     0.3333327441600057    0.6666673035951358    0.4789233745010328
     0.6666672411703298    0.3333328147183518    0.3529261164405834
     0.3333335674988234    0.6666663833165547    0.4132425165313684
     0.9999989790805939    0.0000010769938503    0.4711265860733284
     0.0000002987535274    0.9999996150932938    0.5207688279508557
     0.6666670297212307    0.3333328879212666    0.5743790454517200
     0.0000003048975609    0.9999997287764111    0.6167243385466227
     0.3333326370804134    0.6666672823880057    0.6633460977741997
     0.6666669390086309    0.3333329723852393    0.5373414759201433
     0.3333336942919175    0.6666662929719962    0.5976675802150636
     0.9999988155409825    0.0000011044517460    0.6555335620964328
     0.0000004791339277    0.9999993699796860    0.7051498266425086
     0.6666669184124665    0.3333329125598342    0.7587525175435221
     0.0000001724555379    0.9999997899481508    0.8011292320568107
     0.3333328878583870    0.6666670064541930    0.8482466128545183
     0.6666671364890034    0.3333327183459004    0.7217231894207584
     0.3333335311842010    0.6666663259042255    0.7820495931835848
     0.9999989824963021    0.0000009136419584    0.8402976620921662

  0.00000000E+00  0.00000000E+00  0.00000000E+00
  0.00000000E+00  0.00000000E+00  0.00000000E+00
  0.00000000E+00  0.00000000E+00  0.00000000E+00
  0.00000000E+00  0.00000000E+00  0.00000000E+00
  0.00000000E+00  0.00000000E+00  0.00000000E+00
  0.00000000E+00  0.00000000E+00  0.00000000E+00
  0.00000000E+00  0.00000000E+00  0.00000000E+00
  0.00000000E+00  0.00000000E+00  0.00000000E+00
  0.00000000E+00  0.00000000E+00  0.00000000E+00
  0.00000000E+00  0.00000000E+00  0.00000000E+00
  0.00000000E+00  0.00000000E+00  0.00000000E+00
  0.00000000E+00  0.00000000E+00  0.00000000E+00
  0.00000000E+00  0.00000000E+00  0.00000000E+00
  0.00000000E+00  0.00000000E+00  0.00000000E+00
  0.00000000E+00  0.00000000E+00  0.00000000E+00
  0.00000000E+00  0.00000000E+00  0.00000000E+00
  0.00000000E+00  0.00000000E+00  0.00000000E+00
  0.00000000E+00  0.00000000E+00  0.00000000E+00
  0.00000000E+00  0.00000000E+00  0.00000000E+00
  0.00000000E+00  0.00000000E+00  0.00000000E+00
  0.00000000E+00  0.00000000E+00  0.00000000E+00
  0.00000000E+00  0.00000000E+00  0.00000000E+00
  0.00000000E+00  0.00000000E+00  0.00000000E+00
  0.00000000E+00  0.00000000E+00  0.00000000E+00
  0.00000000E+00  0.00000000E+00  0.00000000E+00
  0.00000000E+00  0.00000000E+00  0.00000000E+00
  0.00000000E+00  0.00000000E+00  0.00000000E+00
  0.00000000E+00  0.00000000E+00  0.00000000E+00
