WP2-P02-beta001-thickness-4L-relax-500-k
           1
     3.878284    0.000000    0.000000
    -1.939142    3.358693    0.000000
     0.000000   -0.000000   65.865158
   S    In   Zn   S    In   Zn   S    In   Zn   S    In   Zn
     4     2     1     4     2     1     4     2     1     4     2     1
Direct configuration=           1
   0.00000000  0.00000000  0.15182534
   0.66666666  0.33333331  0.20553697
   0.00000000  0.00000000  0.24790421
   0.33333331  0.66666666  0.29484266
   0.66666666  0.33333331  0.16832535
   0.33333331  0.66666666  0.22869301
   0.00000000  0.00000000  0.28642649
   0.00000000  0.00000000  0.33626934
   0.66666666  0.33333331  0.38998097
   0.00000000  0.00000000  0.43234821
   0.33333331  0.66666666  0.47928666
   0.66666666  0.33333331  0.35276935
   0.33333331  0.66666666  0.41313701
   0.00000000  0.00000000  0.47087049
   0.00000000  0.00000000  0.52071334
   0.66666666  0.33333331  0.57442497
   0.00000000  0.00000000  0.61679221
   0.33333331  0.66666666  0.66373066
   0.66666666  0.33333331  0.53721335
   0.33333331  0.66666666  0.59758101
   0.00000000  0.00000000  0.65531449
   0.00000000  0.00000000  0.70515734
   0.66666666  0.33333331  0.75886897
   0.00000000  0.00000000  0.80123621
   0.33333331  0.66666666  0.84817466
   0.66666666  0.33333331  0.72165735
   0.33333331  0.66666666  0.78202501
   0.00000000  0.00000000  0.83975849
Direct configuration=           2
   0.00000162  0.00000262  0.15150891
   0.66666506  0.33333252  0.20530801
   0.00000139  0.00000209  0.24828624
   0.33333383  0.66666654  0.29484367
   0.66666507  0.33333121  0.16854631
   0.33333282  0.66666589  0.22867436
   0.99999985  0.00000026  0.28635177
   0.00000015  0.99999999  0.33612252
   0.66666680  0.33333323  0.38979262
   0.99999973  0.99999981  0.43237126
   0.33333365  0.66666655  0.47915033
   0.66666662  0.33333327  0.35285859
   0.33333339  0.66666659  0.41336193
   0.99999982  0.00000019  0.47099649
   0.99999991  0.99999986  0.52066453
   0.66666661  0.33333323  0.57422700
   0.00000020  0.99999999  0.61675510
   0.33333354  0.66666636  0.66384001
   0.66666667  0.33333327  0.53740228
   0.33333335  0.66666653  0.59772670
   0.99999955  0.00000040  0.65523320
   0.00000000  0.99999999  0.70503785
   0.66666667  0.33333322  0.75877467
   0.99999983  0.00000036  0.80130236
   0.33333409  0.66666611  0.84822528
   0.66666658  0.33333304  0.72172081
   0.33333339  0.66666631  0.78208146
   0.99999956  0.00000031  0.83969984
Direct configuration=           3
   0.00000112  0.00000181  0.15160652
   0.66666555  0.33333276  0.20537864
   0.00000096  0.00000145  0.24816840
   0.33333367  0.66666658  0.29484336
   0.66666556  0.33333186  0.16847815
   0.33333297  0.66666613  0.22868011
   0.99999990  0.00000018  0.28637481
   0.00000011  0.99999999  0.33616781
   0.66666676  0.33333325  0.38985072
   0.99999982  0.99999987  0.43236415
   0.33333355  0.66666658  0.47919238
   0.66666663  0.33333328  0.35283106
   0.33333337  0.66666661  0.41329255
   0.99999988  0.00000013  0.47095762
   0.99999994  0.99999990  0.52067958
   0.66666662  0.33333325  0.57428807
   0.00000014  1.00000000  0.61676655
   0.33333347  0.66666645  0.66380628
   0.66666666  0.33333328  0.53734400
   0.33333334  0.66666657  0.59768176
   0.99999969  0.00000028  0.65525827
   0.00000000  0.99999999  0.70507471
   0.66666667  0.33333325  0.75880376
   0.99999988  0.00000025  0.80128195
   0.33333385  0.66666628  0.84820967
   0.66666660  0.33333313  0.72170123
   0.33333336  0.66666642  0.78206405
   0.99999969  0.00000021  0.83971793
Direct configuration=           4
   0.00000088  0.00000143  0.15165295
   0.66666579  0.33333288  0.20541223
   0.00000076  0.00000114  0.24811234
   0.33333360  0.66666660  0.29484321
   0.66666579  0.33333217  0.16844573
   0.33333304  0.66666624  0.22868285
   0.99999992  0.00000014  0.28638578
   0.00000008  0.99999999  0.33618935
   0.66666674  0.33333327  0.38987836
   0.99999985  0.99999990  0.43236077
   0.33333350  0.66666660  0.47921238
   0.66666664  0.33333329  0.35281797
   0.33333335  0.66666662  0.41325955
   0.99999990  0.00000010  0.47093913
   0.99999995  0.99999992  0.52068675
   0.66666663  0.33333327  0.57431712
   0.00000011  1.00000000  0.61677199
   0.33333344  0.66666650  0.66379023
   0.66666666  0.33333329  0.53731628
   0.33333333  0.66666659  0.59766038
   0.99999975  0.00000022  0.65527020
   0.00000000  1.00000000  0.70509224
   0.66666667  0.33333326  0.75881759
   0.99999991  0.00000020  0.80127225
   0.33333374  0.66666636  0.84820224
   0.66666661  0.33333317  0.72169192
   0.33333335  0.66666647  0.78205577
   0.99999976  0.00000017  0.83972653
Direct configuration=           5
   0.00000073  0.00000118  0.15168276
   0.66666594  0.33333296  0.20543381
   0.00000063  0.00000094  0.24807634
   0.33333355  0.66666661  0.29484311
   0.66666594  0.33333236  0.16842491
   0.33333309  0.66666631  0.22868461
   0.99999993  0.00000012  0.28639282
   0.00000007  1.00000000  0.33620319
   0.66666672  0.33333327  0.38989611
   0.99999988  0.99999991  0.43235860
   0.33333347  0.66666661  0.47922523
   0.66666664  0.33333329  0.35280956
   0.33333335  0.66666663  0.41323835
   0.99999992  0.00000008  0.47092726
   0.99999996  0.99999994  0.52069135
   0.66666664  0.33333327  0.57433577
   0.00000009  1.00000000  0.61677549
   0.33333341  0.66666652  0.66377993
   0.66666666  0.33333329  0.53729848
   0.33333333  0.66666660  0.59764665
   0.99999980  0.00000018  0.65527786
   0.00000000  1.00000000  0.70510350
   0.66666666  0.33333327  0.75882648
   0.99999992  0.00000016  0.80126601
   0.33333366  0.66666641  0.84819747
   0.66666662  0.33333319  0.72168594
   0.33333335  0.66666650  0.78205045
   0.99999980  0.00000014  0.83973206
Direct configuration=           6
   0.00000068  0.00000110  0.15148463
   0.66666568  0.33333280  0.20534260
   0.00000076  0.00000112  0.24803155
   0.33333369  0.66666654  0.29478531
   0.66666602  0.33333251  0.16857483
   0.33333311  0.66666636  0.22882809
   0.99999982  0.00000029  0.28645523
   0.00000011  0.99999995  0.33619773
   0.66666676  0.33333323  0.38987834
   0.99999986  0.99999988  0.43234811
   0.33333358  0.66666652  0.47916187
   0.66666668  0.33333328  0.35281615
   0.33333336  0.66666659  0.41327461
   0.99999972  0.00000031  0.47098570
   0.99999998  0.99999988  0.52070320
   0.66666664  0.33333323  0.57433138
   0.00000012  0.99999997  0.61675399
   0.33333349  0.66666645  0.66373780
   0.66666666  0.33333328  0.53730080
   0.33333337  0.66666657  0.59767266
   0.99999961  0.00000035  0.65531485
   0.00000002  0.99999992  0.70509561
   0.66666668  0.33333322  0.75877982
   0.99999992  0.00000017  0.80121171
   0.33333379  0.66666630  0.84818263
   0.66666664  0.33333316  0.72171453
   0.33333337  0.66666648  0.78209364
   0.99999963  0.00000031  0.83980673
Direct configuration=           7
   0.00000068  0.00000109  0.15146457
   0.66666566  0.33333279  0.20533337
   0.00000078  0.00000114  0.24802701
   0.33333370  0.66666653  0.29477946
   0.66666603  0.33333253  0.16859001
   0.33333311  0.66666636  0.22884261
   0.99999981  0.00000031  0.28646155
   0.00000011  0.99999995  0.33619718
   0.66666677  0.33333323  0.38987655
   0.99999986  0.99999988  0.43234705
   0.33333359  0.66666651  0.47915546
   0.66666668  0.33333327  0.35281682
   0.33333336  0.66666658  0.41327828
   0.99999970  0.00000034  0.47099161
   0.99999999  0.99999988  0.52070440
   0.66666664  0.33333322  0.57433094
   0.00000013  0.99999997  0.61675181
   0.33333350  0.66666644  0.66373354
   0.66666665  0.33333328  0.53730104
   0.33333337  0.66666657  0.59767530
   0.99999959  0.00000037  0.65531859
   0.00000002  0.99999991  0.70509481
   0.66666669  0.33333321  0.75877509
   0.99999992  0.00000017  0.80120622
   0.33333380  0.66666628  0.84818112
   0.66666664  0.33333315  0.72171742
   0.33333337  0.66666648  0.78209801
   0.99999962  0.00000033  0.83981428
Direct configuration=           8
   0.00000032  0.00000051  0.15138386
   0.66666570  0.33333278  0.20542560
   0.00000062  0.00000088  0.24792661
   0.33333368  0.66666655  0.29471512
   0.66666640  0.33333308  0.16852839
   0.33333327  0.66666660  0.22893566
   0.99999978  0.00000040  0.28654539
   0.00000012  0.99999990  0.33622429
   0.66666679  0.33333319  0.38991290
   0.99999990  0.99999987  0.43234167
   0.33333355  0.66666653  0.47911838
   0.66666674  0.33333325  0.35279620
   0.33333335  0.66666655  0.41325398
   0.99999960  0.00000047  0.47102440
   0.00000003  0.99999985  0.52072539
   0.66666667  0.33333319  0.57437298
   0.00000013  0.99999994  0.61674771
   0.33333346  0.66666649  0.66366654
   0.66666665  0.33333325  0.53726677
   0.33333342  0.66666656  0.59765997
   0.99999953  0.00000041  0.65537318
   0.00000004  0.99999983  0.70512077
   0.66666671  0.33333317  0.75878668
   0.99999996  0.00000008  0.80115932
   0.33333371  0.66666633  0.84814879
   0.66666668  0.33333315  0.72169635
   0.33333337  0.66666652  0.78209451
   0.99999957  0.00000041  0.83991268
Direct configuration=           9
   0.00000031  0.00000050  0.15138122
   0.66666570  0.33333278  0.20542860
   0.00000062  0.00000087  0.24792334
   0.33333368  0.66666655  0.29471303
   0.66666641  0.33333310  0.16852638
   0.33333327  0.66666661  0.22893870
   0.99999978  0.00000040  0.28654813
   0.00000013  0.99999990  0.33622517
   0.66666679  0.33333319  0.38991409
   0.99999991  0.99999987  0.43234150
   0.33333355  0.66666653  0.47911717
   0.66666674  0.33333325  0.35279553
   0.33333335  0.66666655  0.41325319
   0.99999959  0.00000047  0.47102547
   0.00000003  0.99999985  0.52072607
   0.66666667  0.33333319  0.57437435
   0.00000013  0.99999994  0.61674758
   0.33333346  0.66666649  0.66366435
   0.66666665  0.33333325  0.53726565
   0.33333342  0.66666656  0.59765947
   0.99999953  0.00000041  0.65537496
   0.00000004  0.99999983  0.70512161
   0.66666671  0.33333317  0.75878705
   0.99999996  0.00000008  0.80115779
   0.33333371  0.66666633  0.84814773
   0.66666668  0.33333315  0.72169566
   0.33333337  0.66666652  0.78209439
   0.99999957  0.00000041  0.83991589
Direct configuration=          10
   0.00000017  0.00000026  0.15134123
   0.66666582  0.33333281  0.20542923
   0.00000048  0.00000066  0.24790374
   0.33333361  0.66666662  0.29468773
   0.66666656  0.33333331  0.16855559
   0.33333336  0.66666672  0.22894617
   0.99999977  0.00000044  0.28657490
   0.00000016  0.99999988  0.33624166
   0.66666680  0.33333317  0.38993105
   0.99999994  0.99999987  0.43234545
   0.33333345  0.66666662  0.47911718
   0.66666678  0.33333322  0.35279668
   0.33333335  0.66666654  0.41322632
   0.99999958  0.00000049  0.47102251
   0.00000005  0.99999984  0.52073089
   0.66666670  0.33333317  0.57439102
   0.00000013  0.99999993  0.61676107
   0.33333339  0.66666656  0.66363925
   0.66666666  0.33333323  0.53725957
   0.33333345  0.66666654  0.59763762
   0.99999952  0.00000042  0.65538992
   0.00000007  0.99999980  0.70513731
   0.66666672  0.33333315  0.75880642
   0.99999997  0.00000001  0.80115413
   0.33333362  0.66666638  0.84809865
   0.66666671  0.33333313  0.72167421
   0.33333338  0.66666656  0.78206206
   0.99999955  0.00000044  0.84000253
Direct configuration=          11
   0.00000015  0.00000022  0.15133471
   0.66666584  0.33333282  0.20542933
   0.00000046  0.00000062  0.24790055
   0.33333360  0.66666664  0.29468361
   0.66666658  0.33333334  0.16856035
   0.33333337  0.66666674  0.22894739
   0.99999977  0.00000044  0.28657926
   0.00000016  0.99999988  0.33624435
   0.66666680  0.33333316  0.38993382
   0.99999995  0.99999987  0.43234609
   0.33333344  0.66666663  0.47911718
   0.66666679  0.33333321  0.35279686
   0.33333335  0.66666653  0.41322194
   0.99999958  0.00000049  0.47102202
   0.00000006  0.99999984  0.52073167
   0.66666670  0.33333317  0.57439374
   0.00000013  0.99999992  0.61676327
   0.33333337  0.66666657  0.66363516
   0.66666666  0.33333323  0.53725858
   0.33333345  0.66666654  0.59763406
   0.99999952  0.00000043  0.65539236
   0.00000007  0.99999979  0.70513987
   0.66666672  0.33333314  0.75880958
   0.99999997  0.00000000  0.80115353
   0.33333360  0.66666639  0.84809065
   0.66666672  0.33333312  0.72167071
   0.33333338  0.66666656  0.78205679
   0.99999955  0.00000045  0.84001665
Direct configuration=          12
   0.00000005  0.00000004  0.15131011
   0.66666596  0.33333286  0.20544636
   0.00000035  0.00000044  0.24788817
   0.33333354  0.66666670  0.29464716
   0.66666670  0.33333349  0.16854110
   0.33333344  0.66666683  0.22895341
   0.99999975  0.00000049  0.28661859
   0.00000019  0.99999985  0.33625798
   0.66666681  0.33333314  0.38993010
   0.99999998  0.99999987  0.43233804
   0.33333336  0.66666671  0.47910749
   0.66666683  0.33333318  0.35281575
   0.33333335  0.66666652  0.41321416
   0.99999955  0.00000052  0.47102815
   0.00000008  0.99999983  0.52073279
   0.66666673  0.33333314  0.57438799
   0.00000013  0.99999991  0.61676329
   0.33333331  0.66666663  0.66360003
   0.66666668  0.33333321  0.53727159
   0.33333348  0.66666653  0.59763220
   0.99999950  0.00000045  0.65541590
   0.00000010  0.99999976  0.70514761
   0.66666673  0.33333312  0.75879660
   0.99999999  0.99999995  0.80114261
   0.33333349  0.66666648  0.84806975
   0.66666675  0.33333310  0.72168303
   0.33333339  0.66666658  0.78204466
   0.99999956  0.00000044  0.84007947
Direct configuration=          13
   0.99999978  0.99999955  0.15124261
   0.66666629  0.33333297  0.20549307
   0.00000003  0.99999993  0.24785420
   0.33333336  0.66666688  0.29454719
   0.66666700  0.33333389  0.16848831
   0.33333362  0.66666706  0.22896993
   0.99999968  0.00000061  0.28672648
   0.00000027  0.99999977  0.33629536
   0.66666683  0.33333308  0.38991989
   0.00000007  0.99999987  0.43231595
   0.33333313  0.66666692  0.47908091
   0.66666693  0.33333310  0.35286757
   0.33333337  0.66666648  0.41319283
   0.99999947  0.00000062  0.47104494
   0.00000013  0.99999979  0.52073587
   0.66666681  0.33333309  0.57437221
   0.00000014  0.99999986  0.61676335
   0.33333315  0.66666679  0.66350368
   0.66666673  0.33333315  0.53730729
   0.33333355  0.66666649  0.59762708
   0.99999943  0.00000052  0.65548048
   0.00000018  0.99999966  0.70516885
   0.66666676  0.33333306  0.75876098
   0.00000006  0.99999980  0.80111263
   0.33333317  0.66666673  0.84801243
   0.66666685  0.33333303  0.72171683
   0.33333340  0.66666663  0.78201139
   0.99999959  0.00000042  0.84025177
Direct configuration=          14
   0.99999991  0.99999972  0.15123648
   0.66666638  0.33333301  0.20546092
   0.00000006  0.99999998  0.24787046
   0.33333334  0.66666691  0.29452474
   0.66666690  0.33333368  0.16847641
   0.33333356  0.66666692  0.22896831
   0.99999959  0.00000069  0.28674943
   0.00000030  0.99999974  0.33630634
   0.66666684  0.33333306  0.38991627
   0.00000008  0.99999986  0.43229618
   0.33333312  0.66666694  0.47906300
   0.66666696  0.33333308  0.35287344
   0.33333340  0.66666647  0.41321367
   0.99999939  0.00000069  0.47105745
   0.00000014  0.99999977  0.52074257
   0.66666684  0.33333307  0.57436710
   0.00000016  0.99999985  0.61674421
   0.33333313  0.66666681  0.66348093
   0.66666675  0.33333314  0.53730825
   0.33333356  0.66666647  0.59764999
   0.99999934  0.00000061  0.65549377
   0.00000021  0.99999964  0.70516798
   0.66666678  0.33333305  0.75874474
   0.00000007  0.99999981  0.80110027
   0.33333317  0.66666675  0.84803372
   0.66666688  0.33333299  0.72172640
   0.33333341  0.66666658  0.78202818
   0.99999951  0.00000047  0.84026286
Direct configuration=          15
   0.00000008  0.99999993  0.15122909
   0.66666649  0.33333306  0.20542220
   0.00000010  0.00000003  0.24789003
   0.33333331  0.66666695  0.29449772
   0.66666677  0.33333342  0.16846209
   0.33333349  0.66666676  0.22896636
   0.99999948  0.00000080  0.28677706
   0.00000034  0.99999970  0.33631956
   0.66666685  0.33333303  0.38991192
   0.00000009  0.99999985  0.43227239
   0.33333310  0.66666696  0.47904144
   0.66666700  0.33333305  0.35288051
   0.33333343  0.66666645  0.41323876
   0.99999929  0.00000077  0.47107250
   0.00000015  0.99999975  0.52075064
   0.66666687  0.33333304  0.57436095
   0.00000018  0.99999983  0.61672117
   0.33333311  0.66666683  0.66345353
   0.66666679  0.33333312  0.53730942
   0.33333357  0.66666645  0.59767758
   0.99999923  0.00000071  0.65550977
   0.00000025  0.99999961  0.70516694
   0.66666679  0.33333304  0.75872518
   0.00000008  0.99999983  0.80108538
   0.33333317  0.66666677  0.84805934
   0.66666691  0.33333295  0.72173793
   0.33333343  0.66666652  0.78204840
   0.99999941  0.00000053  0.84027622
Direct configuration=          16
   0.00000010  0.99999997  0.15122775
   0.66666651  0.33333306  0.20541519
   0.00000010  0.00000004  0.24789358
   0.33333330  0.66666696  0.29449282
   0.66666675  0.33333338  0.16845950
   0.33333347  0.66666674  0.22896601
   0.99999946  0.00000081  0.28678207
   0.00000034  0.99999970  0.33632195
   0.66666685  0.33333303  0.38991113
   0.00000009  0.99999985  0.43226808
   0.33333310  0.66666697  0.47903753
   0.66666701  0.33333304  0.35288179
   0.33333344  0.66666645  0.41324331
   0.99999928  0.00000079  0.47107522
   0.00000015  0.99999975  0.52075210
   0.66666687  0.33333304  0.57435984
   0.00000018  0.99999983  0.61671699
   0.33333311  0.66666684  0.66344857
   0.66666679  0.33333312  0.53730963
   0.33333357  0.66666644  0.59768258
   0.99999921  0.00000073  0.65551267
   0.00000025  0.99999961  0.70516676
   0.66666680  0.33333304  0.75872164
   0.00000009  0.99999983  0.80108269
   0.33333317  0.66666677  0.84806398
   0.66666692  0.33333294  0.72174002
   0.33333343  0.66666651  0.78205206
   0.99999939  0.00000054  0.84027864
Direct configuration=          17
   0.00000019  0.00000003  0.15121929
   0.66666661  0.33333309  0.20539686
   0.00000014  0.00000006  0.24789790
   0.33333321  0.66666705  0.29447959
   0.66666672  0.33333325  0.16843077
   0.33333344  0.66666662  0.22896190
   0.99999938  0.00000088  0.28680092
   0.00000039  0.99999966  0.33632871
   0.66666686  0.33333300  0.38991898
   0.00000011  0.99999983  0.43226905
   0.33333304  0.66666702  0.47901288
   0.66666705  0.33333300  0.35288875
   0.33333347  0.66666644  0.41324332
   0.99999922  0.00000084  0.47108830
   0.00000018  0.99999972  0.52075591
   0.66666690  0.33333301  0.57436329
   0.00000021  0.99999981  0.61671648
   0.33333303  0.66666691  0.66342560
   0.66666682  0.33333310  0.53731582
   0.33333359  0.66666641  0.59768121
   0.99999914  0.00000080  0.65552033
   0.00000029  0.99999957  0.70516818
   0.66666682  0.33333302  0.75873744
   0.00000010  0.99999984  0.80108773
   0.33333314  0.66666680  0.84809832
   0.66666696  0.33333290  0.72172410
   0.33333345  0.66666646  0.78205049
   0.99999930  0.00000062  0.84028195
Direct configuration=          18
   0.00000032  0.00000013  0.15120610
   0.66666676  0.33333313  0.20536828
   0.00000020  0.00000010  0.24790465
   0.33333308  0.66666719  0.29445895
   0.66666666  0.33333306  0.16838597
   0.33333340  0.66666643  0.22895550
   0.99999927  0.00000100  0.28683034
   0.00000045  0.99999960  0.33633925
   0.66666689  0.33333296  0.38993122
   0.00000013  0.99999981  0.43227057
   0.33333295  0.66666711  0.47897442
   0.66666711  0.33333294  0.35289960
   0.33333351  0.66666643  0.41324333
   0.99999912  0.00000093  0.47110869
   0.00000022  0.99999968  0.52076184
   0.66666695  0.33333297  0.57436869
   0.00000024  0.99999979  0.61671567
   0.33333291  0.66666703  0.66338978
   0.66666686  0.33333306  0.53732548
   0.33333362  0.66666637  0.59767907
   0.99999901  0.00000092  0.65553229
   0.00000036  0.99999950  0.70517041
   0.66666685  0.33333299  0.75876207
   0.00000012  0.99999984  0.80109560
   0.33333310  0.66666684  0.84815189
   0.66666702  0.33333283  0.72169927
   0.33333348  0.66666639  0.78204803
   0.99999916  0.00000074  0.84028712
Direct configuration=          19
   0.00000034  0.00000005  0.15117937
   0.66666686  0.33333313  0.20534731
   0.00000021  0.00000006  0.24789631
   0.33333296  0.66666730  0.29445282
   0.66666673  0.33333306  0.16837005
   0.33333342  0.66666638  0.22894832
   0.99999918  0.00000109  0.28684572
   0.00000051  0.99999955  0.33634467
   0.66666691  0.33333293  0.38993677
   0.00000015  0.99999979  0.43227755
   0.33333286  0.66666720  0.47895135
   0.66666717  0.33333288  0.35291158
   0.33333354  0.66666641  0.41324296
   0.99999906  0.00000100  0.47111678
   0.00000025  0.99999965  0.52076500
   0.66666698  0.33333293  0.57437337
   0.00000027  0.99999976  0.61671959
   0.33333279  0.66666714  0.66337004
   0.66666689  0.33333302  0.53733271
   0.33333365  0.66666633  0.59767388
   0.99999892  0.00000100  0.65553286
   0.00000041  0.99999944  0.70516111
   0.66666688  0.33333295  0.75875775
   0.00000015  0.99999982  0.80111080
   0.33333300  0.66666692  0.84819469
   0.66666707  0.33333278  0.72171008
   0.33333350  0.66666636  0.78204874
   0.99999908  0.00000082  0.84029188
Direct configuration=          20
   0.00000036  0.99999996  0.15114696
   0.66666697  0.33333313  0.20532188
   0.00000022  0.00000000  0.24788618
   0.33333282  0.66666744  0.29444539
   0.66666681  0.33333306  0.16835075
   0.33333346  0.66666632  0.22893962
   0.99999907  0.00000120  0.28686439
   0.00000057  0.99999949  0.33635124
   0.66666694  0.33333290  0.38994351
   0.00000018  0.99999977  0.43228602
   0.33333274  0.66666730  0.47892337
   0.66666724  0.33333281  0.35292612
   0.33333357  0.66666638  0.41324252
   0.99999898  0.00000108  0.47112659
   0.00000030  0.99999962  0.52076883
   0.66666703  0.33333289  0.57437905
   0.00000030  0.99999973  0.61672434
   0.33333264  0.66666728  0.66334610
   0.66666694  0.33333297  0.53734148
   0.33333369  0.66666629  0.59766758
   0.99999882  0.00000110  0.65553356
   0.00000048  0.99999937  0.70514983
   0.66666692  0.33333291  0.75875252
   0.00000017  0.99999979  0.80112923
   0.33333289  0.66666701  0.84824661
   0.66666714  0.33333272  0.72172319
   0.33333353  0.66666633  0.78204959
   0.99999898  0.00000091  0.84029766
