    7    7    1    1
  0.2260644E+02  0.3878284E-09  0.3878284E-09  0.1214843E-08  0.5000000E-15
   1.0000000000000000E-004
  CAR 
 WP2-P02-beta-bulk-matched-static-500-k12
     62     50     38

  0.1262379E-14  0.1262379E-14  0.1262379E-14  0.2500000E-02
      1        -10.923472   1.000000
      2        -10.714588   1.000000
      3        -10.714587   1.000000
      4        -10.544286   1.000000
      5        -10.544286   1.000000
      6        -10.230970   1.000000
      7        -10.230970   1.000000
      8        -10.217240   1.000000
      9        -10.084251   1.000000
     10        -10.084251   1.000000
     11         -9.664753   1.000000
     12         -9.083545   1.000000
     13         -8.158967   1.000000
     14         -7.374964   1.000000
     15         -2.001534   1.000000
     16         -1.542538   1.000000
     17         -1.542535   1.000000
     18         -1.335788   1.000000
     19         -1.096843   1.000000
     20         -1.096843   1.000000
     21          0.496240   1.000000
     22          1.411032   1.000000
     23          2.162137   1.000000
     24          2.162137   1.000000
     25          2.746859   1.000000
     26          2.746859   1.000000
     27          3.040897   1.000000
     28          3.040897   1.000000
     29          3.998447   1.000000
     30          4.532762   0.999997
     31          4.532764   0.999997
     32          4.836010   0.000026
     33          6.392048   0.000000
     34          7.255184   0.000000
     35          7.945131   0.000000
     36          9.051680   0.000000
     37          9.095732   0.000000
     38          9.095789   0.000000

  0.1000000E+00  0.1262879E-14  0.1262379E-14  0.1500000E-01
      1        -10.934018   1.000000
      2        -10.744010   1.000000
      3        -10.705635   1.000000
      4        -10.552654   1.000000
      5        -10.543464   1.000000
      6        -10.285233   1.000000
      7        -10.223013   1.000000
      8        -10.189405   1.000000
      9        -10.092645   1.000000
     10        -10.082937   1.000000
     11         -9.545970   1.000000
     12         -9.004480   1.000000
     13         -8.065981   1.000000
     14         -7.320324   1.000000
     15         -1.959995   1.000000
     16         -1.541109   1.000000
     17         -1.521728   1.000000
     18         -1.324542   1.000000
     19         -1.108326   1.000000
     20         -1.097042   1.000000
     21          0.385903   1.000000
     22          1.387151   1.000000
     23          1.711077   1.000000
     24          2.034325   1.000000
     25          2.241670   1.000000
     26          2.532680   1.000000
     27          2.761780   1.000000
     28          3.107372   1.000000
     29          3.855687   1.000000
     30          4.125607   1.000000
     31          4.397589   1.000000
     32          5.376533   0.000000
     33          6.650456   0.000000
     34          7.687673   0.000000
     35          8.248856   0.000000
     36          8.672870   0.000000
     37          9.228081   0.000000
     38          9.257749   0.000000

  0.2000000E+00  0.1249001E-14  0.1262379E-14  0.1500000E-01
      1        -10.982029   1.000000
      2        -10.783330   1.000000
      3        -10.683874   1.000000
      4        -10.567540   1.000000
      5        -10.539431   1.000000
      6        -10.392309   1.000000
      7        -10.205037   1.000000
      8        -10.150090   1.000000
      9        -10.103608   1.000000
     10        -10.076401   1.000000
     11         -9.242927   1.000000
     12         -8.775895   1.000000
     13         -7.833741   1.000000
     14         -7.175251   1.000000
     15         -1.886200   1.000000
     16         -1.524640   1.000000
     17         -1.466581   1.000000
     18         -1.297590   1.000000
     19         -1.138722   1.000000
     20         -1.095839   1.000000
     21         -0.098301   1.000000
     22          0.764813   1.000000
     23          1.267655   1.000000
     24          1.698412   1.000000
     25          1.726753   1.000000
     26          2.139773   1.000000
     27          2.156720   1.000000
     28          3.026833   1.000000
     29          3.113046   1.000000
     30          4.075987   1.000000
     31          4.097574   1.000000
     32          5.947034   0.000000
     33          6.720084   0.000000
     34          7.812844   0.000000
     35          8.480560   0.000000
     36          8.914975   0.000000
     37          9.580690   0.000000
     38          9.597740   0.000000

  0.3000000E+00  0.1221245E-14  0.1262379E-14  0.1500000E-01
      1        -11.057100   1.000000
      2        -10.800067   1.000000
      3        -10.661605   1.000000
      4        -10.582470   1.000000
      5        -10.529283   1.000000
      6        -10.495338   1.000000
      7        -10.189844   1.000000
      8        -10.137309   1.000000
      9        -10.089146   1.000000
     10        -10.060703   1.000000
     11         -8.840485   1.000000
     12         -8.446550   1.000000
     13         -7.564803   1.000000
     14         -6.994083   1.000000
     15         -1.949114   1.000000
     16         -1.479354   1.000000
     17         -1.398533   1.000000
     18         -1.317829   1.000000
     19         -1.175977   1.000000
     20         -1.088742   1.000000
     21         -0.843964   1.000000
     22          0.141712   1.000000
     23          0.694155   1.000000
     24          1.219802   1.000000
     25          1.388635   1.000000
     26          1.796876   1.000000
     27          1.822694   1.000000
     28          2.583830   1.000000
     29          3.033884   1.000000
     30          3.734065   1.000000
     31          3.989707   1.000000
     32          6.015103   0.000000
     33          6.371961   0.000000
     34          7.375730   0.000000
     35          8.664425   0.000000
     36          9.079490   0.000000
     37          9.755294   0.000000
     38          9.829530   0.000000

  0.4000000E+00  0.1221245E-14  0.1262379E-14  0.1500000E-01
      1        -11.116232   1.000000
      2        -10.814967   1.000000
      3        -10.648466   1.000000
      4        -10.598127   1.000000
      5        -10.551320   1.000000
      6        -10.515753   1.000000
      7        -10.183373   1.000000
      8        -10.144660   1.000000
      9        -10.064122   1.000000
     10        -10.041689   1.000000
     11         -8.445202   1.000000
     12         -8.139800   1.000000
     13         -7.371697   1.000000
     14         -6.848284   1.000000
     15         -2.256925   1.000000
     16         -1.703942   1.000000
     17         -1.398255   1.000000
     18         -1.346470   1.000000
     19         -1.214942   1.000000
     20         -1.074730   1.000000
     21         -1.023943   1.000000
     22         -0.166441   1.000000
     23          0.301860   1.000000
     24          0.608893   1.000000
     25          1.140568   1.000000
     26          1.545176   1.000000
     27          1.717895   1.000000
     28          2.515444   1.000000
     29          2.929885   1.000000
     30          3.502418   1.000000
     31          3.929369   1.000000
     32          5.679874   0.000000
     33          6.236093   0.000000
     34          6.972160   0.000000
     35          8.747504   0.000000
     36          8.889647   0.000000
     37          9.552511   0.000000
     38          9.750732   0.000000

  0.5000000E+00  0.1221245E-14  0.1262379E-14  0.7500000E-02
      1        -11.137768   1.000000
      2        -10.823521   1.000000
      3        -10.644667   1.000000
      4        -10.607014   1.000000
      5        -10.563855   1.000000
      6        -10.509253   1.000000
      7        -10.182051   1.000000
      8        -10.148229   1.000000
      9        -10.054617   1.000000
     10        -10.033152   1.000000
     11         -8.255056   1.000000
     12         -8.019782   1.000000
     13         -7.312052   1.000000
     14         -6.792382   1.000000
     15         -2.449695   1.000000
     16         -1.916160   1.000000
     17         -1.381104   1.000000
     18         -1.328217   1.000000
     19         -1.236105   1.000000
     20         -1.066296   1.000000
     21         -0.900494   1.000000
     22         -0.351765   1.000000
     23          0.065438   1.000000
     24          0.544255   1.000000
     25          1.050649   1.000000
     26          1.455349   1.000000
     27          1.618231   1.000000
     28          2.525155   1.000000
     29          2.880319   1.000000
     30          3.425763   1.000000
     31          3.934194   1.000000
     32          5.526016   0.000000
     33          6.183385   0.000000
     34          6.810290   0.000000
     35          8.713987   0.000000
     36          8.898231   0.000000
     37          9.370428   0.000000
     38          9.726523   0.000000

  0.1000000E+00  0.1000000E+00  0.1262379E-14  0.1500000E-01
      1        -10.964146   1.000000
      2        -10.775514   1.000000
      3        -10.690901   1.000000
      4        -10.562657   1.000000
      5        -10.541871   1.000000
      6        -10.354467   1.000000
      7        -10.224999   1.000000
      8        -10.153266   1.000000
      9        -10.102177   1.000000
     10        -10.079092   1.000000
     11         -9.336047   1.000000
     12         -8.848881   1.000000
     13         -7.904674   1.000000
     14         -7.220389   1.000000
     15         -1.900780   1.000000
     16         -1.531765   1.000000
     17         -1.483563   1.000000
     18         -1.305096   1.000000
     19         -1.128388   1.000000
     20         -1.097058   1.000000
     21          0.092040   1.000000
     22          1.015406   1.000000
     23          1.403219   1.000000
     24          1.740083   1.000000
     25          1.864324   1.000000
     26          1.925561   1.000000
     27          2.754460   1.000000
     28          2.864336   1.000000
     29          3.302388   1.000000
     30          4.062439   1.000000
     31          4.159614   1.000000
     32          5.866448   0.000000
     33          6.845278   0.000000
     34          8.057313   0.000000
     35          8.431498   0.000000
     36          8.742794   0.000000
     37          9.142785   0.000000
     38          9.713658   0.000000

  0.2000000E+00  0.1000000E+00  0.1262379E-14  0.3000000E-01
      1        -11.028043   1.000000
      2        -10.794550   1.000000
      3        -10.670969   1.000000
      4        -10.574307   1.000000
      5        -10.536844   1.000000
      6        -10.449135   1.000000
      7        -10.222435   1.000000
      8        -10.125474   1.000000
      9        -10.105000   1.000000
     10        -10.065762   1.000000
     11         -8.981309   1.000000
     12         -8.561524   1.000000
     13         -7.659400   1.000000
     14         -7.057008   1.000000
     15         -1.885804   1.000000
     16         -1.494469   1.000000
     17         -1.421803   1.000000
     18         -1.289969   1.000000
     19         -1.162142   1.000000
     20         -1.092827   1.000000
     21         -0.541718   1.000000
     22          0.390299   1.000000
     23          0.867161   1.000000
     24          1.298077   1.000000
     25          1.420142   1.000000
     26          1.702278   1.000000
     27          2.230311   1.000000
     28          2.654994   1.000000
     29          2.947018   1.000000
     30          3.638089   1.000000
     31          4.074108   1.000000
     32          6.219606   0.000000
     33          6.664802   0.000000
     34          7.839274   0.000000
     35          8.798822   0.000000
     36          9.098718   0.000000
     37          9.473157   0.000000
     38          9.885484   0.000000

  0.3000000E+00  0.1000000E+00  0.1262379E-14  0.3000000E-01
      1        -11.093389   1.000000
      2        -10.805003   1.000000
      3        -10.656357   1.000000
      4        -10.585776   1.000000
      5        -10.531420   1.000000
      6        -10.518767   1.000000
      7        -10.217569   1.000000
      8        -10.132373   1.000000
      9        -10.081350   1.000000
     10        -10.048350   1.000000
     11         -8.567540   1.000000
     12         -8.227742   1.000000
     13         -7.438806   1.000000
     14         -6.893928   1.000000
     15         -2.079278   1.000000
     16         -1.508296   1.000000
     17         -1.395767   1.000000
     18         -1.354224   1.000000
     19         -1.189723   1.000000
     20         -1.086652   1.000000
     21         -1.031743   1.000000
     22         -0.006488   1.000000
     23          0.437971   1.000000
     24          0.720805   1.000000
     25          1.048708   1.000000
     26          1.449267   1.000000
     27          1.897029   1.000000
     28          2.450756   1.000000
     29          2.887785   1.000000
     30          3.288304   1.000000
     31          3.978364   1.000000
     32          6.073225   0.000000
     33          6.468941   0.000000
     34          7.430395   0.000000
     35          8.924505   0.000000
     36          9.284784   0.000000
     37          9.487181   0.000000
     38          9.847823   0.000000

  0.4000000E+00  0.1000000E+00  0.1262379E-14  0.3000000E-01
      1        -11.131654   1.000000
      2        -10.815145   1.000000
      3        -10.650028   1.000000
      4        -10.596936   1.000000
      5        -10.555396   1.000000
      6        -10.516116   1.000000
      7        -10.215654   1.000000
      8        -10.139385   1.000000
      9        -10.059799   1.000000
     10        -10.041476   1.000000
     11         -8.238326   1.000000
     12         -8.005677   1.000000
     13         -7.332299   1.000000
     14         -6.793252   1.000000
     15         -2.361546   1.000000
     16         -1.846805   1.000000
     17         -1.371400   1.000000
     18         -1.329625   1.000000
     19         -1.224446   1.000000
     20         -1.080644   1.000000
     21         -0.927705   1.000000
     22         -0.257636   1.000000
     23          0.120646   1.000000
     24          0.462844   1.000000
     25          0.852796   1.000000
     26          1.265175   1.000000
     27          1.719143   1.000000
     28          2.334960   1.000000
     29          2.903623   1.000000
     30          3.110926   1.000000
     31          3.947609   1.000000
     32          5.830087   0.000000
     33          6.391960   0.000000
     34          7.155099   0.000000
     35          9.023657   0.000000
     36          9.185472   0.000000
     37          9.371918   0.000000
     38          9.644661   0.000000

  0.2000000E+00  0.2000000E+00  0.1262379E-14  0.1500000E-01
      1        -11.081383   1.000000
      2        -10.799919   1.000000
      3        -10.661947   1.000000
      4        -10.577173   1.000000
      5        -10.536531   1.000000
      6        -10.495328   1.000000
      7        -10.256407   1.000000
      8        -10.114274   1.000000
      9        -10.101669   1.000000
     10        -10.049807   1.000000
     11         -8.605830   1.000000
     12         -8.253971   1.000000
     13         -7.471817   1.000000
     14         -6.911763   1.000000
     15         -1.993994   1.000000
     16         -1.453433   1.000000
     17         -1.386533   1.000000
     18         -1.327752   1.000000
     19         -1.181905   1.000000
     20         -1.079773   1.000000
     21         -0.978447   1.000000
     22          0.113576   1.000000
     23          0.404602   1.000000
     24          0.796213   1.000000
     25          0.830522   1.000000
     26          1.487706   1.000000
     27          2.021431   1.000000
     28          2.346552   1.000000
     29          2.858248   1.000000
     30          3.002530   1.000000
     31          4.018159   1.000000
     32          6.402015   0.000000
     33          6.669338   0.000000
     34          7.987838   0.000000
     35          8.830626   0.000000
     36          9.421354   0.000000
     37          9.695799   0.000000
     38         10.099754   0.000000

  0.3000000E+00  0.2000000E+00  0.1262379E-14  0.3000000E-01
      1        -11.121327   1.000000
      2        -10.802307   1.000000
      3        -10.658629   1.000000
      4        -10.578260   1.000000
      5        -10.538797   1.000000
      6        -10.521941   1.000000
      7        -10.281451   1.000000
      8        -10.117959   1.000000
      9        -10.081634   1.000000
     10        -10.046641   1.000000
     11         -8.217451   1.000000
     12         -7.973862   1.000000
     13         -7.368792   1.000000
     14         -6.794594   1.000000
     15         -2.201618   1.000000
     16         -1.710371   1.000000
     17         -1.355503   1.000000
     18         -1.322335   1.000000
     19         -1.198208   1.000000
     20         -1.115475   1.000000
     21         -0.961389   1.000000
     22         -0.106455   1.000000
     23          0.067162   1.000000
     24          0.290342   1.000000
     25          0.649370   1.000000
     26          1.259623   1.000000
     27          1.664723   1.000000
     28          2.105289   1.000000
     29          2.582458   1.000000
     30          2.940741   1.000000
     31          3.949932   1.000000
     32          6.337691   0.000000
     33          6.661752   0.000000
     34          7.860929   0.000000
     35          8.738595   0.000000
     36          9.649678   0.000000
     37          9.966460   0.000000
     38         10.238398   0.000000

  0.4000000E+00  0.2000000E+00  0.1262379E-14  0.1500000E-01
      1        -11.135879   1.000000
      2        -10.803338   1.000000
      3        -10.658102   1.000000
      4        -10.579781   1.000000
      5        -10.540162   1.000000
      6        -10.528811   1.000000
      7        -10.290242   1.000000
      8        -10.120231   1.000000
      9        -10.060226   1.000000
     10        -10.058748   1.000000
     11         -8.013521   1.000000
     12         -7.874209   1.000000
     13         -7.358567   1.000000
     14         -6.749052   1.000000
     15         -2.313210   1.000000
     16         -1.880901   1.000000
     17         -1.341738   1.000000
     18         -1.318243   1.000000
     19         -1.211543   1.000000
     20         -1.099325   1.000000
     21         -0.823575   1.000000
     22         -0.272993   1.000000
     23         -0.052209   1.000000
     24          0.067058   1.000000
     25          0.659174   1.000000
     26          1.157675   1.000000
     27          1.578760   1.000000
     28          1.924318   1.000000
     29          2.461056   1.000000
     30          2.993502   1.000000
     31          3.923395   1.000000
     32          6.282441   0.000000
     33          6.648872   0.000000
     34          7.770857   0.000000
     35          8.698494   0.000000
     36          9.763805   0.000000
     37          9.894139   0.000000
     38         10.232132   0.000000

  0.3000000E+00  0.3000000E+00  0.1262379E-14  0.1500000E-01
      1        -11.135718   1.000000
      2        -10.795843   1.000000
      3        -10.662480   1.000000
      4        -10.564109   1.000000
      5        -10.544445   1.000000
      6        -10.519844   1.000000
      7        -10.337615   1.000000
      8        -10.098666   1.000000
      9        -10.081421   1.000000
     10        -10.059254   1.000000
     11         -7.918715   1.000000
     12         -7.796458   1.000000
     13         -7.401307   1.000000
     14         -6.732079   1.000000
     15         -2.239009   1.000000
     16         -1.875459   1.000000
     17         -1.332259   1.000000
     18         -1.315820   1.000000
     19         -1.189927   1.000000
     20         -1.116118   1.000000
     21         -0.795459   1.000000
     22         -0.300135   1.000000
     23         -0.170833   1.000000
     24         -0.130358   1.000000
     25          0.733530   1.000000
     26          1.193540   1.000000
     27          1.362960   1.000000
     28          1.775007   1.000000
     29          2.156565   1.000000
     30          3.037523   1.000000
     31          3.890408   1.000000
     32          6.522081   0.000000
     33          6.755604   0.000000
     34          8.078999   0.000000
     35          8.495261   0.000000
     36          9.914359   0.000000
     37         10.249039   0.000000
     38         10.307508   0.000000

  0.1262379E-14  0.1262379E-14  0.2500000E+00  0.5000000E-02
      1        -10.923549   1.000000
      2        -10.714585   1.000000
      3        -10.714585   1.000000
      4        -10.544289   1.000000
      5        -10.544288   1.000000
      6        -10.230969   1.000000
      7        -10.230969   1.000000
      8        -10.217127   1.000000
      9        -10.084254   1.000000
     10        -10.084253   1.000000
     11         -9.659693   1.000000
     12         -9.099668   1.000000
     13         -8.131303   1.000000
     14         -7.394007   1.000000
     15         -2.029319   1.000000
     16         -1.542535   1.000000
     17         -1.542532   1.000000
     18         -1.208878   1.000000
     19         -1.096839   1.000000
     20         -1.096839   1.000000
     21          0.162698   1.000000
     22          1.807933   1.000000
     23          2.161000   1.000000
     24          2.161001   1.000000
     25          2.752658   1.000000
     26          2.752659   1.000000
     27          3.035601   1.000000
     28          3.035601   1.000000
     29          3.588298   1.000000
     30          4.533461   0.999997
     31          4.533462   0.999997
     32          5.195283   0.000000
     33          6.301554   0.000000
     34          7.277107   0.000000
     35          7.867642   0.000000
     36          9.071692   0.000000
     37          9.093315   0.000000
     38          9.093322   0.000000

  0.1000000E+00  0.1262879E-14  0.2500000E+00  0.1500000E-01
      1        -10.934086   1.000000
      2        -10.743977   1.000000
      3        -10.705641   1.000000
      4        -10.552654   1.000000
      5        -10.543468   1.000000
      6        -10.285243   1.000000
      7        -10.223020   1.000000
      8        -10.189386   1.000000
      9        -10.092656   1.000000
     10        -10.082940   1.000000
     11         -9.540480   1.000000
     12         -9.020394   1.000000
     13         -8.039182   1.000000
     14         -7.338790   1.000000
     15         -1.994096   1.000000
     16         -1.541559   1.000000
     17         -1.521728   1.000000
     18         -1.199088   1.000000
     19         -1.105247   1.000000
     20         -1.097039   1.000000
     21          0.124574   1.000000
     22          1.515685   1.000000
     23          1.888920   1.000000
     24          2.032275   1.000000
     25          2.207592   1.000000
     26          2.538778   1.000000
     27          2.719069   1.000000
     28          3.101767   1.000000
     29          3.747172   1.000000
     30          4.086003   1.000000
     31          4.399513   1.000000
     32          5.548535   0.000000
     33          6.568106   0.000000
     34          7.721275   0.000000
     35          8.167478   0.000000
     36          8.686871   0.000000
     37          9.187987   0.000000
     38          9.250366   0.000000

  0.1262379E-14  0.1000000E+00  0.2500000E+00  0.1500000E-01
      1        -10.934079   1.000000
      2        -10.743989   1.000000
      3        -10.705636   1.000000
      4        -10.552653   1.000000
      5        -10.543473   1.000000
      6        -10.285303   1.000000
      7        -10.223013   1.000000
      8        -10.189359   1.000000
      9        -10.092657   1.000000
     10        -10.082946   1.000000
     11         -9.540150   1.000000
     12         -9.020956   1.000000
     13         -8.038653   1.000000
     14         -7.339060   1.000000
     15         -1.993782   1.000000
     16         -1.541487   1.000000
     17         -1.521728   1.000000
     18         -1.201714   1.000000
     19         -1.104828   1.000000
     20         -1.097049   1.000000
     21          0.132269   1.000000
     22          1.561129   1.000000
     23          1.767893   1.000000
     24          2.037370   1.000000
     25          2.256803   1.000000
     26          2.523840   1.000000
     27          2.754327   1.000000
     28          3.115269   1.000000
     29          3.775185   1.000000
     30          4.039172   1.000000
     31          4.395168   1.000000
     32          5.543946   0.000000
     33          6.578409   0.000000
     34          7.706838   0.000000
     35          8.243970   0.000000
     36          8.603820   0.000000
     37          9.162730   0.000000
     38          9.250174   0.000000

  0.2000000E+00  0.1249001E-14  0.2500000E+00  0.1500000E-01
      1        -10.982065   1.000000
      2        -10.783301   1.000000
      3        -10.683873   1.000000
      4        -10.567538   1.000000
      5        -10.539430   1.000000
      6        -10.392320   1.000000
      7        -10.205036   1.000000
      8        -10.150097   1.000000
      9        -10.103613   1.000000
     10        -10.076401   1.000000
     11         -9.237489   1.000000
     12         -8.789880   1.000000
     13         -7.811138   1.000000
     14         -7.190586   1.000000
     15         -1.931075   1.000000
     16         -1.527717   1.000000
     17         -1.466582   1.000000
     18         -1.188673   1.000000
     19         -1.121209   1.000000
     20         -1.095833   1.000000
     21         -0.183860   1.000000
     22          0.665854   1.000000
     23          1.370260   1.000000
     24          1.727353   1.000000
     25          1.770887   1.000000
     26          2.032555   1.000000
     27          2.155368   1.000000
     28          3.108218   1.000000
     29          3.114221   1.000000
     30          4.054931   1.000000
     31          4.075684   1.000000
     32          5.976028   0.000000
     33          6.701802   0.000000
     34          7.756120   0.000000
     35          8.543518   0.000000
     36          8.903852   0.000000
     37          9.512657   0.000000
     38          9.566234   0.000000

  0.1262379E-14  0.2000000E+00  0.2500000E+00  0.1500000E-01
      1        -10.982037   1.000000
      2        -10.783352   1.000000
      3        -10.683875   1.000000
      4        -10.567553   1.000000
      5        -10.539428   1.000000
      6        -10.392357   1.000000
      7        -10.205037   1.000000
      8        -10.150089   1.000000
      9        -10.103614   1.000000
     10        -10.076399   1.000000
     11         -9.235753   1.000000
     12         -8.793076   1.000000
     13         -7.807933   1.000000
     14         -7.192311   1.000000
     15         -1.928337   1.000000
     16         -1.527467   1.000000
     17         -1.466581   1.000000
     18         -1.206619   1.000000
     19         -1.120971   1.000000
     20         -1.095854   1.000000
     21         -0.155550   1.000000
     22          0.820433   1.000000
     23          1.075124   1.000000
     24          1.734377   1.000000
     25          1.734545   1.000000
     26          2.140682   1.000000
     27          2.214735   1.000000
     28          3.129586   1.000000
     29          3.132986   1.000000
     30          4.018815   1.000000
     31          4.066720   1.000000
     32          5.932911   0.000000
     33          6.723485   0.000000
     34          7.814774   0.000000
     35          8.447967   0.000000
     36          8.952454   0.000000
     37          9.427072   0.000000
     38          9.582645   0.000000

  0.3000000E+00  0.1221245E-14  0.2500000E+00  0.1500000E-01
      1        -11.057101   1.000000
      2        -10.800071   1.000000
      3        -10.661599   1.000000
      4        -10.582434   1.000000
      5        -10.529277   1.000000
      6        -10.495348   1.000000
      7        -10.189838   1.000000
      8        -10.137306   1.000000
      9        -10.089142   1.000000
     10        -10.060698   1.000000
     11         -8.836419   1.000000
     12         -8.456105   1.000000
     13         -7.551102   1.000000
     14         -7.002614   1.000000
     15         -1.981168   1.000000
     16         -1.479112   1.000000
     17         -1.398540   1.000000
     18         -1.266110   1.000000
     19         -1.156872   1.000000
     20         -1.088745   1.000000
     21         -0.851383   1.000000
     22          0.073326   1.000000
     23          0.775923   1.000000
     24          1.178205   1.000000
     25          1.393244   1.000000
     26          1.769331   1.000000
     27          1.788046   1.000000
     28          2.643678   1.000000
     29          3.046071   1.000000
     30          3.725364   1.000000
     31          3.976308   1.000000
     32          5.971768   0.000000
     33          6.456348   0.000000
     34          7.390975   0.000000
     35          8.656564   0.000000
     36          8.934830   0.000000
     37          9.756646   0.000000
     38          9.976125   0.000000

  0.1262379E-14  0.3000000E+00  0.2500000E+00  0.1500000E-01
      1        -11.057079   1.000000
      2        -10.800138   1.000000
      3        -10.661599   1.000000
      4        -10.582484   1.000000
      5        -10.529277   1.000000
      6        -10.495285   1.000000
      7        -10.189837   1.000000
      8        -10.137308   1.000000
      9        -10.089139   1.000000
     10        -10.060698   1.000000
     11         -8.833033   1.000000
     12         -8.462447   1.000000
     13         -7.544941   1.000000
     14         -7.005779   1.000000
     15         -1.974408   1.000000
     16         -1.493174   1.000000
     17         -1.398539   1.000000
     18         -1.279627   1.000000
     19         -1.162857   1.000000
     20         -1.088772   1.000000
     21         -0.842579   1.000000
     22          0.236229   1.000000
     23          0.599125   1.000000
     24          1.167954   1.000000
     25          1.399053   1.000000
     26          1.768165   1.000000
     27          1.777325   1.000000
     28          2.690185   1.000000
     29          3.061148   1.000000
     30          3.713993   1.000000
     31          4.000512   1.000000
     32          6.017097   0.000000
     33          6.373429   0.000000
     34          7.300686   0.000000
     35          8.696044   0.000000
     36          9.076932   0.000000
     37          9.784904   0.000000
     38          9.906823   0.000000

  0.4000000E+00  0.1221245E-14  0.2500000E+00  0.1500000E-01
      1        -11.116224   1.000000
      2        -10.814992   1.000000
      3        -10.648463   1.000000
      4        -10.598051   1.000000
      5        -10.551375   1.000000
      6        -10.515753   1.000000
      7        -10.183369   1.000000
      8        -10.144663   1.000000
      9        -10.064118   1.000000
     10        -10.041690   1.000000
     11         -8.442865   1.000000
     12         -8.144492   1.000000
     13         -7.366753   1.000000
     14         -6.850872   1.000000
     15         -2.259391   1.000000
     16         -1.697647   1.000000
     17         -1.394392   1.000000
     18         -1.346490   1.000000
     19         -1.217969   1.000000
     20         -1.074749   1.000000
     21         -1.018108   1.000000
     22         -0.223689   1.000000
     23          0.293677   1.000000
     24          0.686497   1.000000
     25          1.148721   1.000000
     26          1.530306   1.000000
     27          1.743534   1.000000
     28          2.480641   1.000000
     29          2.955868   1.000000
     30          3.481445   1.000000
     31          3.847935   1.000000
     32          5.688854   0.000000
     33          6.342696   0.000000
     34          7.080716   0.000000
     35          8.590868   0.000000
     36          8.709058   0.000000
     37          9.714209   0.000000
     38          9.780390   0.000000

  0.1262379E-14  0.4000000E+00  0.2500000E+00  0.1500000E-01
      1        -11.116217   1.000000
      2        -10.815038   1.000000
      3        -10.648464   1.000000
      4        -10.598113   1.000000
      5        -10.551279   1.000000
      6        -10.515752   1.000000
      7        -10.183370   1.000000
      8        -10.144658   1.000000
      9        -10.064116   1.000000
     10        -10.041690   1.000000
     11         -8.439464   1.000000
     12         -8.150395   1.000000
     13         -7.362620   1.000000
     14         -6.852326   1.000000
     15         -2.255784   1.000000
     16         -1.718671   1.000000
     17         -1.370471   1.000000
     18         -1.346491   1.000000
     19         -1.224288   1.000000
     20         -1.074768   1.000000
     21         -1.035186   1.000000
     22         -0.156650   1.000000
     23          0.199789   1.000000
     24          0.800383   1.000000
     25          1.151866   1.000000
     26          1.524788   1.000000
     27          1.613908   1.000000
     28          2.504312   1.000000
     29          2.965743   1.000000
     30          3.473261   1.000000
     31          3.910747   1.000000
     32          5.803908   0.000000
     33          6.221196   0.000000
     34          6.942369   0.000000
     35          8.624470   0.000000
     36          8.889240   0.000000
     37          9.629383   0.000000
     38          9.797421   0.000000

  0.5000000E+00  0.1221245E-14  0.2500000E+00  0.1500000E-01
      1        -11.137757   1.000000
      2        -10.823561   1.000000
      3        -10.644669   1.000000
      4        -10.606946   1.000000
      5        -10.563878   1.000000
      6        -10.509258   1.000000
      7        -10.182053   1.000000
      8        -10.148224   1.000000
      9        -10.054605   1.000000
     10        -10.033157   1.000000
     11         -8.252158   1.000000
     12         -8.024522   1.000000
     13         -7.308708   1.000000
     14         -6.794024   1.000000
     15         -2.441376   1.000000
     16         -1.921335   1.000000
     17         -1.366266   1.000000
     18         -1.328244   1.000000
     19         -1.244073   1.000000
     20         -1.066325   1.000000
     21         -0.896509   1.000000
     22         -0.401769   1.000000
     23         -0.028047   1.000000
     24          0.744965   1.000000
     25          1.061154   1.000000
     26          1.436526   1.000000
     27          1.619868   1.000000
     28          2.460306   1.000000
     29          2.915534   1.000000
     30          3.396567   1.000000
     31          3.823854   1.000000
     32          5.617599   0.000000
     33          6.263919   0.000000
     34          6.878153   0.000000
     35          8.552850   0.000000
     36          8.716332   0.000000
     37          9.531459   0.000000
     38          9.772732   0.000000

  0.1000000E+00  0.1000000E+00  0.2500000E+00  0.3000000E-01
      1        -10.964178   1.000000
      2        -10.775492   1.000000
      3        -10.690905   1.000000
      4        -10.562660   1.000000
      5        -10.541876   1.000000
      6        -10.354513   1.000000
      7        -10.224993   1.000000
      8        -10.153266   1.000000
      9        -10.102183   1.000000
     10        -10.079096   1.000000
     11         -9.329833   1.000000
     12         -8.864824   1.000000
     13         -7.879322   1.000000
     14         -7.237546   1.000000
     15         -1.942972   1.000000
     16         -1.533699   1.000000
     17         -1.483596   1.000000
     18         -1.194665   1.000000
     19         -1.115441   1.000000
     20         -1.096990   1.000000
     21         -0.031031   1.000000
     22          0.983569   1.000000
     23          1.417542   1.000000
     24          1.772485   1.000000
     25          1.851897   1.000000
     26          1.973647   1.000000
     27          2.778530   1.000000
     28          2.836499   1.000000
     29          3.369316   1.000000
     30          4.014522   1.000000
     31          4.129806   1.000000
     32          5.901026   0.000000
     33          6.814048   0.000000
     34          8.094917   0.000000
     35          8.409109   0.000000
     36          8.695067   0.000000
     37          9.058920   0.000000
     38          9.633598   0.000000

  0.2000000E+00  0.1000000E+00  0.2500000E+00  0.3000000E-01
      1        -11.028050   1.000000
      2        -10.794555   1.000000
      3        -10.670968   1.000000
      4        -10.574305   1.000000
      5        -10.536840   1.000000
      6        -10.449135   1.000000
      7        -10.222432   1.000000
      8        -10.125474   1.000000
      9        -10.105004   1.000000
     10        -10.065758   1.000000
     11         -8.975928   1.000000
     12         -8.574284   1.000000
     13         -7.640751   1.000000
     14         -7.068883   1.000000
     15         -1.926685   1.000000
     16         -1.499920   1.000000
     17         -1.421609   1.000000
     18         -1.215260   1.000000
     19         -1.137333   1.000000
     20         -1.091946   1.000000
     21         -0.567622   1.000000
     22          0.332633   1.000000
     23          0.944628   1.000000
     24          1.236657   1.000000
     25          1.424445   1.000000
     26          1.648461   1.000000
     27          2.246458   1.000000
     28          2.673782   1.000000
     29          2.981866   1.000000
     30          3.652464   1.000000
     31          4.075897   1.000000
     32          6.168772   0.000000
     33          6.707701   0.000000
     34          7.809862   0.000000
     35          8.828526   0.000000
     36          9.129222   0.000000
     37          9.297556   0.000000
     38          9.954777   0.000000

 -0.1000000E+00  0.3000000E+00  0.2500000E+00  0.3000000E-01
      1        -11.028038   1.000000
      2        -10.794591   1.000000
      3        -10.670963   1.000000
      4        -10.574322   1.000000
      5        -10.536844   1.000000
      6        -10.449125   1.000000
      7        -10.222425   1.000000
      8        -10.125477   1.000000
      9        -10.104998   1.000000
     10        -10.065762   1.000000
     11         -8.974365   1.000000
     12         -8.577234   1.000000
     13         -7.637797   1.000000
     14         -7.070445   1.000000
     15         -1.923414   1.000000
     16         -1.501493   1.000000
     17         -1.421628   1.000000
     18         -1.230548   1.000000
     19         -1.138944   1.000000
     20         -1.092667   1.000000
     21         -0.554292   1.000000
     22          0.453012   1.000000
     23          0.774595   1.000000
     24          1.232675   1.000000
     25          1.457036   1.000000
     26          1.626308   1.000000
     27          2.273323   1.000000
     28          2.760161   1.000000
     29          2.927096   1.000000
     30          3.639768   1.000000
     31          4.087105   1.000000
     32          6.152125   0.000000
     33          6.697672   0.000000
     34          7.817292   0.000000
     35          8.746609   0.000000
     36          9.108488   0.000000
     37          9.512425   0.000000
     38          9.943267   0.000000

  0.3000000E+00  0.1000000E+00  0.2500000E+00  0.3000000E-01
      1        -11.093386   1.000000
      2        -10.805023   1.000000
      3        -10.656357   1.000000
      4        -10.585734   1.000000
      5        -10.531440   1.000000
      6        -10.518771   1.000000
      7        -10.217568   1.000000
      8        -10.132374   1.000000
      9        -10.081349   1.000000
     10        -10.048348   1.000000
     11         -8.564069   1.000000
     12         -8.235180   1.000000
     13         -7.430366   1.000000
     14         -6.898379   1.000000
     15         -2.094489   1.000000
     16         -1.485648   1.000000
     17         -1.399417   1.000000
     18         -1.361429   1.000000
     19         -1.181044   1.000000
     20         -1.084460   1.000000
     21         -1.023282   1.000000
     22         -0.058962   1.000000
     23          0.456042   1.000000
     24          0.801191   1.000000
     25          1.061008   1.000000
     26          1.324665   1.000000
     27          1.982735   1.000000
     28          2.396292   1.000000
     29          2.889698   1.000000
     30          3.298532   1.000000
     31          3.973690   1.000000
     32          6.040606   0.000000
     33          6.549719   0.000000
     34          7.477623   0.000000
     35          8.847240   0.000000
     36          9.164709   0.000000
     37          9.436753   0.000000
     38          9.983452   0.000000

 -0.1000000E+00  0.4000000E+00  0.2500000E+00  0.3000000E-01
      1        -11.093376   1.000000
      2        -10.805069   1.000000
      3        -10.656356   1.000000
      4        -10.585791   1.000000
      5        -10.531402   1.000000
      6        -10.518727   1.000000
      7        -10.217569   1.000000
      8        -10.132374   1.000000
      9        -10.081349   1.000000
     10        -10.048348   1.000000
     11         -8.561147   1.000000
     12         -8.240522   1.000000
     13         -7.425964   1.000000
     14         -6.900264   1.000000
     15         -2.088927   1.000000
     16         -1.534776   1.000000
     17         -1.375724   1.000000
     18         -1.336890   1.000000
     19         -1.188154   1.000000
     20         -1.088164   1.000000
     21         -1.034357   1.000000
     22          0.031245   1.000000
     23          0.420839   1.000000
     24          0.731553   1.000000
     25          1.027302   1.000000
     26          1.495601   1.000000
     27          1.768113   1.000000
     28          2.565793   1.000000
     29          2.805049   1.000000
     30          3.295084   1.000000
     31          4.024272   1.000000
     32          6.138591   0.000000
     33          6.421435   0.000000
     34          7.387041   0.000000
     35          8.922043   0.000000
     36          9.239723   0.000000
     37          9.536131   0.000000
     38          9.874305   0.000000

  0.4000000E+00  0.1000000E+00  0.2500000E+00  0.3000000E-01
      1        -11.131647   1.000000
      2        -10.815172   1.000000
      3        -10.650027   1.000000
      4        -10.596870   1.000000
      5        -10.555440   1.000000
      6        -10.516117   1.000000
      7        -10.215653   1.000000
      8        -10.139387   1.000000
      9        -10.059796   1.000000
     10        -10.041477   1.000000
     11         -8.236049   1.000000
     12         -8.009554   1.000000
     13         -7.329477   1.000000
     14         -6.794573   1.000000
     15         -2.356932   1.000000
     16         -1.849080   1.000000
     17         -1.361535   1.000000
     18         -1.331062   1.000000
     19         -1.227849   1.000000
     20         -1.080931   1.000000
     21         -0.923654   1.000000
     22         -0.305570   1.000000
     23          0.060600   1.000000
     24          0.585413   1.000000
     25          0.849086   1.000000
     26          1.252167   1.000000
     27          1.790423   1.000000
     28          2.303171   1.000000
     29          2.851273   1.000000
     30          3.109061   1.000000
     31          3.889676   1.000000
     32          5.863614   0.000000
     33          6.481555   0.000000
     34          7.216855   0.000000
     35          8.842797   0.000000
     36          9.016380   0.000000
     37          9.423751   0.000000
     38          9.769634   0.000000

 -0.1000000E+00  0.5000000E+00  0.2500000E+00  0.3000000E-01
      1        -11.131645   1.000000
      2        -10.815191   1.000000
      3        -10.650031   1.000000
      4        -10.596905   1.000000
      5        -10.555390   1.000000
      6        -10.516113   1.000000
      7        -10.215657   1.000000
      8        -10.139382   1.000000
      9        -10.059796   1.000000
     10        -10.041474   1.000000
     11         -8.234064   1.000000
     12         -8.012635   1.000000
     13         -7.328089   1.000000
     14         -6.794741   1.000000
     15         -2.354949   1.000000
     16         -1.856808   1.000000
     17         -1.358860   1.000000
     18         -1.325222   1.000000
     19         -1.230907   1.000000
     20         -1.081884   1.000000
     21         -0.931200   1.000000
     22         -0.289706   1.000000
     23          0.069473   1.000000
     24          0.561962   1.000000
     25          0.830404   1.000000
     26          1.408131   1.000000
     27          1.603465   1.000000
     28          2.366600   1.000000
     29          2.816716   1.000000
     30          3.112391   1.000000
     31          3.926768   1.000000
     32          5.924955   0.000000
     33          6.409577   0.000000
     34          7.162509   0.000000
     35          8.913774   0.000000
     36          9.023751   0.000000
     37          9.451322   0.000000
     38          9.737426   0.000000

  0.2000000E+00  0.2000000E+00  0.2500000E+00  0.3000000E-01
      1        -11.081374   1.000000
      2        -10.799950   1.000000
      3        -10.661944   1.000000
      4        -10.577173   1.000000
      5        -10.536533   1.000000
      6        -10.495296   1.000000
      7        -10.256405   1.000000
      8        -10.114270   1.000000
      9        -10.101669   1.000000
     10        -10.049805   1.000000
     11         -8.600524   1.000000
     12         -8.265219   1.000000
     13         -7.459539   1.000000
     14         -6.918042   1.000000
     15         -2.013967   1.000000
     16         -1.460981   1.000000
     17         -1.373433   1.000000
     18         -1.320378   1.000000
     19         -1.163897   1.000000
     20         -1.077470   1.000000
     21         -0.980904   1.000000
     22          0.113819   1.000000
     23          0.429867   1.000000
     24          0.715924   1.000000
     25          0.930172   1.000000
     26          1.384511   1.000000
     27          2.081791   1.000000
     28          2.304891   1.000000
     29          2.789339   1.000000
     30          3.077152   1.000000
     31          4.069763   1.000000
     32          6.357690   0.000000
     33          6.688575   0.000000
     34          7.994767   0.000000
     35          8.774574   0.000000
     36          9.438931   0.000000
     37          9.743825   0.000000
     38         10.061552   0.000000

  0.3000000E+00  0.2000000E+00  0.2500000E+00  0.3000000E-01
      1        -11.121321   1.000000
      2        -10.802320   1.000000
      3        -10.658631   1.000000
      4        -10.578238   1.000000
      5        -10.538812   1.000000
      6        -10.521939   1.000000
      7        -10.281453   1.000000
      8        -10.117961   1.000000
      9        -10.081633   1.000000
     10        -10.046641   1.000000
     11         -8.214388   1.000000
     12         -7.979310   1.000000
     13         -7.365263   1.000000
     14         -6.795622   1.000000
     15         -2.204115   1.000000
     16         -1.710776   1.000000
     17         -1.352493   1.000000
     18         -1.329027   1.000000
     19         -1.191984   1.000000
     20         -1.113793   1.000000
     21         -0.956166   1.000000
     22         -0.097007   1.000000
     23          0.010285   1.000000
     24          0.316210   1.000000
     25          0.706235   1.000000
     26          1.150062   1.000000
     27          1.838920   1.000000
     28          2.003770   1.000000
     29          2.626059   1.000000
     30          2.865194   1.000000
     31          3.976835   1.000000
     32          6.323935   0.000000
     33          6.668018   0.000000
     34          7.902953   0.000000
     35          8.778920   0.000000
     36          9.566659   0.000000
     37          9.823110   0.000000
     38         10.195804   0.000000

 -0.2000000E+00  0.5000000E+00  0.2500000E+00  0.3000000E-01
      1        -11.121322   1.000000
      2        -10.802334   1.000000
      3        -10.658631   1.000000
      4        -10.578263   1.000000
      5        -10.538787   1.000000
      6        -10.521928   1.000000
      7        -10.281455   1.000000
      8        -10.117956   1.000000
      9        -10.081632   1.000000
     10        -10.046642   1.000000
     11         -8.213064   1.000000
     12         -7.981487   1.000000
     13         -7.364166   1.000000
     14         -6.795798   1.000000
     15         -2.201132   1.000000
     16         -1.721835   1.000000
     17         -1.353956   1.000000
     18         -1.315622   1.000000
     19         -1.192193   1.000000
     20         -1.118945   1.000000
     21         -0.962107   1.000000
     22         -0.130722   1.000000
     23          0.188205   1.000000
     24          0.237682   1.000000
     25          0.545675   1.000000
     26          1.420959   1.000000
     27          1.586615   1.000000
     28          2.088412   1.000000
     29          2.612605   1.000000
     30          2.862515   1.000000
     31          3.999750   1.000000
     32          6.374277   0.000000
     33          6.606688   0.000000
     34          7.876064   0.000000
     35          8.796689   0.000000
     36          9.561133   0.000000
     37          9.798962   0.000000
     38         10.239804   0.000000

  0.4000000E+00  0.2000000E+00  0.2500000E+00  0.3000000E-01
      1        -11.135876   1.000000
      2        -10.803355   1.000000
      3        -10.658106   1.000000
      4        -10.579757   1.000000
      5        -10.540176   1.000000
      6        -10.528818   1.000000
      7        -10.290247   1.000000
      8        -10.120232   1.000000
      9        -10.060229   1.000000
     10        -10.058748   1.000000
     11         -8.010800   1.000000
     12         -7.877956   1.000000
     13         -7.357264   1.000000
     14         -6.749372   1.000000
     15         -2.308114   1.000000
     16         -1.888161   1.000000
     17         -1.341360   1.000000
     18         -1.314725   1.000000
     19         -1.209338   1.000000
     20         -1.100779   1.000000
     21         -0.819721   1.000000
     22         -0.303698   1.000000
     23         -0.017108   1.000000
     24          0.097870   1.000000
     25          0.522994   1.000000
     26          1.235630   1.000000
     27          1.673497   1.000000
     28          1.881857   1.000000
     29          2.519528   1.000000
     30          2.876092   1.000000
     31          3.935023   1.000000
     32          6.279600   0.000000
     33          6.646997   0.000000
     34          7.806120   0.000000
     35          8.786114   0.000000
     36          9.610845   0.000000
     37          9.726135   0.000000
     38         10.192036   0.000000

  0.3000000E+00  0.3000000E+00  0.2500000E+00  0.3000000E-01
      1        -11.135715   1.000000
      2        -10.795850   1.000000
      3        -10.662481   1.000000
      4        -10.564106   1.000000
      5        -10.544439   1.000000
      6        -10.519854   1.000000
      7        -10.337614   1.000000
      8        -10.098669   1.000000
      9        -10.081421   1.000000
     10        -10.059253   1.000000
     11         -7.917115   1.000000
     12         -7.798528   1.000000
     13         -7.400857   1.000000
     14         -6.732057   1.000000
     15         -2.237584   1.000000
     16         -1.880272   1.000000
     17         -1.332612   1.000000
     18         -1.318624   1.000000
     19         -1.182593   1.000000
     20         -1.118060   1.000000
     21         -0.795962   1.000000
     22         -0.279258   1.000000
     23         -0.154186   1.000000
     24         -0.106465   1.000000
     25          0.577620   1.000000
     26          1.110298   1.000000
     27          1.576174   1.000000
     28          1.727224   1.000000
     29          2.287095   1.000000
     30          2.894642   1.000000
     31          3.932769   1.000000
     32          6.456335   0.000000
     33          6.703816   0.000000
     34          8.135249   0.000000
     35          8.657450   0.000000
     36          9.852393   0.000000
     37          9.968596   0.000000
     38         10.605106   0.000000

  0.1262379E-14  0.1262379E-14  0.5000000E+00  0.2500000E-02
      1        -10.923618   1.000000
      2        -10.714592   1.000000
      3        -10.714592   1.000000
      4        -10.544295   1.000000
      5        -10.544295   1.000000
      6        -10.230976   1.000000
      7        -10.230976   1.000000
      8        -10.217001   1.000000
      9        -10.084260   1.000000
     10        -10.084259   1.000000
     11         -9.654440   1.000000
     12         -9.115514   1.000000
     13         -8.102915   1.000000
     14         -7.414234   1.000000
     15         -2.052282   1.000000
     16         -1.542536   1.000000
     17         -1.542534   1.000000
     18         -1.096836   1.000000
     19         -1.096836   1.000000
     20         -1.050604   1.000000
     21         -0.121479   1.000000
     22          2.159861   1.000000
     23          2.159861   1.000000
     24          2.213646   1.000000
     25          2.758636   1.000000
     26          2.758636   1.000000
     27          3.030082   1.000000
     28          3.030082   1.000000
     29          3.180430   1.000000
     30          4.534143   0.999996
     31          4.534145   0.999996
     32          5.510071   0.000000
     33          6.158375   0.000000
     34          7.309521   0.000000
     35          7.780501   0.000000
     36          9.090942   0.000000
     37          9.090950   0.000000
     38          9.092993   0.000000

  0.1000000E+00  0.1262879E-14  0.5000000E+00  0.1500000E-01
      1        -10.934140   1.000000
      2        -10.743953   1.000000
      3        -10.705642   1.000000
      4        -10.552654   1.000000
      5        -10.543473   1.000000
      6        -10.285311   1.000000
      7        -10.223020   1.000000
      8        -10.189333   1.000000
      9        -10.092669   1.000000
     10        -10.082946   1.000000
     11         -9.534416   1.000000
     12         -9.036674   1.000000
     13         -8.011061   1.000000
     14         -7.358736   1.000000
     15         -2.021609   1.000000
     16         -1.541715   1.000000
     17         -1.521728   1.000000
     18         -1.117812   1.000000
     19         -1.097041   1.000000
     20         -1.035308   1.000000
     21         -0.113584   1.000000
     22          1.581942   1.000000
     23          2.035276   1.000000
     24          2.037681   1.000000
     25          2.221253   1.000000
     26          2.529865   1.000000
     27          2.689045   1.000000
     28          3.109776   1.000000
     29          3.640154   1.000000
     30          4.035130   1.000000
     31          4.397101   1.000000
     32          5.724330   0.000000
     33          6.471267   0.000000
     34          7.748773   0.000000
     35          8.144986   0.000000
     36          8.623359   0.000000
     37          9.146263   0.000000
     38          9.243096   0.000000

  0.2000000E+00  0.1249001E-14  0.5000000E+00  0.1500000E-01
      1        -10.982068   1.000000
      2        -10.783320   1.000000
      3        -10.683874   1.000000
      4        -10.567550   1.000000
      5        -10.539428   1.000000
      6        -10.392364   1.000000
      7        -10.205037   1.000000
      8        -10.150095   1.000000
      9        -10.103618   1.000000
     10        -10.076400   1.000000
     11         -9.229991   1.000000
     12         -8.807047   1.000000
     13         -7.784573   1.000000
     14         -7.208750   1.000000
     15         -1.964992   1.000000
     16         -1.528962   1.000000
     17         -1.466585   1.000000
     18         -1.159942   1.000000
     19         -1.095851   1.000000
     20         -1.033546   1.000000
     21         -0.261468   1.000000
     22          0.687473   1.000000
     23          1.207354   1.000000
     24          1.735018   1.000000
     25          1.805054   1.000000
     26          2.113310   1.000000
     27          2.139315   1.000000
     28          3.130755   1.000000
     29          3.234505   1.000000
     30          3.958725   1.000000
     31          4.066400   1.000000
     32          5.963226   0.000000
     33          6.703957   0.000000
     34          7.759850   0.000000
     35          8.502294   0.000000
     36          8.950483   0.000000
     37          9.367680   0.000000
     38          9.566904   0.000000

  0.3000000E+00  0.1221245E-14  0.5000000E+00  0.1500000E-01
      1        -11.057082   1.000000
      2        -10.800146   1.000000
      3        -10.661602   1.000000
      4        -10.582453   1.000000
      5        -10.529280   1.000000
      6        -10.495300   1.000000
      7        -10.189841   1.000000
      8        -10.137309   1.000000
      9        -10.089141   1.000000
     10        -10.060701   1.000000
     11         -8.828676   1.000000
     12         -8.472094   1.000000
     13         -7.530915   1.000000
     14         -7.014819   1.000000
     15         -2.003484   1.000000
     16         -1.489799   1.000000
     17         -1.398547   1.000000
     18         -1.246850   1.000000
     19         -1.128374   1.000000
     20         -1.088777   1.000000
     21         -0.852445   1.000000
     22          0.148892   1.000000
     23          0.683556   1.000000
     24          1.158226   1.000000
     25          1.404067   1.000000
     26          1.701151   1.000000
     27          1.768206   1.000000
     28          2.753216   1.000000
     29          3.073834   1.000000
     30          3.704649   1.000000
     31          3.978899   1.000000
     32          5.986896   0.000000
     33          6.449094   0.000000
     34          7.308683   0.000000
     35          8.698540   0.000000
     36          8.937927   0.000000
     37          9.786213   0.000000
     38         10.059504   0.000000

  0.4000000E+00  0.1221245E-14  0.5000000E+00  0.1500000E-01
      1        -11.116211   1.000000
      2        -10.815069   1.000000
      3        -10.648470   1.000000
      4        -10.598035   1.000000
      5        -10.551336   1.000000
      6        -10.515757   1.000000
      7        -10.183378   1.000000
      8        -10.144661   1.000000
      9        -10.064117   1.000000
     10        -10.041694   1.000000
     11         -8.436971   1.000000
     12         -8.155191   1.000000
     13         -7.357679   1.000000
     14         -6.854992   1.000000
     15         -2.258176   1.000000
     16         -1.713449   1.000000
     17         -1.363922   1.000000
     18         -1.346513   1.000000
     19         -1.227476   1.000000
     20         -1.074787   1.000000
     21         -1.031768   1.000000
     22         -0.210028   1.000000
     23          0.195813   1.000000
     24          0.893692   1.000000
     25          1.160809   1.000000
     26          1.509302   1.000000
     27          1.598839   1.000000
     28          2.494052   1.000000
     29          2.994483   1.000000
     30          3.449313   1.000000
     31          3.821087   1.000000
     32          5.815441   0.000000
     33          6.324317   0.000000
     34          7.053911   0.000000
     35          8.531071   0.000000
     36          8.656948   0.000000
     37          9.765605   0.000000
     38          9.830139   0.000000

  0.5000000E+00  0.1221245E-14  0.5000000E+00  0.7500000E-02
      1        -11.137747   1.000000
      2        -10.823611   1.000000
      3        -10.644665   1.000000
      4        -10.606880   1.000000
      5        -10.563912   1.000000
      6        -10.509253   1.000000
      7        -10.182054   1.000000
      8        -10.148224   1.000000
      9        -10.054609   1.000000
     10        -10.033152   1.000000
     11         -8.249150   1.000000
     12         -8.029352   1.000000
     13         -7.305358   1.000000
     14         -6.795679   1.000000
     15         -2.432722   1.000000
     16         -1.927203   1.000000
     17         -1.344861   1.000000
     18         -1.328275   1.000000
     19         -1.257920   1.000000
     20         -1.066357   1.000000
     21         -0.892487   1.000000
     22         -0.450576   1.000000
     23         -0.087667   1.000000
     24          0.940235   1.000000
     25          1.072628   1.000000
     26          1.416948   1.000000
     27          1.583197   1.000000
     28          2.410656   1.000000
     29          2.955086   1.000000
     30          3.362832   1.000000
     31          3.714107   1.000000
     32          5.716899   0.000000
     33          6.309865   0.000000
     34          6.989765   0.000000
     35          8.442818   0.000000
     36          8.502330   0.000000
     37          9.637745   0.000000
     38          9.823672   0.000000

  0.1000000E+00  0.1000000E+00  0.5000000E+00  0.1500000E-01
      1        -10.964207   1.000000
      2        -10.775470   1.000000
      3        -10.690902   1.000000
      4        -10.562663   1.000000
      5        -10.541870   1.000000
      6        -10.354557   1.000000
      7        -10.224979   1.000000
      8        -10.153261   1.000000
      9        -10.102190   1.000000
     10        -10.079091   1.000000
     11         -9.323300   1.000000
     12         -8.880689   1.000000
     13         -7.853163   1.000000
     14         -7.255874   1.000000
     15         -1.976975   1.000000
     16         -1.534582   1.000000
     17         -1.483611   1.000000
     18         -1.146843   1.000000
     19         -1.097164   1.000000
     20         -1.026596   1.000000
     21         -0.174636   1.000000
     22          0.961934   1.000000
     23          1.429754   1.000000
     24          1.775311   1.000000
     25          1.841486   1.000000
     26          2.045734   1.000000
     27          2.765645   1.000000
     28          2.837427   1.000000
     29          3.459217   1.000000
     30          3.935124   1.000000
     31          4.110549   1.000000
     32          5.937839   0.000000
     33          6.780438   0.000000
     34          8.143284   0.000000
     35          8.385375   0.000000
     36          8.622719   0.000000
     37          9.018699   0.000000
     38          9.616504   0.000000

  0.2000000E+00  0.1000000E+00  0.5000000E+00  0.3000000E-01
      1        -11.028046   1.000000
      2        -10.794595   1.000000
      3        -10.670968   1.000000
      4        -10.574324   1.000000
      5        -10.536846   1.000000
      6        -10.449125   1.000000
      7        -10.222427   1.000000
      8        -10.125481   1.000000
      9        -10.105003   1.000000
     10        -10.065762   1.000000
     11         -8.968643   1.000000
     12         -8.590074   1.000000
     13         -7.618654   1.000000
     14         -7.083089   1.000000
     15         -1.958321   1.000000
     16         -1.503807   1.000000
     17         -1.421570   1.000000
     18         -1.196683   1.000000
     19         -1.095820   1.000000
     20         -1.070629   1.000000
     21         -0.586815   1.000000
     22          0.376327   1.000000
     23          0.864746   1.000000
     24          1.175764   1.000000
     25          1.454316   1.000000
     26          1.599412   1.000000
     27          2.265158   1.000000
     28          2.789795   1.000000
     29          2.950568   1.000000
     30          3.666173   1.000000
     31          4.082827   1.000000
     32          6.108822   0.000000
     33          6.732754   0.000000
     34          7.787602   0.000000
     35          8.765497   0.000000
     36          9.146915   0.000000
     37          9.347548   0.000000
     38          9.962135   0.000000

  0.3000000E+00  0.1000000E+00  0.5000000E+00  0.3000000E-01
      1        -11.093372   1.000000
      2        -10.805085   1.000000
      3        -10.656352   1.000000
      4        -10.585750   1.000000
      5        -10.531424   1.000000
      6        -10.518727   1.000000
      7        -10.217565   1.000000
      8        -10.132374   1.000000
      9        -10.081345   1.000000
     10        -10.048344   1.000000
     11         -8.557441   1.000000
     12         -8.248081   1.000000
     13         -7.417471   1.000000
     14         -6.904879   1.000000
     15         -2.103659   1.000000
     16         -1.518651   1.000000
     17         -1.373070   1.000000
     18         -1.346412   1.000000
     19         -1.175155   1.000000
     20         -1.085976   1.000000
     21         -1.028699   1.000000
     22         -0.022509   1.000000
     23          0.431927   1.000000
     24          0.822884   1.000000
     25          1.053777   1.000000
     26          1.331399   1.000000
     27          1.852964   1.000000
     28          2.549449   1.000000
     29          2.787441   1.000000
     30          3.316405   1.000000
     31          4.011597   1.000000
     32          6.105533   0.000000
     33          6.505098   0.000000
     34          7.429128   0.000000
     35          8.863798   0.000000
     36          9.114137   0.000000
     37          9.483051   0.000000
     38         10.015765   0.000000

  0.4000000E+00  0.1000000E+00  0.5000000E+00  0.3000000E-01
      1        -11.131640   1.000000
      2        -10.815224   1.000000
      3        -10.650029   1.000000
      4        -10.596839   1.000000
      5        -10.555437   1.000000
      6        -10.516114   1.000000
      7        -10.215655   1.000000
      8        -10.139385   1.000000
      9        -10.059797   1.000000
     10        -10.041475   1.000000
     11         -8.231658   1.000000
     12         -8.016618   1.000000
     13         -7.325278   1.000000
     14         -6.796073   1.000000
     15         -2.350132   1.000000
     16         -1.859651   1.000000
     17         -1.348663   1.000000
     18         -1.323357   1.000000
     19         -1.236992   1.000000
     20         -1.082329   1.000000
     21         -0.928046   1.000000
     22         -0.332723   1.000000
     23          0.023539   1.000000
     24          0.671640   1.000000
     25          0.823113   1.000000
     26          1.380904   1.000000
     27          1.674764   1.000000
     28          2.360337   1.000000
     29          2.744017   1.000000
     30          3.123212   1.000000
     31          3.863481   1.000000
     32          5.966124   0.000000
     33          6.484504   0.000000
     34          7.241617   0.000000
     35          8.744151   0.000000
     36          8.897936   0.000000
     37          9.413527   0.000000
     38          9.926592   0.000000

  0.2000000E+00  0.2000000E+00  0.5000000E+00  0.1500000E-01
      1        -11.081375   1.000000
      2        -10.799987   1.000000
      3        -10.661953   1.000000
      4        -10.577186   1.000000
      5        -10.536548   1.000000
      6        -10.495275   1.000000
      7        -10.256414   1.000000
      8        -10.114278   1.000000
      9        -10.101676   1.000000
     10        -10.049812   1.000000
     11         -8.594938   1.000000
     12         -8.276605   1.000000
     13         -7.447197   1.000000
     14         -6.924548   1.000000
     15         -2.032606   1.000000
     16         -1.465471   1.000000
     17         -1.367099   1.000000
     18         -1.312987   1.000000
     19         -1.144123   1.000000
     20         -1.072634   1.000000
     21         -0.985250   1.000000
     22          0.113606   1.000000
     23          0.461309   1.000000
     24          0.667632   1.000000
     25          1.038430   1.000000
     26          1.233374   1.000000
     27          2.174572   1.000000
     28          2.262710   1.000000
     29          2.689986   1.000000
     30          3.155104   1.000000
     31          4.119251   1.000000
     32          6.313426   0.000000
     33          6.706135   0.000000
     34          8.003096   0.000000
     35          8.716299   0.000000
     36          9.582390   0.000000
     37          9.626541   0.000000
     38         10.050760   0.000000

  0.3000000E+00  0.2000000E+00  0.5000000E+00  0.3000000E-01
      1        -11.121317   1.000000
      2        -10.802348   1.000000
      3        -10.658630   1.000000
      4        -10.578239   1.000000
      5        -10.538801   1.000000
      6        -10.521923   1.000000
      7        -10.281455   1.000000
      8        -10.117958   1.000000
      9        -10.081630   1.000000
     10        -10.046640   1.000000
     11         -8.209819   1.000000
     12         -7.987070   1.000000
     13         -7.360669   1.000000
     14         -6.796835   1.000000
     15         -2.203632   1.000000
     16         -1.722306   1.000000
     17         -1.351772   1.000000
     18         -1.321455   1.000000
     19         -1.185641   1.000000
     20         -1.117259   1.000000
     21         -0.957198   1.000000
     22         -0.127167   1.000000
     23          0.092816   1.000000
     24          0.294022   1.000000
     25          0.615129   1.000000
     26          1.243459   1.000000
     27          1.803004   1.000000
     28          2.062133   1.000000
     29          2.546692   1.000000
     30          2.853182   1.000000
     31          4.022215   1.000000
     32          6.359414   0.000000
     33          6.610572   0.000000
     34          7.926162   0.000000
     35          8.847546   0.000000
     36          9.468172   0.000000
     37          9.699419   0.000000
     38         10.173781   0.000000

  0.4000000E+00  0.2000000E+00  0.5000000E+00  0.1500000E-01
      1        -11.135871   1.000000
      2        -10.803371   1.000000
      3        -10.658104   1.000000
      4        -10.579730   1.000000
      5        -10.540185   1.000000
      6        -10.528817   1.000000
      7        -10.290245   1.000000
      8        -10.120231   1.000000
      9        -10.060225   1.000000
     10        -10.058745   1.000000
     11         -8.007933   1.000000
     12         -7.881850   1.000000
     13         -7.355969   1.000000
     14         -6.749696   1.000000
     15         -2.302832   1.000000
     16         -1.895712   1.000000
     17         -1.341222   1.000000
     18         -1.310491   1.000000
     19         -1.207303   1.000000
     20         -1.102186   1.000000
     21         -0.816024   1.000000
     22         -0.327243   1.000000
     23          0.007104   1.000000
     24          0.144301   1.000000
     25          0.407690   1.000000
     26          1.272904   1.000000
     27          1.702832   1.000000
     28          1.961917   1.000000
     29          2.533374   1.000000
     30          2.756462   1.000000
     31          3.944358   1.000000
     32          6.286055   0.000000
     33          6.630027   0.000000
     34          7.853865   0.000000
     35          8.902890   0.000000
     36          9.405059   0.000000
     37          9.654022   0.000000
     38         10.140084   0.000000

  0.3000000E+00  0.3000000E+00  0.5000000E+00  0.1500000E-01
      1        -11.135711   1.000000
      2        -10.795848   1.000000
      3        -10.662479   1.000000
      4        -10.564098   1.000000
      5        -10.544435   1.000000
      6        -10.519863   1.000000
      7        -10.337613   1.000000
      8        -10.098666   1.000000
      9        -10.081419   1.000000
     10        -10.059248   1.000000
     11         -7.915456   1.000000
     12         -7.800650   1.000000
     13         -7.400403   1.000000
     14         -6.732033   1.000000
     15         -2.236132   1.000000
     16         -1.885066   1.000000
     17         -1.333729   1.000000
     18         -1.320634   1.000000
     19         -1.175309   1.000000
     20         -1.119835   1.000000
     21         -0.796759   1.000000
     22         -0.252081   1.000000
     23         -0.134463   1.000000
     24         -0.086444   1.000000
     25          0.453989   1.000000
     26          1.069044   1.000000
     27          1.524487   1.000000
     28          1.954560   1.000000
     29          2.377459   1.000000
     30          2.704176   1.000000
     31          3.975310   1.000000
     32          6.392184   0.000000
     33          6.651101   0.000000
     34          8.191991   0.000000
     35          8.902543   0.000000
     36          9.618349   0.000000
     37          9.849148   0.000000
     38         10.898048   0.000000
