       N       E                     dE             d eps       ncg     rms          rms(c)
DAV:   1     0.585241795808E+03    0.58524E+03   -0.27673E+04  3800   0.183E+03
DAV:   2     0.603606202915E+02   -0.52488E+03   -0.50763E+03  3818   0.458E+02
DAV:   3    -0.234705929150E+02   -0.83831E+02   -0.81396E+02  4714   0.181E+02
DAV:   4    -0.282098453632E+02   -0.47393E+01   -0.47091E+01  4604   0.433E+01
DAV:   5    -0.284050643527E+02   -0.19522E+00   -0.19511E+00  5622   0.943E+00    0.134E+01
DAV:   6    -0.266618724754E+02    0.17432E+01   -0.32956E+00  6096   0.412E+01    0.961E+00
DAV:   7    -0.266843612837E+02   -0.22489E-01   -0.31964E+00  5344   0.126E+01    0.293E+00
DAV:   8    -0.266368035417E+02    0.47558E-01   -0.42482E-01  5524   0.586E+00    0.206E+00
DAV:   9    -0.266390885181E+02   -0.22850E-02   -0.54137E-02  4800   0.128E+00    0.887E-01
DAV:  10    -0.266383853929E+02    0.70313E-03   -0.60602E-03  5160   0.933E-01    0.615E-01
DAV:  11    -0.266386137892E+02   -0.22840E-03   -0.21325E-03  4672   0.280E-01    0.144E-01
DAV:  12    -0.266385663958E+02    0.47393E-04   -0.66482E-04  4920   0.212E-01    0.846E-02
DAV:  13    -0.266385715136E+02   -0.51178E-05   -0.68997E-05  5056   0.548E-02    0.518E-02
DAV:  14    -0.266385719815E+02   -0.46793E-06   -0.23512E-05  4656   0.456E-02    0.216E-02
DAV:  15    -0.266385723388E+02   -0.35734E-06   -0.62225E-06  4488   0.188E-02
   1 F= -.28754821E+02 E0= -.28754821E+02  d E =-.411847E-07
