 vasp.6.6.1 17Jul2026 (build Sep  7 2026 10:40:42) complex                       
 executed on       DarwinARM64GNU date 2026.09.22  17:07:04
 running    8 mpi-ranks, on    1 nodes
 distrk:  each k-point on    8 cores,    1 groups
 distr:  one band on NCORE=   4 cores,    2 groups


--------------------------------------------------------------------------------------------------------


 INCAR:
   ALGO = Normal
   AMIN = 0.01
   EDIFF = 1e-06
   ENCUT = 500.0
   GGA = Pe
   IBRION = -1
   ICHARG = 2
   ISMEAR = 0
   ISPIN = 1
   ISTART = 0
   ISYM = 2
   IVDW = 12
   LASPH = True
   LCHARG = True
   LORBIT = 11
   LREAL = False
   LWAVE = False
   NELM = 120
   NELMIN = 2
   NSW = 0
   PREC = Accurate
   SIGMA = 0.05
   SYSTEM = WP2-P02-beta-bulk-matched-static-500-k12x12x4
   NCORE = 4
   KPAR = 1

 POTCAR:    PAW_PBE S 06Sep2000                   
 POTCAR:    PAW_PBE In_d 06Sep2000                
 POTCAR:    PAW_PBE Zn 06Sep2000                  
 POTCAR:    PAW_PBE S 06Sep2000                   
   VRHFIN =S : s2p4                                                                                 
   LEXCH  = PE                                                                                      
   EATOM  =   276.8230 eV,   20.3459 Ry                                                             
                                                                                                    
   TITEL  = PAW_PBE S 06Sep2000                                                                     
   LULTRA =        F    use ultrasoft PP ?                                                          
   IUNSCR =        1    unscreen: 0-lin 1-nonlin 2-no                                               
   RPACOR =    1.500    partial core radius                                                         
   POMASS =   32.066; ZVAL   =    6.000    mass and valenz                                          
   RCORE  =    1.900    outmost cutoff radius                                                       
   RWIGS  =    2.200; RWIGS  =    1.164    wigner-seitz radius (au A)                               
   ENMAX  =  258.689; ENMIN  =  194.016 eV                                                          
   ICORE  =        2    local potential                                                             
   LCOR   =        T    correct aug charges                                                         
   LPAW   =        T    paw PP                                                                      
   EAUG   =  335.092                                                                                
   DEXC   =    0.000                                                                                
   RMAX   =    1.942    core radius for proj-oper                                                   
   RAUG   =    1.300    factor for augmentation sphere                                              
   RDEP   =    1.954    radius for radial grids                                                     
   RDEPT  =    1.744    core radius for aug-charge                                                  
                                                                                                    
   Atomic configuration                                                                             
    6 entries                                                                                       
     n  l   j            E        occ.                                                              
     1  0  0.50     -2405.8406   2.0000                                                             
     2  0  0.50      -211.7007   2.0000                                                             
     2  1  1.50      -156.4958   6.0000                                                             
     3  0  0.50       -17.2562   2.0000                                                             
     3  1  0.50        -7.0085   4.0000                                                             
     3  2  1.50        -6.8029   0.0000                                                             
   Description                                                                                      
     l       E           TYP  RCUT    TYP  RCUT                                                     
     0    -17.2561641     23  1.900                                                                 
     0    -15.8743224     23  1.900                                                                 
     1     -7.0085400     23  1.900                                                                 
     1     -2.7779785     23  1.900                                                                 
     2     -6.8029130     23  1.900                                                                 
  local pseudopotential read in
  partial core-charges read in
  partial kinetic energy density read in
  atomic valenz-charges read in
  non local Contribution for L=           0  read in
    real space projection operators read in
  non local Contribution for L=           0  read in
    real space projection operators read in
  non local Contribution for L=           1  read in
    real space projection operators read in
  non local Contribution for L=           1  read in
    real space projection operators read in
    PAW grid and wavefunctions read in

   number of l-projection  operators is LMAX  =           4
   number of lm-projection operators is LMMAX =           8

 POTCAR:    PAW_PBE In_d 06Sep2000                
   VRHFIN =In: s2p1                                                                                 
   LEXCH  = PE                                                                                      
   EATOM  =  1576.8302 eV,  115.8937 Ry                                                             
                                                                                                    
   TITEL  = PAW_PBE In_d 06Sep2000                                                                  
   LULTRA =        F    use ultrasoft PP ?                                                          
   IUNSCR =        1    unscreen: 0-lin 1-nonlin 2-no                                               
   RPACOR =    2.200    partial core radius                                                         
   POMASS =  114.820; ZVAL   =   13.000    mass and valenz                                          
   RCORE  =    2.500    outmost cutoff radius                                                       
   RWIGS  =    3.170; RWIGS  =    1.677    wigner-seitz radius (au A)                               
   ENMAX  =  239.211; ENMIN  =  179.409 eV                                                          
   ICORE  =        3    local potential                                                             
   LCOR   =        T    correct aug charges                                                         
   LPAW   =        T    paw PP                                                                      
   EAUG   =  449.704                                                                                
   DEXC   =    0.000                                                                                
   RMAX   =    2.552    core radius for proj-oper                                                   
   RAUG   =    1.300    factor for augmentation sphere                                              
   RDEP   =    2.630    radius for radial grids                                                     
   RDEPT  =    2.033    core radius for aug-charge                                                  
                                                                                                    
   Atomic configuration                                                                             
   12 entries                                                                                       
     n  l   j            E        occ.                                                              
     1  0  0.50    -27747.9169   2.0000                                                             
     2  0  0.50     -4154.4438   2.0000                                                             
     2  1  1.50     -3728.4305   6.0000                                                             
     3  0  0.50      -788.3680   2.0000                                                             
     3  1  1.50      -648.9215   6.0000                                                             
     3  2  2.50      -432.5893  10.0000                                                             
     4  0  0.50      -119.6363   2.0000                                                             
     4  1  1.50       -78.1086   6.0000                                                             
     4  2  2.50       -18.6227  10.0000                                                             
     5  0  0.50        -8.2107   2.0000                                                             
     5  1  0.50        -2.5185   1.0000                                                             
     4  3  2.50        -2.7212   0.0000                                                             
   Description                                                                                      
     l       E           TYP  RCUT    TYP  RCUT                                                     
     2    -18.6226981     23  2.500                                                                 
     2     -1.3605826     23  2.500                                                                 
     0     -8.2107305     23  2.500                                                                 
     0     -6.1485975     23  2.500                                                                 
     1     -2.5184867     23  2.500                                                                 
     1      3.2427302     23  2.500                                                                 
     3     -1.3605826      7  2.500                                                                 
  local pseudopotential read in
  partial core-charges read in
  partial kinetic energy density read in
  atomic valenz-charges read in
  non local Contribution for L=           2  read in
    real space projection operators read in
  non local Contribution for L=           2  read in
    real space projection operators read in
  non local Contribution for L=           0  read in
    real space projection operators read in
  non local Contribution for L=           0  read in
    real space projection operators read in
  non local Contribution for L=           1  read in
    real space projection operators read in
  non local Contribution for L=           1  read in
    real space projection operators read in
    PAW grid and wavefunctions read in

   number of l-projection  operators is LMAX  =           6
   number of lm-projection operators is LMMAX =          18

 POTCAR:    PAW_PBE Zn 06Sep2000                  
   VRHFIN =Zn: d10 p2                                                                               
   LEXCH  = PE                                                                                      
   EATOM  =  1748.8345 eV,  128.5357 Ry                                                             
                                                                                                    
   TITEL  = PAW_PBE Zn 06Sep2000                                                                    
   LULTRA =        F    use ultrasoft PP ?                                                          
   IUNSCR =        1    unscreen: 0-lin 1-nonlin 2-no                                               
   RPACOR =    2.000    partial core radius                                                         
   POMASS =   65.390; ZVAL   =   12.000    mass and valenz                                          
   RCORE  =    2.300    outmost cutoff radius                                                       
   RWIGS  =    2.400; RWIGS  =    1.270    wigner-seitz radius (au A)                               
   ENMAX  =  276.723; ENMIN  =  207.542 eV                                                          
   RCLOC  =    1.828    cutoff for local pot                                                        
   LCOR   =        T    correct aug charges                                                         
   LPAW   =        T    paw PP                                                                      
   EAUG   =  575.892                                                                                
   DEXC   =    0.000                                                                                
   RMAX   =    2.347    core radius for proj-oper                                                   
   RAUG   =    1.300    factor for augmentation sphere                                              
   RDEP   =    2.324    radius for radial grids                                                     
   RDEPT  =    1.788    core radius for aug-charge                                                  
                                                                                                    
   Atomic configuration                                                                             
    9 entries                                                                                       
     n  l   j            E        occ.                                                              
     1  0  0.50     -9524.6913   2.0000                                                             
     2  0  0.50     -1158.1882   2.0000                                                             
     2  1  1.50     -1003.8506   6.0000                                                             
     3  0  0.50      -129.2194   2.0000                                                             
     3  1  1.50       -83.3890   6.0000                                                             
     3  2  2.50       -10.1410  10.0000                                                             
     4  0  0.50        -5.9785   2.0000                                                             
     4  1  0.50        -4.0817   0.0000                                                             
     4  3  2.50        -1.3606   0.0000                                                             
   Description                                                                                      
     l       E           TYP  RCUT    TYP  RCUT                                                     
     2    -10.1410010     23  2.300                                                                 
     2    -11.5015836     23  2.300                                                                 
     0     -5.9785163     23  2.300                                                                 
     0      1.1858015     23  2.300                                                                 
     1     -2.7211652     23  2.300                                                                 
     1     13.2444212     23  2.300                                                                 
  local pseudopotential read in
  partial core-charges read in
  partial kinetic energy density read in
  atomic valenz-charges read in
  non local Contribution for L=           2  read in
    real space projection operators read in
  non local Contribution for L=           2  read in
    real space projection operators read in
  non local Contribution for L=           0  read in
    real space projection operators read in
  non local Contribution for L=           0  read in
    real space projection operators read in
  non local Contribution for L=           1  read in
    real space projection operators read in
  non local Contribution for L=           1  read in
    real space projection operators read in
    PAW grid and wavefunctions read in

   number of l-projection  operators is LMAX  =           6
   number of lm-projection operators is LMMAX =          18

  PAW_PBE S 06Sep2000                   :
 energy of atom  1       EATOM= -276.8230
 kinetic energy error for atom=    0.0020 (will be added to EATOM!!)
  PAW_PBE In_d 06Sep2000                :
 energy of atom  2       EATOM=-1576.8302
 kinetic energy error for atom=    0.0036 (will be added to EATOM!!)
  PAW_PBE Zn 06Sep2000                  :
 energy of atom  3       EATOM=-1748.8345
 kinetic energy error for atom=    0.0029 (will be added to EATOM!!)


 POSCAR: In2 S4 Zn
  positions in direct lattice
  velocities in cartesian coordinates
 IVDW          = 12
 DFT-D3 parameters (can be modified):
 VDW_S6        =  1.00000000  s6, scaling of the dipole-dipole dispersion
 VDW_S8        =  0.78750002  s8, scaling of the dipole-quadrupole dispersion
 VDW_A1        =  0.42890000  a1, scaling of the critical radii
 VDW_A2        =  4.44070005  a2, offset of the critical radii
 VDW_RADIUS    = 50.20216178  two-body interaction cutoff (in Angstroms)
 VDW_CNRADIUS  = 21.16708996  CN, coordination number cutoff (in Angstroms)
 Fixed parameters (cannot be modified):
 s9            =  0.00000000  s9, scaling of the three-body dispersion


 exchange-correlation table for PE
   RHO(1)=    0.500       N(1)  =     2000
   RHO(2)=  100.500       N(2)  =     4000



--------------------------------------------------------------------------------------------------------


 ion  position               nearest neighbor table
   1  0.000  0.000  0.097-   5 2.49   5 2.49   5 2.49
   2  0.333  0.667  0.388-   5 2.45   6 2.71   6 2.71   6 2.71
   3  0.000  0.000  0.618-   7 2.54   6 2.57   6 2.57   6 2.57
   4  0.667  0.333  0.872-   7 2.31   7 2.31   7 2.31
   5  0.333  0.667  0.186-   2 2.45   1 2.49   1 2.49   1 2.49
   6  0.667  0.333  0.514-   3 2.57   3 2.57   3 2.57   2 2.71   2 2.71   2 2.71
   7  0.000  0.000  0.827-   4 2.31   4 2.31   4 2.31   3 2.54

  LATTYP: Found a hexagonal cell.
 ALAT       =     3.8782842923
 C/A-ratio  =     3.1324246026
  
  Lattice vectors:
  
 A1 = (   3.8782842923,   0.0000000000,  -0.0000000000)
 A2 = (  -1.9391421462,   3.3586927203,  -0.0000000000)
 A3 = (  -0.0000000000,  -0.0000000000,  12.1484331333)


Analysis of symmetry for initial positions (statically):
=====================================================================
 Subroutine PRICEL returns:
 Original cell was already a primitive cell.
 

 Routine SETGRP: Setting up the symmetry group for a 
 hexagonal supercell.


 Subroutine GETGRP returns: Found  6 space group operations
 (whereof  6 operations were pure point group operations)
 out of a pool of 24 trial point group operations.


The static configuration has the point symmetry C_3v.


Analysis of symmetry for dynamics (positions and initial velocities):
=====================================================================
 Subroutine PRICEL returns:
 Original cell was already a primitive cell.
 

 Routine SETGRP: Setting up the symmetry group for a 
 hexagonal supercell.


 Subroutine GETGRP returns: Found  6 space group operations
 (whereof  6 operations were pure point group operations)
 out of a pool of 24 trial point group operations.


The dynamic configuration has the point symmetry C_3v.


 Subroutine INISYM returns: Found  6 space group operations
 (whereof  6 operations are pure point group operations),
 and found     1 'primitive' translations


----------------------------------------------------------------------------------------

                                     Primitive cell                                     

  volume of cell :     158.2451

  direct lattice vectors                    reciprocal lattice vectors
     3.878284292  0.000000000 -0.000000000     0.257845976  0.148867444  0.000000000
    -1.939142146  3.358692720 -0.000000000     0.000000000  0.297734888  0.000000000
    -0.000000000 -0.000000000 12.148433133     0.000000000  0.000000000  0.082315142

  length of vectors
     3.878284292  3.878284292 12.148433133     0.297734888  0.297734888  0.082315142

  position of ions in fractional coordinates (direct lattice)
     0.000000000  0.000000000  0.096786482
     0.333333343  0.666666687  0.387994815
     0.000000000  0.000000000  0.617697262
     0.666666687  0.333333343  0.872183449
     0.333333343  0.666666687  0.186244563
     0.666666687  0.333333343  0.513539902
     0.000000000  0.000000000  0.826553486

  ion indices of the primitive-cell ions
   primitive index   ion index
                 1           1
                 2           2
                 3           3
                 4           4
                 5           5
                 6           6
                 7           7

----------------------------------------------------------------------------------------



 KPOINTS: WP2 beta bulk matched static 10x10x4    

Automatic generation of k-mesh.
 Grid dimensions read from file:
 generate k-points for:   10   10    4

 Generating k-lattice:

  Cartesian coordinates                     Fractional coordinates (reciprocal lattice)
     0.025784598  0.014886744  0.000000000     0.100000000 -0.000000000  0.000000000
     0.000000000  0.029773489  0.000000000     0.000000000  0.100000000  0.000000000
     0.000000000  0.000000000  0.020578786     0.000000000  0.000000000  0.250000000

  Length of vectors
     0.029773489  0.029773489  0.020578786

  Shift w.r.t. Gamma in fractional coordinates (k-lattice)
     0.000000000  0.000000000  0.000000000

 
 Subroutine IBZKPT returns following result:
 ===========================================
 
 Found     50 irreducible k-points:
 
 Following reciprocal coordinates:
            Coordinates               Weight
  0.000000  0.000000  0.000000      1.000000
  0.100000  0.000000  0.000000      6.000000
  0.200000  0.000000  0.000000      6.000000
  0.300000  0.000000  0.000000      6.000000
  0.400000  0.000000  0.000000      6.000000
  0.500000  0.000000  0.000000      3.000000
  0.100000  0.100000  0.000000      6.000000
  0.200000  0.100000  0.000000     12.000000
  0.300000  0.100000  0.000000     12.000000
  0.400000  0.100000  0.000000     12.000000
  0.200000  0.200000  0.000000      6.000000
  0.300000  0.200000  0.000000     12.000000
  0.400000  0.200000  0.000000      6.000000
  0.300000  0.300000  0.000000      6.000000
  0.000000  0.000000  0.250000      2.000000
  0.100000  0.000000  0.250000      6.000000
  0.000000  0.100000  0.250000      6.000000
  0.200000  0.000000  0.250000      6.000000
  0.000000  0.200000  0.250000      6.000000
  0.300000  0.000000  0.250000      6.000000
  0.000000  0.300000  0.250000      6.000000
  0.400000  0.000000  0.250000      6.000000
  0.000000  0.400000  0.250000      6.000000
  0.500000  0.000000  0.250000      6.000000
  0.100000  0.100000  0.250000     12.000000
  0.200000  0.100000  0.250000     12.000000
 -0.100000  0.300000  0.250000     12.000000
  0.300000  0.100000  0.250000     12.000000
 -0.100000  0.400000  0.250000     12.000000
  0.400000  0.100000  0.250000     12.000000
 -0.100000  0.500000  0.250000     12.000000
  0.200000  0.200000  0.250000     12.000000
  0.300000  0.200000  0.250000     12.000000
 -0.200000  0.500000  0.250000     12.000000
  0.400000  0.200000  0.250000     12.000000
  0.300000  0.300000  0.250000     12.000000
  0.000000  0.000000  0.500000      1.000000
  0.100000  0.000000  0.500000      6.000000
  0.200000  0.000000  0.500000      6.000000
  0.300000  0.000000  0.500000      6.000000
  0.400000  0.000000  0.500000      6.000000
  0.500000  0.000000  0.500000      3.000000
  0.100000  0.100000  0.500000      6.000000
  0.200000  0.100000  0.500000     12.000000
  0.300000  0.100000  0.500000     12.000000
  0.400000  0.100000  0.500000     12.000000
  0.200000  0.200000  0.500000      6.000000
  0.300000  0.200000  0.500000     12.000000
  0.400000  0.200000  0.500000      6.000000
  0.300000  0.300000  0.500000      6.000000
 
 Following cartesian coordinates:
            Coordinates               Weight
  0.000000  0.000000  0.000000      1.000000
  0.025785  0.014887  0.000000      6.000000
  0.051569  0.029773  0.000000      6.000000
  0.077354  0.044660  0.000000      6.000000
  0.103138  0.059547  0.000000      6.000000
  0.128923  0.074434  0.000000      3.000000
  0.025785  0.044660  0.000000      6.000000
  0.051569  0.059547  0.000000     12.000000
  0.077354  0.074434  0.000000     12.000000
  0.103138  0.089320  0.000000     12.000000
  0.051569  0.089320  0.000000      6.000000
  0.077354  0.104207  0.000000     12.000000
  0.103138  0.119094  0.000000      6.000000
  0.077354  0.133981  0.000000      6.000000
  0.000000  0.000000  0.020579      2.000000
  0.025785  0.014887  0.020579      6.000000
  0.000000  0.029773  0.020579      6.000000
  0.051569  0.029773  0.020579      6.000000
  0.000000  0.059547  0.020579      6.000000
  0.077354  0.044660  0.020579      6.000000
  0.000000  0.089320  0.020579      6.000000
  0.103138  0.059547  0.020579      6.000000
  0.000000  0.119094  0.020579      6.000000
  0.128923  0.074434  0.020579      6.000000
  0.025785  0.044660  0.020579     12.000000
  0.051569  0.059547  0.020579     12.000000
 -0.025785  0.074434  0.020579     12.000000
  0.077354  0.074434  0.020579     12.000000
 -0.025785  0.104207  0.020579     12.000000
  0.103138  0.089320  0.020579     12.000000
 -0.025785  0.133981  0.020579     12.000000
  0.051569  0.089320  0.020579     12.000000
  0.077354  0.104207  0.020579     12.000000
 -0.051569  0.119094  0.020579     12.000000
  0.103138  0.119094  0.020579     12.000000
  0.077354  0.133981  0.020579     12.000000
  0.000000  0.000000  0.041158      1.000000
  0.025785  0.014887  0.041158      6.000000
  0.051569  0.029773  0.041158      6.000000
  0.077354  0.044660  0.041158      6.000000
  0.103138  0.059547  0.041158      6.000000
  0.128923  0.074434  0.041158      3.000000
  0.025785  0.044660  0.041158      6.000000
  0.051569  0.059547  0.041158     12.000000
  0.077354  0.074434  0.041158     12.000000
  0.103138  0.089320  0.041158     12.000000
  0.051569  0.089320  0.041158      6.000000
  0.077354  0.104207  0.041158     12.000000
  0.103138  0.119094  0.041158      6.000000
  0.077354  0.133981  0.041158      6.000000
 


--------------------------------------------------------------------------------------------------------




 Dimension of arrays:
   k-points           NKPTS =     50   k-points in BZ     NKDIM =     50   number of bands    NBANDS=     38
   number of dos      NEDOS =    301   number of ions     NIONS =      7
   non local maximal  LDIM  =      6   non local SUM 2l+1 LMDIM =     18
   total plane-waves  NPLWV =  70560
   max r-space proj   IRMAX =      1   max aug-charges    IRDMAX=  19457
   dimension x,y,z NGX =    28 NGY =   28 NGZ =   90
   dimension x,y,z NGXF=    56 NGYF=   56 NGZF=  180
   support grid    NGXF=    56 NGYF=   56 NGZF=  180
   ions per type =               4   2   1
   NGX,Y,Z   is equivalent  to a cutoff of  12.00, 12.00, 12.32 a.u.
   NGXF,Y,Z  is equivalent  to a cutoff of  24.00, 24.00, 24.63 a.u.

 SYSTEM =  WP2-P02-beta-bulk-matched-static-500-k12
 POSCAR =  In2 S4 Zn                               

 Startparameter for this run:
   NWRITE =      2    write-flag & timer
   PREC   = accura    normal or accurate (medium, high low for compatibility)
   ISTART =      0    job   : 0-new  1-cont  2-samecut
   ICHARG =      2    charge: 1-file 2-atom 10-const
   ISPIN  =      1    spin polarized calculation?
   LNONCOLLINEAR =      F non collinear calculations
   LSORBIT =      F    spin-orbit coupling
   INIWAV =      1    electr: 0-lowe 1-rand  2-diag
   LASPH  =      T    aspherical Exc in radial PAW
 Electronic Relaxation 1
   ENCUT  =  500.0 eV  36.75 Ry    6.06 a.u.   7.07  7.07 22.15*2*pi/ulx,y,z
   ENINI  =  500.0     initial cutoff
   ENAUG  =  575.9 eV  augmentation charge cutoff
   NELM   =    120;   NELMIN=  2; NELMDL= -5     # of ELM steps 
   EDIFF  = 0.1E-05   stopping-criterion for ELM
   LREAL  =      F    real-space projection
   NLSPLINE    = F    spline interpolate recip. space projectors
   LCOMPAT=      F    compatible to vasp.4.4
   GGA_COMPAT  = T    GGA compatible to vasp.4.4-vasp.4.6
   LMAXPAW     = -100 max onsite density
   LMAXMIX     =    2 max onsite mixed and CHGCAR
   VOSKOWN=      0    Vosko Wilk Nusair interpolation
   ROPT   =    0.00000   0.00000   0.00000

 Ewald summation
   EWALD_CUTOFF =   4.00

 Ionic relaxation
   EDIFFG = 0.1E-04   stopping-criterion for IOM
   NSW    =      0    number of steps for IOM
   NBLOCK =      1;   KBLOCK =      1    inner block; outer block 
   IBRION =     -1    ionic relax: 0-MD 1-quasi-New 2-CG
   NFREE  =      0    steps in history (QN), initial steepest desc. (CG)
   ISIF   =      2    stress and relaxation
   IWAVPR =     10    prediction:  0-non 1-charg 2-wave 3-comb
   MAXDIS =   0.00    maximum displacement; if above reset density
   ISYM   =      2    0-nonsym 1-usesym 2-fastsym
   LCORR  =      T    Harris-Foulkes like correction to forces

   POTIM  = 0.5000    time-step for ionic-motion
   TEIN   =    0.0    initial temperature
   TEBEG  =    0.0;   TEEND  =   0.0 temperature during run
   SMASS  =  -3.00    Nose mass-parameter (am)
   estimated Nose-frequenzy (Omega)   =  0.10E-29 period in steps = 0.13E+47 mass=  -0.344E-27a.u.
   SCALEE = 1.0000    scale energy and forces
   NPACO  =    256;   APACO  = 10.0  distance and # of slots for P.C.
   PSTRESS=    0.0 pullay stress

  Mass of Ions in am
   POMASS =  32.07114.82 65.39
  Ionic Valenz
   ZVAL   =   6.00 13.00 12.00
  Atomic Wigner-Seitz radii
   RWIGS  =  -1.00 -1.00 -1.00
  virtual crystal weights 
   VCA    =   1.00  1.00  1.00
   NELECT =      62.0000    total number of electrons
   NUPDOWN=      -1.0000    fix difference up-down

 DOS related values:
   EMIN   =  10.00;   EMAX   =-10.00  energy-range for DOS
   EFERMI =   0.00;   METHOD = LEGACY      
   ISMEAR =     0;   SIGMA  =   0.05  broadening in eV -4-tet -1-fermi 0-gaus
   EFERMI_NEDOS =   21; number of points for ismear=-14 and -15

 Electronic relaxation 2 (details)
   IALGO  =     38    algorithm
   LDIAG  =      T    sub-space diagonalisation (order eigenvalues)
   LSUBROT=      F    optimize rotation matrix (better conditioning)
   LROBUST=      F    robust break criterion during scf (extrapolated energy error)
   ISEARCH=      0    line search for conjugate gradient (0, 1=use gradient)
   TURBO    =      0    0=normal 1=particle mesh
   IRESTART =      0    0=no restart 2=restart with 2 vectors
   NREBOOT  =      0    no. of reboots
   NMIN     =      0    reboot dimension
   EREF     =   0.00    reference energy to select bands
   IMIX   =      4    mixing-type and parameters
     AMIX     =   0.40;   BMIX     =  1.00
     AMIX_MAG =   1.60;   BMIX_MAG =  1.00
     AMIN     =   0.01
     WC   =   100.;   INIMIX=   1;  MIXPRE=   1;  MAXMIX= -45

 Intra band minimization:
   WEIMIN = 0.0000     energy-eigenvalue tresh-hold
   EBREAK =  0.66E-08  absolut break condition
   DEPER  =   0.30     relativ break condition  

   TIME   =   0.40     timestep for ELM

  volume/ion in A,a.u.               =      22.61       152.56
  Fermi-wavevector in a.u.,A,eV,Ry     =   1.197922  2.263745 19.524605  1.435018
  Thomas-Fermi vector in A             =   2.333825

 Write flags
   LH5          =      F    write vaspwave.h5 (instead of legacy files WAVECAR, CHGCAR, etc.)
   LWAVE        =      F    write Kohn-Sham orbitals (WAVECAR/vaspwave.h5)
   LDOWNSAMPLE  =      F    k-point downsampling of WAVECAR
   LCHARG       =      T    write restart densities (CHGCAR/vaspwave.h5)
   LCHARGH5     =      F    write charge density to vaspwave.h5
   LTAU         =      F    evaluate kinetic energy density (TAUCAR/vaspwave.h5)
   LVTOT        =      F    write LOCPOT, total local potential
   LVHAR        =      F    write LOCPOT, Hartree potential only
   WRT_POTENTIAL= None    ! write potential to vaspout.h5
   WRT_DENSITY  = None    ! write densities to vaspout.h5
   LELF         =      F    write electronic localiz. function (ELF)
   LORBIT       =     11    0 simple, 1 ext, 2 COOP (PROOUT), +10 PAW based schemes


 Python interface
   PLUGINS active      =      F    recompile with -DPLUGINS to activate

 Dipole corrections
   LMONO      =      F    monopole corrections only (constant potential shift)
   LDIPOL     =      F    correct potential (dipole corrections)
   IDIPOL     =      0    1-x, 2-y, 3-z, 4-all directions 
   EPSILON    =  1.0000000 bulk dielectric constant
   LVACPOTAV  =      F  vacuum potentials using an averaging scheme for the charge density
   VACPOTFLAT =  0.1000000 required flatness to determine vacuum potential

Coulomb truncation method
  LTRUNCATE          =      F  Coulomb kernel truncation to be used


 Exchange correlation treatment:
   GGA     = PE    functional components
   XC_C    = 1    coefficients multiplying the functional components
   LIBXC   =     F    Libxc                    
   VOSKOWN =     0    Vosko Wilk Nusair interpolation
   LHFCALC =     F    Hartree Fock is set to
   LHFONE  =     F    Hartree Fock one center treatment
   AEXX    =    0.0000 exact exchange contribution
   BEXX    =    1.0000 short-range exact exchange contribution

 Parameters of functionals:
   PE:
     No parameter

 Van der Waals corrections
   IVDW    =    12    specifies the selected vdW correction

 Linear response parameters
   LEPSILON=     F    determine dielectric tensor
   LRPA    =     F    only Hartree local field effects (RPA)
   LNABLA  =     F    use nabla operator in PAW spheres
   LVEL    =     F    velocity operator in full k-point grid
   CSHIFT  =0.1000    complex shift for real part using Kramers Kronig
   OMEGAMAX=  -1.0    maximum frequency
   DEG_THRESHOLD= 0.2000000E-02 threshold for treating states as degnerate
   RTIME   =   -0.100 relaxation time in fs
  (WPLASMAI=    0.000 imaginary part of plasma frequency in eV, 0.658/RTIME)
   DFIELD  = 0.0000000 0.0000000 0.0000000 field for delta impulse in time

  Optional k-point grid parameters
   LKPOINTS_OPT  =     F    use optional k-point grid
   KPOINTS_OPT_MODE=     1    mode for optional k-point grid

 Orbital magnetization related:
   ORBITALMAG=     F  switch on orbital magnetization
   LCHIMAG   =     F  perturbation theory with respect to B field
   DQ        =  0.001000  dq finite difference perturbation B field
   LLRAUG    =     F  two centre corrections for induced B field
   LZORA     =     F  scalar relativistic for chemical shift
   LSOSHIFT  =     F  spin-orbit for chemical shift
   LBONE     =     F  B-component reconstruction in AE one-centre
   LVGVCALC  =     T  calculate vGv susceptibility
   LVGVAPPL  =     F  apply vGv susceptibility instead of pGv for G=0

 Random number generation:
   RANDOM_GENERATOR = DEFAULT
   PCG_SEED         = not used


--------------------------------------------------------------------------------------------------------


 Static calculation
 charge density and potential will be updated during run
 non-spin polarized calculation
 Variant of blocked Davidson
 Davidson routine will perform the subspace rotation
 perform sub-space diagonalisation
    after iterative eigenvector-optimisation
 modified Broyden-mixing scheme, WC =      100.0
 initial mixing is a Kerker type mixing with AMIX =  0.4000 and BMIX =      1.0000
 Hartree-type preconditioning will be used
 using additional bands            7
 reciprocal scheme for non local part
 use partial core corrections
 calculate Harris-corrections to forces   (improved forces if not selfconsistent)
 use gradient corrections 
 use of overlap-Matrix (Vanderbilt PP)
 Gauss-broadening in eV      SIGMA  =   0.05


--------------------------------------------------------------------------------------------------------


  energy-cutoff  :      500.00
  volume of cell :      158.25
      direct lattice vectors                 reciprocal lattice vectors
     3.878284292  0.000000000 -0.000000000     0.257845976  0.148867444  0.000000000
    -1.939142146  3.358692720 -0.000000000     0.000000000  0.297734888  0.000000000
    -0.000000000 -0.000000000 12.148433133     0.000000000  0.000000000  0.082315142

  length of vectors
     3.878284292  3.878284292 12.148433133     0.297734888  0.297734888  0.082315142



 k-points in units of 2pi/SCALE and weight: WP2 beta bulk matched static 10x10x4    
   0.00000000  0.00000000  0.00000000       0.003
   0.02578460  0.01488674  0.00000000       0.015
   0.05156920  0.02977349  0.00000000       0.015
   0.07735379  0.04466023  0.00000000       0.015
   0.10313839  0.05954698  0.00000000       0.015
   0.12892299  0.07443372  0.00000000       0.007
   0.02578460  0.04466023  0.00000000       0.015
   0.05156920  0.05954698  0.00000000       0.030
   0.07735379  0.07443372  0.00000000       0.030
   0.10313839  0.08932047  0.00000000       0.030
   0.05156920  0.08932047  0.00000000       0.015
   0.07735379  0.10420721  0.00000000       0.030
   0.10313839  0.11909396  0.00000000       0.015
   0.07735379  0.13398070  0.00000000       0.015
   0.00000000  0.00000000  0.02057879       0.005
   0.02578460  0.01488674  0.02057879       0.015
   0.00000000  0.02977349  0.02057879       0.015
   0.05156920  0.02977349  0.02057879       0.015
   0.00000000  0.05954698  0.02057879       0.015
   0.07735379  0.04466023  0.02057879       0.015
   0.00000000  0.08932047  0.02057879       0.015
   0.10313839  0.05954698  0.02057879       0.015
   0.00000000  0.11909396  0.02057879       0.015
   0.12892299  0.07443372  0.02057879       0.015
   0.02578460  0.04466023  0.02057879       0.030
   0.05156920  0.05954698  0.02057879       0.030
  -0.02578460  0.07443372  0.02057879       0.030
   0.07735379  0.07443372  0.02057879       0.030
  -0.02578460  0.10420721  0.02057879       0.030
   0.10313839  0.08932047  0.02057879       0.030
  -0.02578460  0.13398070  0.02057879       0.030
   0.05156920  0.08932047  0.02057879       0.030
   0.07735379  0.10420721  0.02057879       0.030
  -0.05156920  0.11909396  0.02057879       0.030
   0.10313839  0.11909396  0.02057879       0.030
   0.07735379  0.13398070  0.02057879       0.030
   0.00000000  0.00000000  0.04115757       0.003
   0.02578460  0.01488674  0.04115757       0.015
   0.05156920  0.02977349  0.04115757       0.015
   0.07735379  0.04466023  0.04115757       0.015
   0.10313839  0.05954698  0.04115757       0.015
   0.12892299  0.07443372  0.04115757       0.007
   0.02578460  0.04466023  0.04115757       0.015
   0.05156920  0.05954698  0.04115757       0.030
   0.07735379  0.07443372  0.04115757       0.030
   0.10313839  0.08932047  0.04115757       0.030
   0.05156920  0.08932047  0.04115757       0.015
   0.07735379  0.10420721  0.04115757       0.030
   0.10313839  0.11909396  0.04115757       0.015
   0.07735379  0.13398070  0.04115757       0.015

 k-points in reciprocal lattice and weights: WP2 beta bulk matched static 10x10x4    
   0.00000000  0.00000000  0.00000000       0.003
   0.10000000  0.00000000  0.00000000       0.015
   0.20000000  0.00000000  0.00000000       0.015
   0.30000000  0.00000000  0.00000000       0.015
   0.40000000  0.00000000  0.00000000       0.015
   0.50000000  0.00000000  0.00000000       0.007
   0.10000000  0.10000000  0.00000000       0.015
   0.20000000  0.10000000  0.00000000       0.030
   0.30000000  0.10000000  0.00000000       0.030
   0.40000000  0.10000000  0.00000000       0.030
   0.20000000  0.20000000  0.00000000       0.015
   0.30000000  0.20000000  0.00000000       0.030
   0.40000000  0.20000000  0.00000000       0.015
   0.30000000  0.30000000  0.00000000       0.015
   0.00000000  0.00000000  0.25000000       0.005
   0.10000000  0.00000000  0.25000000       0.015
   0.00000000  0.10000000  0.25000000       0.015
   0.20000000  0.00000000  0.25000000       0.015
   0.00000000  0.20000000  0.25000000       0.015
   0.30000000  0.00000000  0.25000000       0.015
   0.00000000  0.30000000  0.25000000       0.015
   0.40000000  0.00000000  0.25000000       0.015
   0.00000000  0.40000000  0.25000000       0.015
   0.50000000  0.00000000  0.25000000       0.015
   0.10000000  0.10000000  0.25000000       0.030
   0.20000000  0.10000000  0.25000000       0.030
  -0.10000000  0.30000000  0.25000000       0.030
   0.30000000  0.10000000  0.25000000       0.030
  -0.10000000  0.40000000  0.25000000       0.030
   0.40000000  0.10000000  0.25000000       0.030
  -0.10000000  0.50000000  0.25000000       0.030
   0.20000000  0.20000000  0.25000000       0.030
   0.30000000  0.20000000  0.25000000       0.030
  -0.20000000  0.50000000  0.25000000       0.030
   0.40000000  0.20000000  0.25000000       0.030
   0.30000000  0.30000000  0.25000000       0.030
   0.00000000  0.00000000  0.50000000       0.003
   0.10000000  0.00000000  0.50000000       0.015
   0.20000000  0.00000000  0.50000000       0.015
   0.30000000  0.00000000  0.50000000       0.015
   0.40000000  0.00000000  0.50000000       0.015
   0.50000000  0.00000000  0.50000000       0.007
   0.10000000  0.10000000  0.50000000       0.015
   0.20000000  0.10000000  0.50000000       0.030
   0.30000000  0.10000000  0.50000000       0.030
   0.40000000  0.10000000  0.50000000       0.030
   0.20000000  0.20000000  0.50000000       0.015
   0.30000000  0.20000000  0.50000000       0.030
   0.40000000  0.20000000  0.50000000       0.015
   0.30000000  0.30000000  0.50000000       0.015

 position of ions in fractional coordinates (direct lattice) 
   0.00000000  0.00000000  0.09678648
   0.33333334  0.66666669  0.38799482
   0.00000000  0.00000000  0.61769726
   0.66666669  0.33333334  0.87218345
   0.33333334  0.66666669  0.18624456
   0.66666669  0.33333334  0.51353990
   0.00000000  0.00000000  0.82655349

 position of ions in cartesian coordinates  (Angst):
   0.00000000  0.00000000  1.17580410
  -0.00000000  2.23912855  4.71352907
   0.00000000  0.00000000  7.50405388
   1.93914221  1.11956427 10.59566231
  -0.00000000  2.23912855  2.26257961
   1.93914221  1.11956427  6.23870516
   0.00000000  0.00000000 10.04132976



--------------------------------------------------------------------------------------------------------


 k-point     1 :   0.0000 0.0000 0.0000  plane waves:    3975
 k-point     2 :   0.1000 0.0000 0.0000  plane waves:    3985
 k-point     3 :   0.2000 0.0000 0.0000  plane waves:    4006
 k-point     4 :   0.3000 0.0000 0.0000  plane waves:    4020
 k-point     5 :   0.4000 0.0000 0.0000  plane waves:    4018
 k-point     6 :   0.5000 0.0000 0.0000  plane waves:    4032
 k-point     7 :   0.1000 0.1000 0.0000  plane waves:    3991
 k-point     8 :   0.2000 0.1000 0.0000  plane waves:    4007
 k-point     9 :   0.3000 0.1000 0.0000  plane waves:    4020
 k-point    10 :   0.4000 0.1000 0.0000  plane waves:    4030
 k-point    11 :   0.2000 0.2000 0.0000  plane waves:    4025
 k-point    12 :   0.3000 0.2000 0.0000  plane waves:    4028
 k-point    13 :   0.4000 0.2000 0.0000  plane waves:    4037
 k-point    14 :   0.3000 0.3000 0.0000  plane waves:    4041
 k-point    15 :   0.0000 0.0000 0.2500  plane waves:    3992
 k-point    16 :   0.1000 0.0000 0.2500  plane waves:    3988
 k-point    17 :   0.0000 0.1000 0.2500  plane waves:    3988
 k-point    18 :   0.2000 0.0000 0.2500  plane waves:    4003
 k-point    19 :   0.0000 0.2000 0.2500  plane waves:    4003
 k-point    20 :   0.3000 0.0000 0.2500  plane waves:    4009
 k-point    21 :   0.0000 0.3000 0.2500  plane waves:    4009
 k-point    22 :   0.4000 0.0000 0.2500  plane waves:    4015
 k-point    23 :   0.0000 0.4000 0.2500  plane waves:    4015
 k-point    24 :   0.5000 0.0000 0.2500  plane waves:    4010
 k-point    25 :   0.1000 0.1000 0.2500  plane waves:    3994
 k-point    26 :   0.2000 0.1000 0.2500  plane waves:    4009
 k-point    27 :  -0.1000 0.3000 0.2500  plane waves:    4009
 k-point    28 :   0.3000 0.1000 0.2500  plane waves:    4029
 k-point    29 :  -0.1000 0.4000 0.2500  plane waves:    4029
 k-point    30 :   0.4000 0.1000 0.2500  plane waves:    4022
 k-point    31 :  -0.1000 0.5000 0.2500  plane waves:    4022
 k-point    32 :   0.2000 0.2000 0.2500  plane waves:    4014
 k-point    33 :   0.3000 0.2000 0.2500  plane waves:    4029
 k-point    34 :  -0.2000 0.5000 0.2500  plane waves:    4029
 k-point    35 :   0.4000 0.2000 0.2500  plane waves:    4036
 k-point    36 :   0.3000 0.3000 0.2500  plane waves:    4038
 k-point    37 :   0.0000 0.0000 0.5000  plane waves:    4016
 k-point    38 :   0.1000 0.0000 0.5000  plane waves:    3990
 k-point    39 :   0.2000 0.0000 0.5000  plane waves:    4002
 k-point    40 :   0.3000 0.0000 0.5000  plane waves:    4004
 k-point    41 :   0.4000 0.0000 0.5000  plane waves:    4028
 k-point    42 :   0.5000 0.0000 0.5000  plane waves:    4012
 k-point    43 :   0.1000 0.1000 0.5000  plane waves:    3986
 k-point    44 :   0.2000 0.1000 0.5000  plane waves:    4016
 k-point    45 :   0.3000 0.1000 0.5000  plane waves:    4018
 k-point    46 :   0.4000 0.1000 0.5000  plane waves:    4030
 k-point    47 :   0.2000 0.2000 0.5000  plane waves:    4044
 k-point    48 :   0.3000 0.2000 0.5000  plane waves:    4030
 k-point    49 :   0.4000 0.2000 0.5000  plane waves:    4030
 k-point    50 :   0.3000 0.3000 0.5000  plane waves:    4026

 maximum and minimum number of plane-waves per node :      1026      982

 maximum number of plane-waves:      4044
 maximum index in each direction: 
   IXMAX=    7   IYMAX=    7   IZMAX=   22
   IXMIN=   -7   IYMIN=   -7   IZMIN=  -22


 parallel 3D FFT for wavefunctions:
    minimum data exchange during FFTs selected (reduces bandwidth)
 parallel 3D FFT for charge:
    minimum data exchange during FFTs selected (reduces bandwidth)


 total amount of memory used by VASP MPI-rank0    76179. kBytes
=======================================================================

   base                                    :      30000. kBytes
   nonl-proj                               :      22102. kBytes
   fftplans                                :       2916. kBytes
   grid                                    :       5262. kBytes
   one-center                              :         31. kBytes
   wavefun                                 :      15868. kBytes

     INWAV:  cpu time      0.0000: real time      0.0000
 Broyden mixing: mesh for mixing (old mesh)
   NGX = 15   NGY = 15   NGZ = 45
  (NGX  = 56   NGY  = 56   NGZ  =180)
  gives a total of  10125 points

 initial charge density was supplied:
 charge density of overlapping atoms calculated
 number of electron      62.0000000 magnetization 
 keeping initial charge density in first step


--------------------------------------------------------------------------------------------------------


 Maximum index for augmentation-charges         2336 (set IRDMAX)


--------------------------------------------------------------------------------------------------------


 First call to EWALD:  gamma=   0.328
 Maximum number of real-space cells   4x   4x   2
 Maximum number of reciprocal cells   2x   2x   6

    FEWALD:  cpu time      0.0017: real time      0.0017


--------------------------------------- Ionic step        1  -------------------------------------------




--------------------------------------- Iteration      1(   1)  ---------------------------------------


    POTLOK:  cpu time      0.0494: real time      0.0496
    SETDIJ:  cpu time      0.0332: real time      0.0334
     EDDAV:  cpu time      1.6017: real time      1.6696
       DOS:  cpu time      0.0004: real time      0.0004
    --------------------------------------------
      LOOP:  cpu time      1.6847: real time      1.7529

 eigenvalue-minimisations  :  3800
 total energy-change (2. order) : 0.5852418E+03  (-0.2767255E+04)
 number of electron      62.0000000 magnetization 
 augmentation part       62.0000000 magnetization 

 Free energy of the ion-electron system (eV)
  ---------------------------------------------------
  alpha Z        PSCENC =       146.42802824
  Ewald energy   TEWEN  =     -4073.84861287
  -Hartree energ DENC   =     -1913.88535575
  -exchange      EXHF   =         0.00000000
  -V(xc)+E(xc)   XCENC  =       189.71025673
  PAW double counting   =      5087.04612586    -5233.23548032
  entropy T*S    EENTRO =        -0.00204855
  eigenvalues    EBANDS =       373.25986013
  atomic energy  EATOM  =      6009.76902234
  Solvation  Ediel_sol  =         0.00000000
  ext. energy  EPLUGINS =         0.00000000
  ---------------------------------------------------
  free energy    TOTEN  =       585.24179581 eV

  energy without entropy =      585.24384436  energy(sigma->0) =      585.24282009


--------------------------------------------------------------------------------------------------------




--------------------------------------- Iteration      1(   2)  ---------------------------------------


     EDDAV:  cpu time      1.6096: real time      1.6494
       DOS:  cpu time      0.0011: real time      0.0013
    --------------------------------------------
      LOOP:  cpu time      1.6107: real time      1.6507

 eigenvalue-minimisations  :  3818
 total energy-change (2. order) :-0.5248812E+03  (-0.5076273E+03)
 number of electron      62.0000000 magnetization 
 augmentation part       62.0000000 magnetization 

 Free energy of the ion-electron system (eV)
  ---------------------------------------------------
  alpha Z        PSCENC =       146.42802824
  Ewald energy   TEWEN  =     -4073.84861287
  -Hartree energ DENC   =     -1913.88535575
  -exchange      EXHF   =         0.00000000
  -V(xc)+E(xc)   XCENC  =       189.71025673
  PAW double counting   =      5087.04612586    -5233.23548032
  entropy T*S    EENTRO =        -0.00044786
  eigenvalues    EBANDS =      -151.62291607
  atomic energy  EATOM  =      6009.76902234
  Solvation  Ediel_sol  =         0.00000000
  ext. energy  EPLUGINS =         0.00000000
  ---------------------------------------------------
  free energy    TOTEN  =        60.36062029 eV

  energy without entropy =       60.36106815  energy(sigma->0) =       60.36084422


--------------------------------------------------------------------------------------------------------




--------------------------------------- Iteration      1(   3)  ---------------------------------------


     EDDAV:  cpu time      1.8202: real time      1.8629
       DOS:  cpu time      0.0003: real time      0.0003
    --------------------------------------------
      LOOP:  cpu time      1.8205: real time      1.8632

 eigenvalue-minimisations  :  4714
 total energy-change (2. order) :-0.8383121E+02  (-0.8139635E+02)
 number of electron      62.0000000 magnetization 
 augmentation part       62.0000000 magnetization 

 Free energy of the ion-electron system (eV)
  ---------------------------------------------------
  alpha Z        PSCENC =       146.42802824
  Ewald energy   TEWEN  =     -4073.84861287
  -Hartree energ DENC   =     -1913.88535575
  -exchange      EXHF   =         0.00000000
  -V(xc)+E(xc)   XCENC  =       189.71025673
  PAW double counting   =      5087.04612586    -5233.23548032
  entropy T*S    EENTRO =        -0.00000000
  eigenvalues    EBANDS =      -235.45457714
  atomic energy  EATOM  =      6009.76902234
  Solvation  Ediel_sol  =         0.00000000
  ext. energy  EPLUGINS =         0.00000000
  ---------------------------------------------------
  free energy    TOTEN  =       -23.47059291 eV

  energy without entropy =      -23.47059291  energy(sigma->0) =      -23.47059291


--------------------------------------------------------------------------------------------------------




--------------------------------------- Iteration      1(   4)  ---------------------------------------


     EDDAV:  cpu time      1.8072: real time      1.8759
       DOS:  cpu time      0.0005: real time      0.0005
    --------------------------------------------
      LOOP:  cpu time      1.8076: real time      1.8764

 eigenvalue-minimisations  :  4604
 total energy-change (2. order) :-0.4739252E+01  (-0.4709056E+01)
 number of electron      62.0000000 magnetization 
 augmentation part       62.0000000 magnetization 

 Free energy of the ion-electron system (eV)
  ---------------------------------------------------
  alpha Z        PSCENC =       146.42802824
  Ewald energy   TEWEN  =     -4073.84861287
  -Hartree energ DENC   =     -1913.88535575
  -exchange      EXHF   =         0.00000000
  -V(xc)+E(xc)   XCENC  =       189.71025673
  PAW double counting   =      5087.04612586    -5233.23548032
  entropy T*S    EENTRO =        -0.00000000
  eigenvalues    EBANDS =      -240.19382959
  atomic energy  EATOM  =      6009.76902234
  Solvation  Ediel_sol  =         0.00000000
  ext. energy  EPLUGINS =         0.00000000
  ---------------------------------------------------
  free energy    TOTEN  =       -28.20984536 eV

  energy without entropy =      -28.20984536  energy(sigma->0) =      -28.20984536


--------------------------------------------------------------------------------------------------------




--------------------------------------- Iteration      1(   5)  ---------------------------------------


     EDDAV:  cpu time      2.4393: real time      2.6154
       DOS:  cpu time      0.0003: real time      0.0003
    CHARGE:  cpu time      0.1544: real time      0.1600
    MIXING:  cpu time      0.0029: real time      0.0031
    --------------------------------------------
      LOOP:  cpu time      2.5970: real time      2.7788

 eigenvalue-minimisations  :  5622
 total energy-change (2. order) :-0.1952190E+00  (-0.1951058E+00)
 number of electron      61.9999992 magnetization 
 augmentation part       18.7095509 magnetization 

 Broyden mixing:
  rms(total) = 0.13394E+01    rms(broyden)= 0.13394E+01
  rms(prec ) = 0.14588E+01
  weight for this iteration     100.00

 Free energy of the ion-electron system (eV)
  ---------------------------------------------------
  alpha Z        PSCENC =       146.42802824
  Ewald energy   TEWEN  =     -4073.84861287
  -Hartree energ DENC   =     -1913.88535575
  -exchange      EXHF   =         0.00000000
  -V(xc)+E(xc)   XCENC  =       189.71025673
  PAW double counting   =      5087.04612586    -5233.23548032
  entropy T*S    EENTRO =        -0.00000000
  eigenvalues    EBANDS =      -240.38904858
  atomic energy  EATOM  =      6009.76902234
  Solvation  Ediel_sol  =         0.00000000
  ext. energy  EPLUGINS =         0.00000000
  ---------------------------------------------------
  free energy    TOTEN  =       -28.40506435 eV

  energy without entropy =      -28.40506435  energy(sigma->0) =      -28.40506435


--------------------------------------------------------------------------------------------------------




--------------------------------------- Iteration      1(   6)  ---------------------------------------


    POTLOK:  cpu time      0.0214: real time      0.0238
    SETDIJ:  cpu time      0.0406: real time      0.0449
     EDDAV:  cpu time      2.4199: real time      2.5450
       DOS:  cpu time      0.0004: real time      0.0004
    CHARGE:  cpu time      0.1279: real time      0.1290
    MIXING:  cpu time      0.0007: real time      0.0009
    --------------------------------------------
      LOOP:  cpu time      2.6108: real time      2.7440

 eigenvalue-minimisations  :  6096
 total energy-change (2. order) : 0.1743192E+01  (-0.3295648E+00)
 number of electron      61.9999992 magnetization 
 augmentation part       18.8901679 magnetization 

 Broyden mixing:
  rms(total) = 0.96130E+00    rms(broyden)= 0.96130E+00
  rms(prec ) = 0.98680E+00
  weight for this iteration     100.00

 eigenvalues of (default mixing * dielectric matrix)
  average eigenvalue GAMMA=   2.2500
  2.2500

 Free energy of the ion-electron system (eV)
  ---------------------------------------------------
  alpha Z        PSCENC =       146.42802824
  Ewald energy   TEWEN  =     -4073.84861287
  -Hartree energ DENC   =     -1901.39757183
  -exchange      EXHF   =         0.00000000
  -V(xc)+E(xc)   XCENC  =       190.19719361
  PAW double counting   =      6117.74368360    -6259.02702716
  entropy T*S    EENTRO =        -0.00000000
  eigenvalues    EBANDS =      -256.52658841
  atomic energy  EATOM  =      6009.76902234
  Solvation  Ediel_sol  =         0.00000000
  ext. energy  EPLUGINS =         0.00000000
  ---------------------------------------------------
  free energy    TOTEN  =       -26.66187248 eV

  energy without entropy =      -26.66187248  energy(sigma->0) =      -26.66187248


--------------------------------------------------------------------------------------------------------




--------------------------------------- Iteration      1(   7)  ---------------------------------------


    POTLOK:  cpu time      0.0172: real time      0.0173
    SETDIJ:  cpu time      0.0343: real time      0.0346
     EDDAV:  cpu time      2.1101: real time      2.1935
       DOS:  cpu time      0.0005: real time      0.0004
    CHARGE:  cpu time      0.1261: real time      0.1268
    MIXING:  cpu time      0.0006: real time      0.0009
    --------------------------------------------
      LOOP:  cpu time      2.2888: real time      2.3735

 eigenvalue-minimisations  :  5344
 total energy-change (2. order) :-0.2248881E-01  (-0.3196376E+00)
 number of electron      61.9999992 magnetization 
 augmentation part       18.9301950 magnetization 

 Broyden mixing:
  rms(total) = 0.29318E+00    rms(broyden)= 0.29318E+00
  rms(prec ) = 0.31291E+00
  weight for this iteration     100.00

 eigenvalues of (default mixing * dielectric matrix)
  average eigenvalue GAMMA=   1.6514
  1.1280  2.1747

 Free energy of the ion-electron system (eV)
  ---------------------------------------------------
  alpha Z        PSCENC =       146.42802824
  Ewald energy   TEWEN  =     -4073.84861287
  -Hartree energ DENC   =     -1902.50636916
  -exchange      EXHF   =         0.00000000
  -V(xc)+E(xc)   XCENC  =       190.98806590
  PAW double counting   =      7750.62648778    -7894.92310803
  entropy T*S    EENTRO =        -0.00000295
  eigenvalues    EBANDS =      -253.21787253
  atomic energy  EATOM  =      6009.76902234
  Solvation  Ediel_sol  =         0.00000000
  ext. energy  EPLUGINS =         0.00000000
  ---------------------------------------------------
  free energy    TOTEN  =       -26.68436128 eV

  energy without entropy =      -26.68435833  energy(sigma->0) =      -26.68435981


--------------------------------------------------------------------------------------------------------




--------------------------------------- Iteration      1(   8)  ---------------------------------------


    POTLOK:  cpu time      0.0191: real time      0.0192
    SETDIJ:  cpu time      0.0379: real time      0.0399
     EDDAV:  cpu time      2.0166: real time      2.0677
       DOS:  cpu time      0.0004: real time      0.0004
    CHARGE:  cpu time      0.1372: real time      0.1487
    MIXING:  cpu time      0.0014: real time      0.0014
    --------------------------------------------
      LOOP:  cpu time      2.2127: real time      2.2774

 eigenvalue-minimisations  :  5524
 total energy-change (2. order) : 0.4755774E-01  (-0.4248158E-01)
 number of electron      61.9999992 magnetization 
 augmentation part       18.9055743 magnetization 

 Broyden mixing:
  rms(total) = 0.20551E+00    rms(broyden)= 0.20551E+00
  rms(prec ) = 0.20861E+00
  weight for this iteration     100.00

 eigenvalues of (default mixing * dielectric matrix)
  average eigenvalue GAMMA=   1.4097
  2.1271  1.4244  0.6777

 Free energy of the ion-electron system (eV)
  ---------------------------------------------------
  alpha Z        PSCENC =       146.42802824
  Ewald energy   TEWEN  =     -4073.84861287
  -Hartree energ DENC   =     -1902.10033339
  -exchange      EXHF   =         0.00000000
  -V(xc)+E(xc)   XCENC  =       190.80239089
  PAW double counting   =      8134.02552489    -8279.35172025
  entropy T*S    EENTRO =        -0.00000000
  eigenvalues    EBANDS =      -252.36110338
  atomic energy  EATOM  =      6009.76902234
  Solvation  Ediel_sol  =         0.00000000
  ext. energy  EPLUGINS =         0.00000000
  ---------------------------------------------------
  free energy    TOTEN  =       -26.63680354 eV

  energy without entropy =      -26.63680354  energy(sigma->0) =      -26.63680354


--------------------------------------------------------------------------------------------------------




--------------------------------------- Iteration      1(   9)  ---------------------------------------


    POTLOK:  cpu time      0.0257: real time      0.0382
    SETDIJ:  cpu time      0.0387: real time      0.0462
     EDDAV:  cpu time      1.8095: real time      1.8593
       DOS:  cpu time      0.0004: real time      0.0004
    CHARGE:  cpu time      0.1214: real time      0.1224
    MIXING:  cpu time      0.0005: real time      0.0005
    --------------------------------------------
      LOOP:  cpu time      1.9962: real time      2.0671

 eigenvalue-minimisations  :  4800
 total energy-change (2. order) :-0.2284976E-02  (-0.5413710E-02)
 number of electron      61.9999992 magnetization 
 augmentation part       18.9011929 magnetization 

 Broyden mixing:
  rms(total) = 0.88680E-01    rms(broyden)= 0.88680E-01
  rms(prec ) = 0.91711E-01
  weight for this iteration     100.00

 eigenvalues of (default mixing * dielectric matrix)
  average eigenvalue GAMMA=   1.3971
  2.0943  1.1857  1.1541  1.1541

 Free energy of the ion-electron system (eV)
  ---------------------------------------------------
  alpha Z        PSCENC =       146.42802824
  Ewald energy   TEWEN  =     -4073.84861287
  -Hartree energ DENC   =     -1901.40141291
  -exchange      EXHF   =         0.00000000
  -V(xc)+E(xc)   XCENC  =       190.77664571
  PAW double counting   =      8253.02726267    -8398.46105437
  entropy T*S    EENTRO =        -0.00000000
  eigenvalues    EBANDS =      -252.92896732
  atomic energy  EATOM  =      6009.76902234
  Solvation  Ediel_sol  =         0.00000000
  ext. energy  EPLUGINS =         0.00000000
  ---------------------------------------------------
  free energy    TOTEN  =       -26.63908852 eV

  energy without entropy =      -26.63908852  energy(sigma->0) =      -26.63908852


--------------------------------------------------------------------------------------------------------




--------------------------------------- Iteration      1(  10)  ---------------------------------------


    POTLOK:  cpu time      0.0164: real time      0.0166
    SETDIJ:  cpu time      0.0372: real time      0.0373
     EDDAV:  cpu time      1.8101: real time      1.8361
       DOS:  cpu time      0.0004: real time      0.0004
    CHARGE:  cpu time      0.1209: real time      0.1217
    MIXING:  cpu time      0.0006: real time      0.0006
    --------------------------------------------
      LOOP:  cpu time      1.9855: real time      2.0127

 eigenvalue-minimisations  :  5160
 total energy-change (2. order) : 0.7031252E-03  (-0.6060183E-03)
 number of electron      61.9999992 magnetization 
 augmentation part       18.9026519 magnetization 

 Broyden mixing:
  rms(total) = 0.61542E-01    rms(broyden)= 0.61542E-01
  rms(prec ) = 0.62529E-01
  weight for this iteration     100.00

 eigenvalues of (default mixing * dielectric matrix)
  average eigenvalue GAMMA=   1.6205
  2.4752  2.4752  1.2052  1.1127  0.8345

 Free energy of the ion-electron system (eV)
  ---------------------------------------------------
  alpha Z        PSCENC =       146.42802824
  Ewald energy   TEWEN  =     -4073.84861287
  -Hartree energ DENC   =     -1901.43591298
  -exchange      EXHF   =         0.00000000
  -V(xc)+E(xc)   XCENC  =       190.81958013
  PAW double counting   =      8224.45620136    -8369.92726002
  entropy T*S    EENTRO =        -0.00000001
  eigenvalues    EBANDS =      -252.89943156
  atomic energy  EATOM  =      6009.76902234
  Solvation  Ediel_sol  =         0.00000000
  ext. energy  EPLUGINS =         0.00000000
  ---------------------------------------------------
  free energy    TOTEN  =       -26.63838539 eV

  energy without entropy =      -26.63838538  energy(sigma->0) =      -26.63838539


--------------------------------------------------------------------------------------------------------




--------------------------------------- Iteration      1(  11)  ---------------------------------------


    POTLOK:  cpu time      0.0159: real time      0.0160
    SETDIJ:  cpu time      0.0330: real time      0.0330
     EDDAV:  cpu time      1.7481: real time      1.7849
       DOS:  cpu time      0.0004: real time      0.0004
    CHARGE:  cpu time      0.1314: real time      0.1331
    MIXING:  cpu time      0.0006: real time      0.0006
    --------------------------------------------
      LOOP:  cpu time      1.9296: real time      1.9680

 eigenvalue-minimisations  :  4672
 total energy-change (2. order) :-0.2283963E-03  (-0.2132518E-03)
 number of electron      61.9999992 magnetization 
 augmentation part       18.9029472 magnetization 

 Broyden mixing:
  rms(total) = 0.14424E-01    rms(broyden)= 0.14424E-01
  rms(prec ) = 0.15125E-01
  weight for this iteration     100.00

 eigenvalues of (default mixing * dielectric matrix)
  average eigenvalue GAMMA=   1.5384
  2.5767  2.5767  1.1441  1.1441  0.8943  0.8943

 Free energy of the ion-electron system (eV)
  ---------------------------------------------------
  alpha Z        PSCENC =       146.42802824
  Ewald energy   TEWEN  =     -4073.84861287
  -Hartree energ DENC   =     -1901.39242818
  -exchange      EXHF   =         0.00000000
  -V(xc)+E(xc)   XCENC  =       190.83035607
  PAW double counting   =      8196.63163228    -8342.15548532
  entropy T*S    EENTRO =        -0.00000005
  eigenvalues    EBANDS =      -252.90112630
  atomic energy  EATOM  =      6009.76902234
  Solvation  Ediel_sol  =         0.00000000
  ext. energy  EPLUGINS =         0.00000000
  ---------------------------------------------------
  free energy    TOTEN  =       -26.63861379 eV

  energy without entropy =      -26.63861374  energy(sigma->0) =      -26.63861377


--------------------------------------------------------------------------------------------------------




--------------------------------------- Iteration      1(  12)  ---------------------------------------


    POTLOK:  cpu time      0.0176: real time      0.0179
    SETDIJ:  cpu time      0.0344: real time      0.0355
     EDDAV:  cpu time      1.7255: real time      1.7611
       DOS:  cpu time      0.0004: real time      0.0004
    CHARGE:  cpu time      0.1249: real time      0.1260
    MIXING:  cpu time      0.0005: real time      0.0005
    --------------------------------------------
      LOOP:  cpu time      1.9034: real time      1.9414

 eigenvalue-minimisations  :  4920
 total energy-change (2. order) : 0.4739339E-04  (-0.6648175E-04)
 number of electron      61.9999992 magnetization 
 augmentation part       18.9017331 magnetization 

 Broyden mixing:
  rms(total) = 0.84581E-02    rms(broyden)= 0.84580E-02
  rms(prec ) = 0.86477E-02
  weight for this iteration     100.00

 eigenvalues of (default mixing * dielectric matrix)
  average eigenvalue GAMMA=   1.4238
  2.6181  2.6181  1.0980  1.0980  0.9148  0.9148  0.7046

 Free energy of the ion-electron system (eV)
  ---------------------------------------------------
  alpha Z        PSCENC =       146.42802824
  Ewald energy   TEWEN  =     -4073.84861287
  -Hartree energ DENC   =     -1901.41546361
  -exchange      EXHF   =         0.00000000
  -V(xc)+E(xc)   XCENC  =       190.82584062
  PAW double counting   =      8194.95995571    -8340.50683841
  entropy T*S    EENTRO =        -0.00000004
  eigenvalues    EBANDS =      -252.85049837
  atomic energy  EATOM  =      6009.76902234
  Solvation  Ediel_sol  =         0.00000000
  ext. energy  EPLUGINS =         0.00000000
  ---------------------------------------------------
  free energy    TOTEN  =       -26.63856640 eV

  energy without entropy =      -26.63856636  energy(sigma->0) =      -26.63856638


--------------------------------------------------------------------------------------------------------




--------------------------------------- Iteration      1(  13)  ---------------------------------------


    POTLOK:  cpu time      0.0187: real time      0.0197
    SETDIJ:  cpu time      0.0363: real time      0.0370
     EDDAV:  cpu time      1.9704: real time      2.1183
       DOS:  cpu time      0.0004: real time      0.0005
    CHARGE:  cpu time      0.1313: real time      0.1334
    MIXING:  cpu time      0.0005: real time      0.0005
    --------------------------------------------
      LOOP:  cpu time      2.1576: real time      2.3094

 eigenvalue-minimisations  :  5056
 total energy-change (2. order) :-0.5117756E-05  (-0.6899716E-05)
 number of electron      61.9999992 magnetization 
 augmentation part       18.9016433 magnetization 

 Broyden mixing:
  rms(total) = 0.51786E-02    rms(broyden)= 0.51786E-02
  rms(prec ) = 0.53199E-02
  weight for this iteration     100.00

 eigenvalues of (default mixing * dielectric matrix)
  average eigenvalue GAMMA=   1.5284
  3.0947  2.4567  0.8321  0.9892  1.2337  1.2337  1.1934  1.1934

 Free energy of the ion-electron system (eV)
  ---------------------------------------------------
  alpha Z        PSCENC =       146.42802824
  Ewald energy   TEWEN  =     -4073.84861287
  -Hartree energ DENC   =     -1901.42923118
  -exchange      EXHF   =         0.00000000
  -V(xc)+E(xc)   XCENC  =       190.82723538
  PAW double counting   =      8188.81673210    -8334.36063026
  entropy T*S    EENTRO =        -0.00000004
  eigenvalues    EBANDS =      -252.84111521
  atomic energy  EATOM  =      6009.76902234
  Solvation  Ediel_sol  =         0.00000000
  ext. energy  EPLUGINS =         0.00000000
  ---------------------------------------------------
  free energy    TOTEN  =       -26.63857151 eV

  energy without entropy =      -26.63857148  energy(sigma->0) =      -26.63857149


--------------------------------------------------------------------------------------------------------




--------------------------------------- Iteration      1(  14)  ---------------------------------------


    POTLOK:  cpu time      0.0165: real time      0.0165
    SETDIJ:  cpu time      0.0383: real time      0.0387
     EDDAV:  cpu time      1.9988: real time      2.1117
       DOS:  cpu time      0.0004: real time      0.0004
    CHARGE:  cpu time      0.1573: real time      0.1664
    MIXING:  cpu time      0.0013: real time      0.0013
    --------------------------------------------
      LOOP:  cpu time      2.2127: real time      2.3350

 eigenvalue-minimisations  :  4656
 total energy-change (2. order) :-0.4679268E-06  (-0.2351195E-05)
 number of electron      61.9999992 magnetization 
 augmentation part       18.9013191 magnetization 

 Broyden mixing:
  rms(total) = 0.21616E-02    rms(broyden)= 0.21616E-02
  rms(prec ) = 0.22175E-02
  weight for this iteration     100.00

 eigenvalues of (default mixing * dielectric matrix)
  average eigenvalue GAMMA=   1.5095
  3.2574  2.0328  2.0328  1.2131  1.2131  1.1285  1.1285  0.7897  0.7897

 Free energy of the ion-electron system (eV)
  ---------------------------------------------------
  alpha Z        PSCENC =       146.42802824
  Ewald energy   TEWEN  =     -4073.84861287
  -Hartree energ DENC   =     -1901.44834986
  -exchange      EXHF   =         0.00000000
  -V(xc)+E(xc)   XCENC  =       190.82764907
  PAW double counting   =      8185.11927643    -8330.67405539
  entropy T*S    EENTRO =        -0.00000004
  eigenvalues    EBANDS =      -252.81152989
  atomic energy  EATOM  =      6009.76902234
  Solvation  Ediel_sol  =         0.00000000
  ext. energy  EPLUGINS =         0.00000000
  ---------------------------------------------------
  free energy    TOTEN  =       -26.63857198 eV

  energy without entropy =      -26.63857194  energy(sigma->0) =      -26.63857196


--------------------------------------------------------------------------------------------------------




--------------------------------------- Iteration      1(  15)  ---------------------------------------


    POTLOK:  cpu time      0.0246: real time      0.0279
    SETDIJ:  cpu time      0.0391: real time      0.0432
     EDDAV:  cpu time      1.9455: real time      2.0535
       DOS:  cpu time      0.0004: real time      0.0004
    --------------------------------------------
      LOOP:  cpu time      2.0097: real time      2.1251

 eigenvalue-minimisations  :  4488
 total energy-change (2. order) :-0.3573432E-06  (-0.6222530E-06)
 number of electron      61.9999992 magnetization 
 augmentation part       18.9013191 magnetization 

 Free energy of the ion-electron system (eV)
  ---------------------------------------------------
  alpha Z        PSCENC =       146.42802824
  Ewald energy   TEWEN  =     -4073.84861287
  -Hartree energ DENC   =     -1901.44843887
  -exchange      EXHF   =         0.00000000
  -V(xc)+E(xc)   XCENC  =       190.82797280
  PAW double counting   =      8185.41861097    -8330.97241397
  entropy T*S    EENTRO =        -0.00000004
  eigenvalues    EBANDS =      -252.81274093
  atomic energy  EATOM  =      6009.76902234
  Solvation  Ediel_sol  =         0.00000000
  ext. energy  EPLUGINS =         0.00000000
  ---------------------------------------------------
  free energy    TOTEN  =       -26.63857234 eV

  energy without entropy =      -26.63857230  energy(sigma->0) =      -26.63857232


--------------------------------------------------------------------------------------------------------




 average (electrostatic) potential at core
  the test charge radii are     0.9698  1.0774  0.9521
  (the norm of the test charge is              1.0000)
       1 -87.6320       2 -87.1279       3 -86.8684       4 -85.5455       5 -97.3457
       6 -96.8959       7 -33.6243



 E-fermi :   4.6929     XC(G=0):  -9.4650     alpha+bet :-10.1608

 val. band max:        4.5341445002   @ k =   0.0000   0.0000   0.5000
 cond. band min:       4.8360097746   @ k =   0.0000   0.0000   0.0000
 fundamental gap:      0.3018652745
 Fermi energy:         4.6929256111

 k-point     1 :       0.0000    0.0000    0.0000
  band No.  band energies     occupation 
      1     -10.9235      2.00000
      2     -10.7146      2.00000
      3     -10.7146      2.00000
      4     -10.5443      2.00000
      5     -10.5443      2.00000
      6     -10.2310      2.00000
      7     -10.2310      2.00000
      8     -10.2172      2.00000
      9     -10.0843      2.00000
     10     -10.0843      2.00000
     11      -9.6648      2.00000
     12      -9.0835      2.00000
     13      -8.1590      2.00000
     14      -7.3750      2.00000
     15      -2.0015      2.00000
     16      -1.5425      2.00000
     17      -1.5425      2.00000
     18      -1.3358      2.00000
     19      -1.0968      2.00000
     20      -1.0968      2.00000
     21       0.4962      2.00000
     22       1.4110      2.00000
     23       2.1621      2.00000
     24       2.1621      2.00000
     25       2.7469      2.00000
     26       2.7469      2.00000
     27       3.0409      2.00000
     28       3.0409      2.00000
     29       3.9984      2.00000
     30       4.5328      1.99999
     31       4.5328      1.99999
     32       4.8360      0.00005
     33       6.3920      0.00000
     34       7.2552      0.00000
     35       7.9451      0.00000
     36       9.0517      0.00000
     37       9.0957      0.00000
     38       9.0958      0.00000

 k-point     2 :       0.1000    0.0000    0.0000
  band No.  band energies     occupation 
      1     -10.9340      2.00000
      2     -10.7440      2.00000
      3     -10.7056      2.00000
      4     -10.5527      2.00000
      5     -10.5435      2.00000
      6     -10.2852      2.00000
      7     -10.2230      2.00000
      8     -10.1894      2.00000
      9     -10.0926      2.00000
     10     -10.0829      2.00000
     11      -9.5460      2.00000
     12      -9.0045      2.00000
     13      -8.0660      2.00000
     14      -7.3203      2.00000
     15      -1.9600      2.00000
     16      -1.5411      2.00000
     17      -1.5217      2.00000
     18      -1.3245      2.00000
     19      -1.1083      2.00000
     20      -1.0970      2.00000
     21       0.3859      2.00000
     22       1.3872      2.00000
     23       1.7111      2.00000
     24       2.0343      2.00000
     25       2.2417      2.00000
     26       2.5327      2.00000
     27       2.7618      2.00000
     28       3.1074      2.00000
     29       3.8557      2.00000
     30       4.1256      2.00000
     31       4.3976      2.00000
     32       5.3765      0.00000
     33       6.6505      0.00000
     34       7.6877      0.00000
     35       8.2489      0.00000
     36       8.6729      0.00000
     37       9.2281      0.00000
     38       9.2577      0.00000

 k-point     3 :       0.2000    0.0000    0.0000
  band No.  band energies     occupation 
      1     -10.9820      2.00000
      2     -10.7833      2.00000
      3     -10.6839      2.00000
      4     -10.5675      2.00000
      5     -10.5394      2.00000
      6     -10.3923      2.00000
      7     -10.2050      2.00000
      8     -10.1501      2.00000
      9     -10.1036      2.00000
     10     -10.0764      2.00000
     11      -9.2429      2.00000
     12      -8.7759      2.00000
     13      -7.8337      2.00000
     14      -7.1753      2.00000
     15      -1.8862      2.00000
     16      -1.5246      2.00000
     17      -1.4666      2.00000
     18      -1.2976      2.00000
     19      -1.1387      2.00000
     20      -1.0958      2.00000
     21      -0.0983      2.00000
     22       0.7648      2.00000
     23       1.2677      2.00000
     24       1.6984      2.00000
     25       1.7268      2.00000
     26       2.1398      2.00000
     27       2.1567      2.00000
     28       3.0268      2.00000
     29       3.1130      2.00000
     30       4.0760      2.00000
     31       4.0976      2.00000
     32       5.9470      0.00000
     33       6.7201      0.00000
     34       7.8128      0.00000
     35       8.4806      0.00000
     36       8.9150      0.00000
     37       9.5807      0.00000
     38       9.5977      0.00000

 k-point     4 :       0.3000    0.0000    0.0000
  band No.  band energies     occupation 
      1     -11.0571      2.00000
      2     -10.8001      2.00000
      3     -10.6616      2.00000
      4     -10.5825      2.00000
      5     -10.5293      2.00000
      6     -10.4953      2.00000
      7     -10.1898      2.00000
      8     -10.1373      2.00000
      9     -10.0891      2.00000
     10     -10.0607      2.00000
     11      -8.8405      2.00000
     12      -8.4466      2.00000
     13      -7.5648      2.00000
     14      -6.9941      2.00000
     15      -1.9491      2.00000
     16      -1.4794      2.00000
     17      -1.3985      2.00000
     18      -1.3178      2.00000
     19      -1.1760      2.00000
     20      -1.0887      2.00000
     21      -0.8440      2.00000
     22       0.1417      2.00000
     23       0.6942      2.00000
     24       1.2198      2.00000
     25       1.3886      2.00000
     26       1.7969      2.00000
     27       1.8227      2.00000
     28       2.5838      2.00000
     29       3.0339      2.00000
     30       3.7341      2.00000
     31       3.9897      2.00000
     32       6.0151      0.00000
     33       6.3720      0.00000
     34       7.3757      0.00000
     35       8.6644      0.00000
     36       9.0795      0.00000
     37       9.7553      0.00000
     38       9.8295      0.00000

 k-point     5 :       0.4000    0.0000    0.0000
  band No.  band energies     occupation 
      1     -11.1162      2.00000
      2     -10.8150      2.00000
      3     -10.6485      2.00000
      4     -10.5981      2.00000
      5     -10.5513      2.00000
      6     -10.5158      2.00000
      7     -10.1834      2.00000
      8     -10.1447      2.00000
      9     -10.0641      2.00000
     10     -10.0417      2.00000
     11      -8.4452      2.00000
     12      -8.1398      2.00000
     13      -7.3717      2.00000
     14      -6.8483      2.00000
     15      -2.2569      2.00000
     16      -1.7039      2.00000
     17      -1.3983      2.00000
     18      -1.3465      2.00000
     19      -1.2149      2.00000
     20      -1.0747      2.00000
     21      -1.0239      2.00000
     22      -0.1664      2.00000
     23       0.3019      2.00000
     24       0.6089      2.00000
     25       1.1406      2.00000
     26       1.5452      2.00000
     27       1.7179      2.00000
     28       2.5154      2.00000
     29       2.9299      2.00000
     30       3.5024      2.00000
     31       3.9294      2.00000
     32       5.6799      0.00000
     33       6.2361      0.00000
     34       6.9722      0.00000
     35       8.7475      0.00000
     36       8.8896      0.00000
     37       9.5525      0.00000
     38       9.7507      0.00000

 k-point     6 :       0.5000    0.0000    0.0000
  band No.  band energies     occupation 
      1     -11.1378      2.00000
      2     -10.8235      2.00000
      3     -10.6447      2.00000
      4     -10.6070      2.00000
      5     -10.5639      2.00000
      6     -10.5093      2.00000
      7     -10.1821      2.00000
      8     -10.1482      2.00000
      9     -10.0546      2.00000
     10     -10.0332      2.00000
     11      -8.2551      2.00000
     12      -8.0198      2.00000
     13      -7.3121      2.00000
     14      -6.7924      2.00000
     15      -2.4497      2.00000
     16      -1.9162      2.00000
     17      -1.3811      2.00000
     18      -1.3282      2.00000
     19      -1.2361      2.00000
     20      -1.0663      2.00000
     21      -0.9005      2.00000
     22      -0.3518      2.00000
     23       0.0654      2.00000
     24       0.5443      2.00000
     25       1.0506      2.00000
     26       1.4553      2.00000
     27       1.6182      2.00000
     28       2.5252      2.00000
     29       2.8803      2.00000
     30       3.4258      2.00000
     31       3.9342      2.00000
     32       5.5260      0.00000
     33       6.1834      0.00000
     34       6.8103      0.00000
     35       8.7140      0.00000
     36       8.8982      0.00000
     37       9.3704      0.00000
     38       9.7265      0.00000

 k-point     7 :       0.1000    0.1000    0.0000
  band No.  band energies     occupation 
      1     -10.9641      2.00000
      2     -10.7755      2.00000
      3     -10.6909      2.00000
      4     -10.5627      2.00000
      5     -10.5419      2.00000
      6     -10.3545      2.00000
      7     -10.2250      2.00000
      8     -10.1533      2.00000
      9     -10.1022      2.00000
     10     -10.0791      2.00000
     11      -9.3360      2.00000
     12      -8.8489      2.00000
     13      -7.9047      2.00000
     14      -7.2204      2.00000
     15      -1.9008      2.00000
     16      -1.5318      2.00000
     17      -1.4836      2.00000
     18      -1.3051      2.00000
     19      -1.1284      2.00000
     20      -1.0971      2.00000
     21       0.0920      2.00000
     22       1.0154      2.00000
     23       1.4032      2.00000
     24       1.7401      2.00000
     25       1.8643      2.00000
     26       1.9256      2.00000
     27       2.7545      2.00000
     28       2.8643      2.00000
     29       3.3024      2.00000
     30       4.0624      2.00000
     31       4.1596      2.00000
     32       5.8664      0.00000
     33       6.8453      0.00000
     34       8.0573      0.00000
     35       8.4315      0.00000
     36       8.7428      0.00000
     37       9.1428      0.00000
     38       9.7137      0.00000

 k-point     8 :       0.2000    0.1000    0.0000
  band No.  band energies     occupation 
      1     -11.0280      2.00000
      2     -10.7946      2.00000
      3     -10.6710      2.00000
      4     -10.5743      2.00000
      5     -10.5368      2.00000
      6     -10.4491      2.00000
      7     -10.2224      2.00000
      8     -10.1255      2.00000
      9     -10.1050      2.00000
     10     -10.0658      2.00000
     11      -8.9813      2.00000
     12      -8.5615      2.00000
     13      -7.6594      2.00000
     14      -7.0570      2.00000
     15      -1.8858      2.00000
     16      -1.4945      2.00000
     17      -1.4218      2.00000
     18      -1.2900      2.00000
     19      -1.1621      2.00000
     20      -1.0928      2.00000
     21      -0.5417      2.00000
     22       0.3903      2.00000
     23       0.8672      2.00000
     24       1.2981      2.00000
     25       1.4201      2.00000
     26       1.7023      2.00000
     27       2.2303      2.00000
     28       2.6550      2.00000
     29       2.9470      2.00000
     30       3.6381      2.00000
     31       4.0741      2.00000
     32       6.2196      0.00000
     33       6.6648      0.00000
     34       7.8393      0.00000
     35       8.7988      0.00000
     36       9.0987      0.00000
     37       9.4732      0.00000
     38       9.8855      0.00000

 k-point     9 :       0.3000    0.1000    0.0000
  band No.  band energies     occupation 
      1     -11.0934      2.00000
      2     -10.8050      2.00000
      3     -10.6564      2.00000
      4     -10.5858      2.00000
      5     -10.5314      2.00000
      6     -10.5188      2.00000
      7     -10.2176      2.00000
      8     -10.1324      2.00000
      9     -10.0813      2.00000
     10     -10.0483      2.00000
     11      -8.5675      2.00000
     12      -8.2277      2.00000
     13      -7.4388      2.00000
     14      -6.8939      2.00000
     15      -2.0793      2.00000
     16      -1.5083      2.00000
     17      -1.3958      2.00000
     18      -1.3542      2.00000
     19      -1.1897      2.00000
     20      -1.0867      2.00000
     21      -1.0317      2.00000
     22      -0.0065      2.00000
     23       0.4380      2.00000
     24       0.7208      2.00000
     25       1.0487      2.00000
     26       1.4493      2.00000
     27       1.8970      2.00000
     28       2.4508      2.00000
     29       2.8878      2.00000
     30       3.2883      2.00000
     31       3.9784      2.00000
     32       6.0732      0.00000
     33       6.4689      0.00000
     34       7.4304      0.00000
     35       8.9245      0.00000
     36       9.2848      0.00000
     37       9.4872      0.00000
     38       9.8478      0.00000

 k-point    10 :       0.4000    0.1000    0.0000
  band No.  band energies     occupation 
      1     -11.1317      2.00000
      2     -10.8151      2.00000
      3     -10.6500      2.00000
      4     -10.5969      2.00000
      5     -10.5554      2.00000
      6     -10.5161      2.00000
      7     -10.2157      2.00000
      8     -10.1394      2.00000
      9     -10.0598      2.00000
     10     -10.0415      2.00000
     11      -8.2383      2.00000
     12      -8.0057      2.00000
     13      -7.3323      2.00000
     14      -6.7933      2.00000
     15      -2.3615      2.00000
     16      -1.8468      2.00000
     17      -1.3714      2.00000
     18      -1.3296      2.00000
     19      -1.2244      2.00000
     20      -1.0806      2.00000
     21      -0.9277      2.00000
     22      -0.2576      2.00000
     23       0.1206      2.00000
     24       0.4628      2.00000
     25       0.8528      2.00000
     26       1.2652      2.00000
     27       1.7191      2.00000
     28       2.3350      2.00000
     29       2.9036      2.00000
     30       3.1109      2.00000
     31       3.9476      2.00000
     32       5.8301      0.00000
     33       6.3920      0.00000
     34       7.1551      0.00000
     35       9.0237      0.00000
     36       9.1855      0.00000
     37       9.3719      0.00000
     38       9.6447      0.00000

 k-point    11 :       0.2000    0.2000    0.0000
  band No.  band energies     occupation 
      1     -11.0814      2.00000
      2     -10.7999      2.00000
      3     -10.6619      2.00000
      4     -10.5772      2.00000
      5     -10.5365      2.00000
      6     -10.4953      2.00000
      7     -10.2564      2.00000
      8     -10.1143      2.00000
      9     -10.1017      2.00000
     10     -10.0498      2.00000
     11      -8.6058      2.00000
     12      -8.2540      2.00000
     13      -7.4718      2.00000
     14      -6.9118      2.00000
     15      -1.9940      2.00000
     16      -1.4534      2.00000
     17      -1.3865      2.00000
     18      -1.3278      2.00000
     19      -1.1819      2.00000
     20      -1.0798      2.00000
     21      -0.9784      2.00000
     22       0.1136      2.00000
     23       0.4046      2.00000
     24       0.7962      2.00000
     25       0.8305      2.00000
     26       1.4877      2.00000
     27       2.0214      2.00000
     28       2.3466      2.00000
     29       2.8582      2.00000
     30       3.0025      2.00000
     31       4.0182      2.00000
     32       6.4020      0.00000
     33       6.6693      0.00000
     34       7.9878      0.00000
     35       8.8306      0.00000
     36       9.4214      0.00000
     37       9.6958      0.00000
     38      10.0998      0.00000

 k-point    12 :       0.3000    0.2000    0.0000
  band No.  band energies     occupation 
      1     -11.1213      2.00000
      2     -10.8023      2.00000
      3     -10.6586      2.00000
      4     -10.5783      2.00000
      5     -10.5388      2.00000
      6     -10.5219      2.00000
      7     -10.2815      2.00000
      8     -10.1180      2.00000
      9     -10.0816      2.00000
     10     -10.0466      2.00000
     11      -8.2175      2.00000
     12      -7.9739      2.00000
     13      -7.3688      2.00000
     14      -6.7946      2.00000
     15      -2.2016      2.00000
     16      -1.7104      2.00000
     17      -1.3555      2.00000
     18      -1.3223      2.00000
     19      -1.1982      2.00000
     20      -1.1155      2.00000
     21      -0.9614      2.00000
     22      -0.1065      2.00000
     23       0.0672      2.00000
     24       0.2903      2.00000
     25       0.6494      2.00000
     26       1.2596      2.00000
     27       1.6647      2.00000
     28       2.1053      2.00000
     29       2.5825      2.00000
     30       2.9407      2.00000
     31       3.9499      2.00000
     32       6.3377      0.00000
     33       6.6618      0.00000
     34       7.8609      0.00000
     35       8.7386      0.00000
     36       9.6497      0.00000
     37       9.9665      0.00000
     38      10.2384      0.00000

 k-point    13 :       0.4000    0.2000    0.0000
  band No.  band energies     occupation 
      1     -11.1359      2.00000
      2     -10.8033      2.00000
      3     -10.6581      2.00000
      4     -10.5798      2.00000
      5     -10.5402      2.00000
      6     -10.5288      2.00000
      7     -10.2902      2.00000
      8     -10.1202      2.00000
      9     -10.0602      2.00000
     10     -10.0587      2.00000
     11      -8.0135      2.00000
     12      -7.8742      2.00000
     13      -7.3586      2.00000
     14      -6.7491      2.00000
     15      -2.3132      2.00000
     16      -1.8809      2.00000
     17      -1.3417      2.00000
     18      -1.3182      2.00000
     19      -1.2115      2.00000
     20      -1.0993      2.00000
     21      -0.8236      2.00000
     22      -0.2730      2.00000
     23      -0.0522      2.00000
     24       0.0671      2.00000
     25       0.6592      2.00000
     26       1.1577      2.00000
     27       1.5788      2.00000
     28       1.9243      2.00000
     29       2.4611      2.00000
     30       2.9935      2.00000
     31       3.9234      2.00000
     32       6.2824      0.00000
     33       6.6489      0.00000
     34       7.7709      0.00000
     35       8.6985      0.00000
     36       9.7638      0.00000
     37       9.8941      0.00000
     38      10.2321      0.00000

 k-point    14 :       0.3000    0.3000    0.0000
  band No.  band energies     occupation 
      1     -11.1357      2.00000
      2     -10.7958      2.00000
      3     -10.6625      2.00000
      4     -10.5641      2.00000
      5     -10.5444      2.00000
      6     -10.5198      2.00000
      7     -10.3376      2.00000
      8     -10.0987      2.00000
      9     -10.0814      2.00000
     10     -10.0593      2.00000
     11      -7.9187      2.00000
     12      -7.7965      2.00000
     13      -7.4013      2.00000
     14      -6.7321      2.00000
     15      -2.2390      2.00000
     16      -1.8755      2.00000
     17      -1.3323      2.00000
     18      -1.3158      2.00000
     19      -1.1899      2.00000
     20      -1.1161      2.00000
     21      -0.7955      2.00000
     22      -0.3001      2.00000
     23      -0.1708      2.00000
     24      -0.1304      2.00000
     25       0.7335      2.00000
     26       1.1935      2.00000
     27       1.3630      2.00000
     28       1.7750      2.00000
     29       2.1566      2.00000
     30       3.0375      2.00000
     31       3.8904      2.00000
     32       6.5221      0.00000
     33       6.7556      0.00000
     34       8.0790      0.00000
     35       8.4953      0.00000
     36       9.9144      0.00000
     37      10.2490      0.00000
     38      10.3075      0.00000

 k-point    15 :       0.0000    0.0000    0.2500
  band No.  band energies     occupation 
      1     -10.9235      2.00000
      2     -10.7146      2.00000
      3     -10.7146      2.00000
      4     -10.5443      2.00000
      5     -10.5443      2.00000
      6     -10.2310      2.00000
      7     -10.2310      2.00000
      8     -10.2171      2.00000
      9     -10.0843      2.00000
     10     -10.0843      2.00000
     11      -9.6597      2.00000
     12      -9.0997      2.00000
     13      -8.1313      2.00000
     14      -7.3940      2.00000
     15      -2.0293      2.00000
     16      -1.5425      2.00000
     17      -1.5425      2.00000
     18      -1.2089      2.00000
     19      -1.0968      2.00000
     20      -1.0968      2.00000
     21       0.1627      2.00000
     22       1.8079      2.00000
     23       2.1610      2.00000
     24       2.1610      2.00000
     25       2.7527      2.00000
     26       2.7527      2.00000
     27       3.0356      2.00000
     28       3.0356      2.00000
     29       3.5883      2.00000
     30       4.5335      1.99999
     31       4.5335      1.99999
     32       5.1953      0.00000
     33       6.3016      0.00000
     34       7.2771      0.00000
     35       7.8676      0.00000
     36       9.0717      0.00000
     37       9.0933      0.00000
     38       9.0933      0.00000

 k-point    16 :       0.1000    0.0000    0.2500
  band No.  band energies     occupation 
      1     -10.9341      2.00000
      2     -10.7440      2.00000
      3     -10.7056      2.00000
      4     -10.5527      2.00000
      5     -10.5435      2.00000
      6     -10.2852      2.00000
      7     -10.2230      2.00000
      8     -10.1894      2.00000
      9     -10.0927      2.00000
     10     -10.0829      2.00000
     11      -9.5405      2.00000
     12      -9.0204      2.00000
     13      -8.0392      2.00000
     14      -7.3388      2.00000
     15      -1.9941      2.00000
     16      -1.5416      2.00000
     17      -1.5217      2.00000
     18      -1.1991      2.00000
     19      -1.1052      2.00000
     20      -1.0970      2.00000
     21       0.1246      2.00000
     22       1.5157      2.00000
     23       1.8889      2.00000
     24       2.0323      2.00000
     25       2.2076      2.00000
     26       2.5388      2.00000
     27       2.7191      2.00000
     28       3.1018      2.00000
     29       3.7472      2.00000
     30       4.0860      2.00000
     31       4.3995      2.00000
     32       5.5485      0.00000
     33       6.5681      0.00000
     34       7.7213      0.00000
     35       8.1675      0.00000
     36       8.6869      0.00000
     37       9.1880      0.00000
     38       9.2504      0.00000

 k-point    17 :       0.0000    0.1000    0.2500
  band No.  band energies     occupation 
      1     -10.9341      2.00000
      2     -10.7440      2.00000
      3     -10.7056      2.00000
      4     -10.5527      2.00000
      5     -10.5435      2.00000
      6     -10.2853      2.00000
      7     -10.2230      2.00000
      8     -10.1894      2.00000
      9     -10.0927      2.00000
     10     -10.0829      2.00000
     11      -9.5401      2.00000
     12      -9.0210      2.00000
     13      -8.0387      2.00000
     14      -7.3391      2.00000
     15      -1.9938      2.00000
     16      -1.5415      2.00000
     17      -1.5217      2.00000
     18      -1.2017      2.00000
     19      -1.1048      2.00000
     20      -1.0970      2.00000
     21       0.1323      2.00000
     22       1.5611      2.00000
     23       1.7679      2.00000
     24       2.0374      2.00000
     25       2.2568      2.00000
     26       2.5238      2.00000
     27       2.7543      2.00000
     28       3.1153      2.00000
     29       3.7752      2.00000
     30       4.0392      2.00000
     31       4.3952      2.00000
     32       5.5439      0.00000
     33       6.5784      0.00000
     34       7.7068      0.00000
     35       8.2440      0.00000
     36       8.6038      0.00000
     37       9.1627      0.00000
     38       9.2502      0.00000

 k-point    18 :       0.2000    0.0000    0.2500
  band No.  band energies     occupation 
      1     -10.9821      2.00000
      2     -10.7833      2.00000
      3     -10.6839      2.00000
      4     -10.5675      2.00000
      5     -10.5394      2.00000
      6     -10.3923      2.00000
      7     -10.2050      2.00000
      8     -10.1501      2.00000
      9     -10.1036      2.00000
     10     -10.0764      2.00000
     11      -9.2375      2.00000
     12      -8.7899      2.00000
     13      -7.8111      2.00000
     14      -7.1906      2.00000
     15      -1.9311      2.00000
     16      -1.5277      2.00000
     17      -1.4666      2.00000
     18      -1.1887      2.00000
     19      -1.1212      2.00000
     20      -1.0958      2.00000
     21      -0.1839      2.00000
     22       0.6659      2.00000
     23       1.3703      2.00000
     24       1.7274      2.00000
     25       1.7709      2.00000
     26       2.0326      2.00000
     27       2.1554      2.00000
     28       3.1082      2.00000
     29       3.1142      2.00000
     30       4.0549      2.00000
     31       4.0757      2.00000
     32       5.9760      0.00000
     33       6.7018      0.00000
     34       7.7561      0.00000
     35       8.5435      0.00000
     36       8.9039      0.00000
     37       9.5127      0.00000
     38       9.5662      0.00000

 k-point    19 :       0.0000    0.2000    0.2500
  band No.  band energies     occupation 
      1     -10.9820      2.00000
      2     -10.7834      2.00000
      3     -10.6839      2.00000
      4     -10.5676      2.00000
      5     -10.5394      2.00000
      6     -10.3924      2.00000
      7     -10.2050      2.00000
      8     -10.1501      2.00000
      9     -10.1036      2.00000
     10     -10.0764      2.00000
     11      -9.2358      2.00000
     12      -8.7931      2.00000
     13      -7.8079      2.00000
     14      -7.1923      2.00000
     15      -1.9283      2.00000
     16      -1.5275      2.00000
     17      -1.4666      2.00000
     18      -1.2066      2.00000
     19      -1.1210      2.00000
     20      -1.0959      2.00000
     21      -0.1556      2.00000
     22       0.8204      2.00000
     23       1.0751      2.00000
     24       1.7344      2.00000
     25       1.7345      2.00000
     26       2.1407      2.00000
     27       2.2147      2.00000
     28       3.1296      2.00000
     29       3.1330      2.00000
     30       4.0188      2.00000
     31       4.0667      2.00000
     32       5.9329      0.00000
     33       6.7235      0.00000
     34       7.8148      0.00000
     35       8.4480      0.00000
     36       8.9525      0.00000
     37       9.4271      0.00000
     38       9.5826      0.00000

 k-point    20 :       0.3000    0.0000    0.2500
  band No.  band energies     occupation 
      1     -11.0571      2.00000
      2     -10.8001      2.00000
      3     -10.6616      2.00000
      4     -10.5824      2.00000
      5     -10.5293      2.00000
      6     -10.4953      2.00000
      7     -10.1898      2.00000
      8     -10.1373      2.00000
      9     -10.0891      2.00000
     10     -10.0607      2.00000
     11      -8.8364      2.00000
     12      -8.4561      2.00000
     13      -7.5511      2.00000
     14      -7.0026      2.00000
     15      -1.9812      2.00000
     16      -1.4791      2.00000
     17      -1.3985      2.00000
     18      -1.2661      2.00000
     19      -1.1569      2.00000
     20      -1.0887      2.00000
     21      -0.8514      2.00000
     22       0.0733      2.00000
     23       0.7759      2.00000
     24       1.1782      2.00000
     25       1.3932      2.00000
     26       1.7693      2.00000
     27       1.7880      2.00000
     28       2.6437      2.00000
     29       3.0461      2.00000
     30       3.7254      2.00000
     31       3.9763      2.00000
     32       5.9718      0.00000
     33       6.4563      0.00000
     34       7.3910      0.00000
     35       8.6566      0.00000
     36       8.9348      0.00000
     37       9.7566      0.00000
     38       9.9761      0.00000

 k-point    21 :       0.0000    0.3000    0.2500
  band No.  band energies     occupation 
      1     -11.0571      2.00000
      2     -10.8001      2.00000
      3     -10.6616      2.00000
      4     -10.5825      2.00000
      5     -10.5293      2.00000
      6     -10.4953      2.00000
      7     -10.1898      2.00000
      8     -10.1373      2.00000
      9     -10.0891      2.00000
     10     -10.0607      2.00000
     11      -8.8330      2.00000
     12      -8.4624      2.00000
     13      -7.5449      2.00000
     14      -7.0058      2.00000
     15      -1.9744      2.00000
     16      -1.4932      2.00000
     17      -1.3985      2.00000
     18      -1.2796      2.00000
     19      -1.1629      2.00000
     20      -1.0888      2.00000
     21      -0.8426      2.00000
     22       0.2362      2.00000
     23       0.5991      2.00000
     24       1.1680      2.00000
     25       1.3991      2.00000
     26       1.7682      2.00000
     27       1.7773      2.00000
     28       2.6902      2.00000
     29       3.0611      2.00000
     30       3.7140      2.00000
     31       4.0005      2.00000
     32       6.0171      0.00000
     33       6.3734      0.00000
     34       7.3007      0.00000
     35       8.6960      0.00000
     36       9.0769      0.00000
     37       9.7849      0.00000
     38       9.9068      0.00000

 k-point    22 :       0.4000    0.0000    0.2500
  band No.  band energies     occupation 
      1     -11.1162      2.00000
      2     -10.8150      2.00000
      3     -10.6485      2.00000
      4     -10.5981      2.00000
      5     -10.5514      2.00000
      6     -10.5158      2.00000
      7     -10.1834      2.00000
      8     -10.1447      2.00000
      9     -10.0641      2.00000
     10     -10.0417      2.00000
     11      -8.4429      2.00000
     12      -8.1445      2.00000
     13      -7.3668      2.00000
     14      -6.8509      2.00000
     15      -2.2594      2.00000
     16      -1.6976      2.00000
     17      -1.3944      2.00000
     18      -1.3465      2.00000
     19      -1.2180      2.00000
     20      -1.0747      2.00000
     21      -1.0181      2.00000
     22      -0.2237      2.00000
     23       0.2937      2.00000
     24       0.6865      2.00000
     25       1.1487      2.00000
     26       1.5303      2.00000
     27       1.7435      2.00000
     28       2.4806      2.00000
     29       2.9559      2.00000
     30       3.4814      2.00000
     31       3.8479      2.00000
     32       5.6889      0.00000
     33       6.3427      0.00000
     34       7.0807      0.00000
     35       8.5909      0.00000
     36       8.7091      0.00000
     37       9.7142      0.00000
     38       9.7804      0.00000

 k-point    23 :       0.0000    0.4000    0.2500
  band No.  band energies     occupation 
      1     -11.1162      2.00000
      2     -10.8150      2.00000
      3     -10.6485      2.00000
      4     -10.5981      2.00000
      5     -10.5513      2.00000
      6     -10.5158      2.00000
      7     -10.1834      2.00000
      8     -10.1447      2.00000
      9     -10.0641      2.00000
     10     -10.0417      2.00000
     11      -8.4395      2.00000
     12      -8.1504      2.00000
     13      -7.3626      2.00000
     14      -6.8523      2.00000
     15      -2.2558      2.00000
     16      -1.7187      2.00000
     17      -1.3705      2.00000
     18      -1.3465      2.00000
     19      -1.2243      2.00000
     20      -1.0748      2.00000
     21      -1.0352      2.00000
     22      -0.1567      2.00000
     23       0.1998      2.00000
     24       0.8004      2.00000
     25       1.1519      2.00000
     26       1.5248      2.00000
     27       1.6139      2.00000
     28       2.5043      2.00000
     29       2.9657      2.00000
     30       3.4733      2.00000
     31       3.9107      2.00000
     32       5.8039      0.00000
     33       6.2212      0.00000
     34       6.9424      0.00000
     35       8.6245      0.00000
     36       8.8892      0.00000
     37       9.6294      0.00000
     38       9.7974      0.00000

 k-point    24 :       0.5000    0.0000    0.2500
  band No.  band energies     occupation 
      1     -11.1378      2.00000
      2     -10.8236      2.00000
      3     -10.6447      2.00000
      4     -10.6069      2.00000
      5     -10.5639      2.00000
      6     -10.5093      2.00000
      7     -10.1821      2.00000
      8     -10.1482      2.00000
      9     -10.0546      2.00000
     10     -10.0332      2.00000
     11      -8.2522      2.00000
     12      -8.0245      2.00000
     13      -7.3087      2.00000
     14      -6.7940      2.00000
     15      -2.4414      2.00000
     16      -1.9213      2.00000
     17      -1.3663      2.00000
     18      -1.3282      2.00000
     19      -1.2441      2.00000
     20      -1.0663      2.00000
     21      -0.8965      2.00000
     22      -0.4018      2.00000
     23      -0.0280      2.00000
     24       0.7450      2.00000
     25       1.0612      2.00000
     26       1.4365      2.00000
     27       1.6199      2.00000
     28       2.4603      2.00000
     29       2.9155      2.00000
     30       3.3966      2.00000
     31       3.8239      2.00000
     32       5.6176      0.00000
     33       6.2639      0.00000
     34       6.8782      0.00000
     35       8.5528      0.00000
     36       8.7163      0.00000
     37       9.5315      0.00000
     38       9.7727      0.00000

 k-point    25 :       0.1000    0.1000    0.2500
  band No.  band energies     occupation 
      1     -10.9642      2.00000
      2     -10.7755      2.00000
      3     -10.6909      2.00000
      4     -10.5627      2.00000
      5     -10.5419      2.00000
      6     -10.3545      2.00000
      7     -10.2250      2.00000
      8     -10.1533      2.00000
      9     -10.1022      2.00000
     10     -10.0791      2.00000
     11      -9.3298      2.00000
     12      -8.8648      2.00000
     13      -7.8793      2.00000
     14      -7.2375      2.00000
     15      -1.9430      2.00000
     16      -1.5337      2.00000
     17      -1.4836      2.00000
     18      -1.1947      2.00000
     19      -1.1154      2.00000
     20      -1.0970      2.00000
     21      -0.0310      2.00000
     22       0.9836      2.00000
     23       1.4175      2.00000
     24       1.7725      2.00000
     25       1.8519      2.00000
     26       1.9736      2.00000
     27       2.7785      2.00000
     28       2.8365      2.00000
     29       3.3693      2.00000
     30       4.0145      2.00000
     31       4.1298      2.00000
     32       5.9010      0.00000
     33       6.8140      0.00000
     34       8.0949      0.00000
     35       8.4091      0.00000
     36       8.6951      0.00000
     37       9.0589      0.00000
     38       9.6336      0.00000

 k-point    26 :       0.2000    0.1000    0.2500
  band No.  band energies     occupation 
      1     -11.0281      2.00000
      2     -10.7946      2.00000
      3     -10.6710      2.00000
      4     -10.5743      2.00000
      5     -10.5368      2.00000
      6     -10.4491      2.00000
      7     -10.2224      2.00000
      8     -10.1255      2.00000
      9     -10.1050      2.00000
     10     -10.0658      2.00000
     11      -8.9759      2.00000
     12      -8.5743      2.00000
     13      -7.6408      2.00000
     14      -7.0689      2.00000
     15      -1.9267      2.00000
     16      -1.4999      2.00000
     17      -1.4216      2.00000
     18      -1.2153      2.00000
     19      -1.1373      2.00000
     20      -1.0919      2.00000
     21      -0.5676      2.00000
     22       0.3326      2.00000
     23       0.9446      2.00000
     24       1.2367      2.00000
     25       1.4244      2.00000
     26       1.6485      2.00000
     27       2.2465      2.00000
     28       2.6738      2.00000
     29       2.9819      2.00000
     30       3.6525      2.00000
     31       4.0759      2.00000
     32       6.1688      0.00000
     33       6.7077      0.00000
     34       7.8099      0.00000
     35       8.8285      0.00000
     36       9.1292      0.00000
     37       9.2976      0.00000
     38       9.9548      0.00000

 k-point    27 :      -0.1000    0.3000    0.2500
  band No.  band energies     occupation 
      1     -11.0280      2.00000
      2     -10.7946      2.00000
      3     -10.6710      2.00000
      4     -10.5743      2.00000
      5     -10.5368      2.00000
      6     -10.4491      2.00000
      7     -10.2224      2.00000
      8     -10.1255      2.00000
      9     -10.1050      2.00000
     10     -10.0658      2.00000
     11      -8.9744      2.00000
     12      -8.5772      2.00000
     13      -7.6378      2.00000
     14      -7.0704      2.00000
     15      -1.9234      2.00000
     16      -1.5015      2.00000
     17      -1.4216      2.00000
     18      -1.2305      2.00000
     19      -1.1389      2.00000
     20      -1.0927      2.00000
     21      -0.5543      2.00000
     22       0.4530      2.00000
     23       0.7746      2.00000
     24       1.2327      2.00000
     25       1.4570      2.00000
     26       1.6263      2.00000
     27       2.2733      2.00000
     28       2.7602      2.00000
     29       2.9271      2.00000
     30       3.6398      2.00000
     31       4.0871      2.00000
     32       6.1521      0.00000
     33       6.6977      0.00000
     34       7.8173      0.00000
     35       8.7466      0.00000
     36       9.1085      0.00000
     37       9.5124      0.00000
     38       9.9433      0.00000

 k-point    28 :       0.3000    0.1000    0.2500
  band No.  band energies     occupation 
      1     -11.0934      2.00000
      2     -10.8050      2.00000
      3     -10.6564      2.00000
      4     -10.5857      2.00000
      5     -10.5314      2.00000
      6     -10.5188      2.00000
      7     -10.2176      2.00000
      8     -10.1324      2.00000
      9     -10.0813      2.00000
     10     -10.0483      2.00000
     11      -8.5641      2.00000
     12      -8.2352      2.00000
     13      -7.4304      2.00000
     14      -6.8984      2.00000
     15      -2.0945      2.00000
     16      -1.4856      2.00000
     17      -1.3994      2.00000
     18      -1.3614      2.00000
     19      -1.1810      2.00000
     20      -1.0845      2.00000
     21      -1.0233      2.00000
     22      -0.0590      2.00000
     23       0.4560      2.00000
     24       0.8012      2.00000
     25       1.0610      2.00000
     26       1.3247      2.00000
     27       1.9827      2.00000
     28       2.3963      2.00000
     29       2.8897      2.00000
     30       3.2985      2.00000
     31       3.9737      2.00000
     32       6.0406      0.00000
     33       6.5497      0.00000
     34       7.4776      0.00000
     35       8.8472      0.00000
     36       9.1647      0.00000
     37       9.4368      0.00000
     38       9.9835      0.00000

 k-point    29 :      -0.1000    0.4000    0.2500
  band No.  band energies     occupation 
      1     -11.0934      2.00000
      2     -10.8051      2.00000
      3     -10.6564      2.00000
      4     -10.5858      2.00000
      5     -10.5314      2.00000
      6     -10.5187      2.00000
      7     -10.2176      2.00000
      8     -10.1324      2.00000
      9     -10.0813      2.00000
     10     -10.0483      2.00000
     11      -8.5611      2.00000
     12      -8.2405      2.00000
     13      -7.4260      2.00000
     14      -6.9003      2.00000
     15      -2.0889      2.00000
     16      -1.5348      2.00000
     17      -1.3757      2.00000
     18      -1.3369      2.00000
     19      -1.1882      2.00000
     20      -1.0882      2.00000
     21      -1.0344      2.00000
     22       0.0312      2.00000
     23       0.4208      2.00000
     24       0.7316      2.00000
     25       1.0273      2.00000
     26       1.4956      2.00000
     27       1.7681      2.00000
     28       2.5658      2.00000
     29       2.8050      2.00000
     30       3.2951      2.00000
     31       4.0243      2.00000
     32       6.1386      0.00000
     33       6.4214      0.00000
     34       7.3870      0.00000
     35       8.9220      0.00000
     36       9.2397      0.00000
     37       9.5361      0.00000
     38       9.8743      0.00000

 k-point    30 :       0.4000    0.1000    0.2500
  band No.  band energies     occupation 
      1     -11.1316      2.00000
      2     -10.8152      2.00000
      3     -10.6500      2.00000
      4     -10.5969      2.00000
      5     -10.5554      2.00000
      6     -10.5161      2.00000
      7     -10.2157      2.00000
      8     -10.1394      2.00000
      9     -10.0598      2.00000
     10     -10.0415      2.00000
     11      -8.2360      2.00000
     12      -8.0096      2.00000
     13      -7.3295      2.00000
     14      -6.7946      2.00000
     15      -2.3569      2.00000
     16      -1.8491      2.00000
     17      -1.3615      2.00000
     18      -1.3311      2.00000
     19      -1.2278      2.00000
     20      -1.0809      2.00000
     21      -0.9237      2.00000
     22      -0.3056      2.00000
     23       0.0606      2.00000
     24       0.5854      2.00000
     25       0.8491      2.00000
     26       1.2522      2.00000
     27       1.7904      2.00000
     28       2.3032      2.00000
     29       2.8513      2.00000
     30       3.1091      2.00000
     31       3.8897      2.00000
     32       5.8636      0.00000
     33       6.4816      0.00000
     34       7.2169      0.00000
     35       8.8428      0.00000
     36       9.0164      0.00000
     37       9.4238      0.00000
     38       9.7696      0.00000

 k-point    31 :      -0.1000    0.5000    0.2500
  band No.  band energies     occupation 
      1     -11.1316      2.00000
      2     -10.8152      2.00000
      3     -10.6500      2.00000
      4     -10.5969      2.00000
      5     -10.5554      2.00000
      6     -10.5161      2.00000
      7     -10.2157      2.00000
      8     -10.1394      2.00000
      9     -10.0598      2.00000
     10     -10.0415      2.00000
     11      -8.2341      2.00000
     12      -8.0126      2.00000
     13      -7.3281      2.00000
     14      -6.7947      2.00000
     15      -2.3549      2.00000
     16      -1.8568      2.00000
     17      -1.3589      2.00000
     18      -1.3252      2.00000
     19      -1.2309      2.00000
     20      -1.0819      2.00000
     21      -0.9312      2.00000
     22      -0.2897      2.00000
     23       0.0695      2.00000
     24       0.5620      2.00000
     25       0.8304      2.00000
     26       1.4081      2.00000
     27       1.6035      2.00000
     28       2.3666      2.00000
     29       2.8167      2.00000
     30       3.1124      2.00000
     31       3.9268      2.00000
     32       5.9250      0.00000
     33       6.4096      0.00000
     34       7.1625      0.00000
     35       8.9138      0.00000
     36       9.0238      0.00000
     37       9.4513      0.00000
     38       9.7374      0.00000

 k-point    32 :       0.2000    0.2000    0.2500
  band No.  band energies     occupation 
      1     -11.0814      2.00000
      2     -10.8000      2.00000
      3     -10.6619      2.00000
      4     -10.5772      2.00000
      5     -10.5365      2.00000
      6     -10.4953      2.00000
      7     -10.2564      2.00000
      8     -10.1143      2.00000
      9     -10.1017      2.00000
     10     -10.0498      2.00000
     11      -8.6005      2.00000
     12      -8.2652      2.00000
     13      -7.4595      2.00000
     14      -6.9180      2.00000
     15      -2.0140      2.00000
     16      -1.4610      2.00000
     17      -1.3734      2.00000
     18      -1.3204      2.00000
     19      -1.1639      2.00000
     20      -1.0775      2.00000
     21      -0.9809      2.00000
     22       0.1138      2.00000
     23       0.4299      2.00000
     24       0.7159      2.00000
     25       0.9302      2.00000
     26       1.3845      2.00000
     27       2.0818      2.00000
     28       2.3049      2.00000
     29       2.7893      2.00000
     30       3.0772      2.00000
     31       4.0698      2.00000
     32       6.3577      0.00000
     33       6.6886      0.00000
     34       7.9948      0.00000
     35       8.7746      0.00000
     36       9.4389      0.00000
     37       9.7438      0.00000
     38      10.0616      0.00000

 k-point    33 :       0.3000    0.2000    0.2500
  band No.  band energies     occupation 
      1     -11.1213      2.00000
      2     -10.8023      2.00000
      3     -10.6586      2.00000
      4     -10.5782      2.00000
      5     -10.5388      2.00000
      6     -10.5219      2.00000
      7     -10.2815      2.00000
      8     -10.1180      2.00000
      9     -10.0816      2.00000
     10     -10.0466      2.00000
     11      -8.2144      2.00000
     12      -7.9793      2.00000
     13      -7.3653      2.00000
     14      -6.7956      2.00000
     15      -2.2041      2.00000
     16      -1.7108      2.00000
     17      -1.3525      2.00000
     18      -1.3290      2.00000
     19      -1.1920      2.00000
     20      -1.1138      2.00000
     21      -0.9562      2.00000
     22      -0.0970      2.00000
     23       0.0103      2.00000
     24       0.3162      2.00000
     25       0.7062      2.00000
     26       1.1501      2.00000
     27       1.8389      2.00000
     28       2.0038      2.00000
     29       2.6261      2.00000
     30       2.8652      2.00000
     31       3.9768      2.00000
     32       6.3239      0.00000
     33       6.6680      0.00000
     34       7.9030      0.00000
     35       8.7789      0.00000
     36       9.5667      0.00000
     37       9.8231      0.00000
     38      10.1958      0.00000

 k-point    34 :      -0.2000    0.5000    0.2500
  band No.  band energies     occupation 
      1     -11.1213      2.00000
      2     -10.8023      2.00000
      3     -10.6586      2.00000
      4     -10.5783      2.00000
      5     -10.5388      2.00000
      6     -10.5219      2.00000
      7     -10.2815      2.00000
      8     -10.1180      2.00000
      9     -10.0816      2.00000
     10     -10.0466      2.00000
     11      -8.2131      2.00000
     12      -7.9815      2.00000
     13      -7.3642      2.00000
     14      -6.7958      2.00000
     15      -2.2011      2.00000
     16      -1.7218      2.00000
     17      -1.3540      2.00000
     18      -1.3156      2.00000
     19      -1.1922      2.00000
     20      -1.1189      2.00000
     21      -0.9621      2.00000
     22      -0.1307      2.00000
     23       0.1882      2.00000
     24       0.2377      2.00000
     25       0.5457      2.00000
     26       1.4210      2.00000
     27       1.5866      2.00000
     28       2.0884      2.00000
     29       2.6126      2.00000
     30       2.8625      2.00000
     31       3.9997      2.00000
     32       6.3743      0.00000
     33       6.6067      0.00000
     34       7.8761      0.00000
     35       8.7967      0.00000
     36       9.5611      0.00000
     37       9.7990      0.00000
     38      10.2398      0.00000

 k-point    35 :       0.4000    0.2000    0.2500
  band No.  band energies     occupation 
      1     -11.1359      2.00000
      2     -10.8034      2.00000
      3     -10.6581      2.00000
      4     -10.5798      2.00000
      5     -10.5402      2.00000
      6     -10.5288      2.00000
      7     -10.2902      2.00000
      8     -10.1202      2.00000
      9     -10.0602      2.00000
     10     -10.0587      2.00000
     11      -8.0108      2.00000
     12      -7.8780      2.00000
     13      -7.3573      2.00000
     14      -6.7494      2.00000
     15      -2.3081      2.00000
     16      -1.8882      2.00000
     17      -1.3414      2.00000
     18      -1.3147      2.00000
     19      -1.2093      2.00000
     20      -1.1008      2.00000
     21      -0.8197      2.00000
     22      -0.3037      2.00000
     23      -0.0171      2.00000
     24       0.0979      2.00000
     25       0.5230      2.00000
     26       1.2356      2.00000
     27       1.6735      2.00000
     28       1.8819      2.00000
     29       2.5195      2.00000
     30       2.8761      2.00000
     31       3.9350      2.00000
     32       6.2796      0.00000
     33       6.6470      0.00000
     34       7.8061      0.00000
     35       8.7861      0.00000
     36       9.6108      0.00000
     37       9.7261      0.00000
     38      10.1920      0.00000

 k-point    36 :       0.3000    0.3000    0.2500
  band No.  band energies     occupation 
      1     -11.1357      2.00000
      2     -10.7958      2.00000
      3     -10.6625      2.00000
      4     -10.5641      2.00000
      5     -10.5444      2.00000
      6     -10.5199      2.00000
      7     -10.3376      2.00000
      8     -10.0987      2.00000
      9     -10.0814      2.00000
     10     -10.0593      2.00000
     11      -7.9171      2.00000
     12      -7.7985      2.00000
     13      -7.4009      2.00000
     14      -6.7321      2.00000
     15      -2.2376      2.00000
     16      -1.8803      2.00000
     17      -1.3326      2.00000
     18      -1.3186      2.00000
     19      -1.1826      2.00000
     20      -1.1181      2.00000
     21      -0.7960      2.00000
     22      -0.2793      2.00000
     23      -0.1542      2.00000
     24      -0.1065      2.00000
     25       0.5776      2.00000
     26       1.1103      2.00000
     27       1.5762      2.00000
     28       1.7272      2.00000
     29       2.2871      2.00000
     30       2.8946      2.00000
     31       3.9328      2.00000
     32       6.4563      0.00000
     33       6.7038      0.00000
     34       8.1352      0.00000
     35       8.6574      0.00000
     36       9.8524      0.00000
     37       9.9686      0.00000
     38      10.6051      0.00000

 k-point    37 :       0.0000    0.0000    0.5000
  band No.  band energies     occupation 
      1     -10.9236      2.00000
      2     -10.7146      2.00000
      3     -10.7146      2.00000
      4     -10.5443      2.00000
      5     -10.5443      2.00000
      6     -10.2310      2.00000
      7     -10.2310      2.00000
      8     -10.2170      2.00000
      9     -10.0843      2.00000
     10     -10.0843      2.00000
     11      -9.6544      2.00000
     12      -9.1155      2.00000
     13      -8.1029      2.00000
     14      -7.4142      2.00000
     15      -2.0523      2.00000
     16      -1.5425      2.00000
     17      -1.5425      2.00000
     18      -1.0968      2.00000
     19      -1.0968      2.00000
     20      -1.0506      2.00000
     21      -0.1215      2.00000
     22       2.1599      2.00000
     23       2.1599      2.00000
     24       2.2136      2.00000
     25       2.7586      2.00000
     26       2.7586      2.00000
     27       3.0301      2.00000
     28       3.0301      2.00000
     29       3.1804      2.00000
     30       4.5341      1.99999
     31       4.5341      1.99999
     32       5.5101      0.00000
     33       6.1584      0.00000
     34       7.3095      0.00000
     35       7.7805      0.00000
     36       9.0909      0.00000
     37       9.0909      0.00000
     38       9.0930      0.00000

 k-point    38 :       0.1000    0.0000    0.5000
  band No.  band energies     occupation 
      1     -10.9341      2.00000
      2     -10.7440      2.00000
      3     -10.7056      2.00000
      4     -10.5527      2.00000
      5     -10.5435      2.00000
      6     -10.2853      2.00000
      7     -10.2230      2.00000
      8     -10.1893      2.00000
      9     -10.0927      2.00000
     10     -10.0829      2.00000
     11      -9.5344      2.00000
     12      -9.0367      2.00000
     13      -8.0111      2.00000
     14      -7.3587      2.00000
     15      -2.0216      2.00000
     16      -1.5417      2.00000
     17      -1.5217      2.00000
     18      -1.1178      2.00000
     19      -1.0970      2.00000
     20      -1.0353      2.00000
     21      -0.1136      2.00000
     22       1.5819      2.00000
     23       2.0353      2.00000
     24       2.0377      2.00000
     25       2.2213      2.00000
     26       2.5299      2.00000
     27       2.6890      2.00000
     28       3.1098      2.00000
     29       3.6402      2.00000
     30       4.0351      2.00000
     31       4.3971      2.00000
     32       5.7243      0.00000
     33       6.4713      0.00000
     34       7.7488      0.00000
     35       8.1450      0.00000
     36       8.6234      0.00000
     37       9.1463      0.00000
     38       9.2431      0.00000

 k-point    39 :       0.2000    0.0000    0.5000
  band No.  band energies     occupation 
      1     -10.9821      2.00000
      2     -10.7833      2.00000
      3     -10.6839      2.00000
      4     -10.5676      2.00000
      5     -10.5394      2.00000
      6     -10.3924      2.00000
      7     -10.2050      2.00000
      8     -10.1501      2.00000
      9     -10.1036      2.00000
     10     -10.0764      2.00000
     11      -9.2300      2.00000
     12      -8.8070      2.00000
     13      -7.7846      2.00000
     14      -7.2087      2.00000
     15      -1.9650      2.00000
     16      -1.5290      2.00000
     17      -1.4666      2.00000
     18      -1.1599      2.00000
     19      -1.0959      2.00000
     20      -1.0335      2.00000
     21      -0.2615      2.00000
     22       0.6875      2.00000
     23       1.2074      2.00000
     24       1.7350      2.00000
     25       1.8051      2.00000
     26       2.1133      2.00000
     27       2.1393      2.00000
     28       3.1308      2.00000
     29       3.2345      2.00000
     30       3.9587      2.00000
     31       4.0664      2.00000
     32       5.9632      0.00000
     33       6.7040      0.00000
     34       7.7598      0.00000
     35       8.5023      0.00000
     36       8.9505      0.00000
     37       9.3677      0.00000
     38       9.5669      0.00000

 k-point    40 :       0.3000    0.0000    0.5000
  band No.  band energies     occupation 
      1     -11.0571      2.00000
      2     -10.8001      2.00000
      3     -10.6616      2.00000
      4     -10.5825      2.00000
      5     -10.5293      2.00000
      6     -10.4953      2.00000
      7     -10.1898      2.00000
      8     -10.1373      2.00000
      9     -10.0891      2.00000
     10     -10.0607      2.00000
     11      -8.8287      2.00000
     12      -8.4721      2.00000
     13      -7.5309      2.00000
     14      -7.0148      2.00000
     15      -2.0035      2.00000
     16      -1.4898      2.00000
     17      -1.3985      2.00000
     18      -1.2469      2.00000
     19      -1.1284      2.00000
     20      -1.0888      2.00000
     21      -0.8524      2.00000
     22       0.1489      2.00000
     23       0.6836      2.00000
     24       1.1582      2.00000
     25       1.4041      2.00000
     26       1.7012      2.00000
     27       1.7682      2.00000
     28       2.7532      2.00000
     29       3.0738      2.00000
     30       3.7046      2.00000
     31       3.9789      2.00000
     32       5.9869      0.00000
     33       6.4491      0.00000
     34       7.3087      0.00000
     35       8.6985      0.00000
     36       8.9379      0.00000
     37       9.7862      0.00000
     38      10.0595      0.00000

 k-point    41 :       0.4000    0.0000    0.5000
  band No.  band energies     occupation 
      1     -11.1162      2.00000
      2     -10.8151      2.00000
      3     -10.6485      2.00000
      4     -10.5980      2.00000
      5     -10.5513      2.00000
      6     -10.5158      2.00000
      7     -10.1834      2.00000
      8     -10.1447      2.00000
      9     -10.0641      2.00000
     10     -10.0417      2.00000
     11      -8.4370      2.00000
     12      -8.1552      2.00000
     13      -7.3577      2.00000
     14      -6.8550      2.00000
     15      -2.2582      2.00000
     16      -1.7134      2.00000
     17      -1.3639      2.00000
     18      -1.3465      2.00000
     19      -1.2275      2.00000
     20      -1.0748      2.00000
     21      -1.0318      2.00000
     22      -0.2100      2.00000
     23       0.1958      2.00000
     24       0.8937      2.00000
     25       1.1608      2.00000
     26       1.5093      2.00000
     27       1.5988      2.00000
     28       2.4941      2.00000
     29       2.9945      2.00000
     30       3.4493      2.00000
     31       3.8211      2.00000
     32       5.8154      0.00000
     33       6.3243      0.00000
     34       7.0539      0.00000
     35       8.5311      0.00000
     36       8.6569      0.00000
     37       9.7656      0.00000
     38       9.8301      0.00000

 k-point    42 :       0.5000    0.0000    0.5000
  band No.  band energies     occupation 
      1     -11.1377      2.00000
      2     -10.8236      2.00000
      3     -10.6447      2.00000
      4     -10.6069      2.00000
      5     -10.5639      2.00000
      6     -10.5093      2.00000
      7     -10.1821      2.00000
      8     -10.1482      2.00000
      9     -10.0546      2.00000
     10     -10.0332      2.00000
     11      -8.2491      2.00000
     12      -8.0294      2.00000
     13      -7.3054      2.00000
     14      -6.7957      2.00000
     15      -2.4327      2.00000
     16      -1.9272      2.00000
     17      -1.3449      2.00000
     18      -1.3283      2.00000
     19      -1.2579      2.00000
     20      -1.0664      2.00000
     21      -0.8925      2.00000
     22      -0.4506      2.00000
     23      -0.0877      2.00000
     24       0.9402      2.00000
     25       1.0726      2.00000
     26       1.4169      2.00000
     27       1.5832      2.00000
     28       2.4107      2.00000
     29       2.9551      2.00000
     30       3.3628      2.00000
     31       3.7141      2.00000
     32       5.7169      0.00000
     33       6.3099      0.00000
     34       6.9898      0.00000
     35       8.4428      0.00000
     36       8.5023      0.00000
     37       9.6377      0.00000
     38       9.8237      0.00000

 k-point    43 :       0.1000    0.1000    0.5000
  band No.  band energies     occupation 
      1     -10.9642      2.00000
      2     -10.7755      2.00000
      3     -10.6909      2.00000
      4     -10.5627      2.00000
      5     -10.5419      2.00000
      6     -10.3546      2.00000
      7     -10.2250      2.00000
      8     -10.1533      2.00000
      9     -10.1022      2.00000
     10     -10.0791      2.00000
     11      -9.3233      2.00000
     12      -8.8807      2.00000
     13      -7.8532      2.00000
     14      -7.2559      2.00000
     15      -1.9770      2.00000
     16      -1.5346      2.00000
     17      -1.4836      2.00000
     18      -1.1468      2.00000
     19      -1.0972      2.00000
     20      -1.0266      2.00000
     21      -0.1746      2.00000
     22       0.9619      2.00000
     23       1.4298      2.00000
     24       1.7753      2.00000
     25       1.8415      2.00000
     26       2.0457      2.00000
     27       2.7656      2.00000
     28       2.8374      2.00000
     29       3.4592      2.00000
     30       3.9351      2.00000
     31       4.1105      2.00000
     32       5.9378      0.00000
     33       6.7804      0.00000
     34       8.1433      0.00000
     35       8.3854      0.00000
     36       8.6227      0.00000
     37       9.0187      0.00000
     38       9.6165      0.00000

 k-point    44 :       0.2000    0.1000    0.5000
  band No.  band energies     occupation 
      1     -11.0280      2.00000
      2     -10.7946      2.00000
      3     -10.6710      2.00000
      4     -10.5743      2.00000
      5     -10.5368      2.00000
      6     -10.4491      2.00000
      7     -10.2224      2.00000
      8     -10.1255      2.00000
      9     -10.1050      2.00000
     10     -10.0658      2.00000
     11      -8.9686      2.00000
     12      -8.5901      2.00000
     13      -7.6187      2.00000
     14      -7.0831      2.00000
     15      -1.9583      2.00000
     16      -1.5038      2.00000
     17      -1.4216      2.00000
     18      -1.1967      2.00000
     19      -1.0958      2.00000
     20      -1.0706      2.00000
     21      -0.5868      2.00000
     22       0.3763      2.00000
     23       0.8647      2.00000
     24       1.1758      2.00000
     25       1.4543      2.00000
     26       1.5994      2.00000
     27       2.2652      2.00000
     28       2.7898      2.00000
     29       2.9506      2.00000
     30       3.6662      2.00000
     31       4.0828      2.00000
     32       6.1088      0.00000
     33       6.7328      0.00000
     34       7.7876      0.00000
     35       8.7655      0.00000
     36       9.1469      0.00000
     37       9.3475      0.00000
     38       9.9621      0.00000

 k-point    45 :       0.3000    0.1000    0.5000
  band No.  band energies     occupation 
      1     -11.0934      2.00000
      2     -10.8051      2.00000
      3     -10.6564      2.00000
      4     -10.5857      2.00000
      5     -10.5314      2.00000
      6     -10.5187      2.00000
      7     -10.2176      2.00000
      8     -10.1324      2.00000
      9     -10.0813      2.00000
     10     -10.0483      2.00000
     11      -8.5574      2.00000
     12      -8.2481      2.00000
     13      -7.4175      2.00000
     14      -6.9049      2.00000
     15      -2.1037      2.00000
     16      -1.5187      2.00000
     17      -1.3731      2.00000
     18      -1.3464      2.00000
     19      -1.1752      2.00000
     20      -1.0860      2.00000
     21      -1.0287      2.00000
     22      -0.0225      2.00000
     23       0.4319      2.00000
     24       0.8229      2.00000
     25       1.0538      2.00000
     26       1.3314      2.00000
     27       1.8530      2.00000
     28       2.5494      2.00000
     29       2.7874      2.00000
     30       3.3164      2.00000
     31       4.0116      2.00000
     32       6.1055      0.00000
     33       6.5051      0.00000
     34       7.4291      0.00000
     35       8.8638      0.00000
     36       9.1141      0.00000
     37       9.4831      0.00000
     38      10.0158      0.00000

 k-point    46 :       0.4000    0.1000    0.5000
  band No.  band energies     occupation 
      1     -11.1316      2.00000
      2     -10.8152      2.00000
      3     -10.6500      2.00000
      4     -10.5968      2.00000
      5     -10.5554      2.00000
      6     -10.5161      2.00000
      7     -10.2157      2.00000
      8     -10.1394      2.00000
      9     -10.0598      2.00000
     10     -10.0415      2.00000
     11      -8.2317      2.00000
     12      -8.0166      2.00000
     13      -7.3253      2.00000
     14      -6.7961      2.00000
     15      -2.3501      2.00000
     16      -1.8597      2.00000
     17      -1.3487      2.00000
     18      -1.3234      2.00000
     19      -1.2370      2.00000
     20      -1.0823      2.00000
     21      -0.9280      2.00000
     22      -0.3327      2.00000
     23       0.0235      2.00000
     24       0.6716      2.00000
     25       0.8231      2.00000
     26       1.3809      2.00000
     27       1.6748      2.00000
     28       2.3603      2.00000
     29       2.7440      2.00000
     30       3.1232      2.00000
     31       3.8635      2.00000
     32       5.9661      0.00000
     33       6.4845      0.00000
     34       7.2416      0.00000
     35       8.7442      0.00000
     36       8.8979      0.00000
     37       9.4135      0.00000
     38       9.9266      0.00000

 k-point    47 :       0.2000    0.2000    0.5000
  band No.  band energies     occupation 
      1     -11.0814      2.00000
      2     -10.8000      2.00000
      3     -10.6620      2.00000
      4     -10.5772      2.00000
      5     -10.5365      2.00000
      6     -10.4953      2.00000
      7     -10.2564      2.00000
      8     -10.1143      2.00000
      9     -10.1017      2.00000
     10     -10.0498      2.00000
     11      -8.5949      2.00000
     12      -8.2766      2.00000
     13      -7.4472      2.00000
     14      -6.9245      2.00000
     15      -2.0326      2.00000
     16      -1.4655      2.00000
     17      -1.3671      2.00000
     18      -1.3130      2.00000
     19      -1.1441      2.00000
     20      -1.0726      2.00000
     21      -0.9852      2.00000
     22       0.1136      2.00000
     23       0.4613      2.00000
     24       0.6676      2.00000
     25       1.0384      2.00000
     26       1.2334      2.00000
     27       2.1746      2.00000
     28       2.2627      2.00000
     29       2.6900      2.00000
     30       3.1551      2.00000
     31       4.1193      2.00000
     32       6.3134      0.00000
     33       6.7061      0.00000
     34       8.0031      0.00000
     35       8.7163      0.00000
     36       9.5824      0.00000
     37       9.6265      0.00000
     38      10.0508      0.00000

 k-point    48 :       0.3000    0.2000    0.5000
  band No.  band energies     occupation 
      1     -11.1213      2.00000
      2     -10.8023      2.00000
      3     -10.6586      2.00000
      4     -10.5782      2.00000
      5     -10.5388      2.00000
      6     -10.5219      2.00000
      7     -10.2815      2.00000
      8     -10.1180      2.00000
      9     -10.0816      2.00000
     10     -10.0466      2.00000
     11      -8.2098      2.00000
     12      -7.9871      2.00000
     13      -7.3607      2.00000
     14      -6.7968      2.00000
     15      -2.2036      2.00000
     16      -1.7223      2.00000
     17      -1.3518      2.00000
     18      -1.3215      2.00000
     19      -1.1856      2.00000
     20      -1.1173      2.00000
     21      -0.9572      2.00000
     22      -0.1272      2.00000
     23       0.0928      2.00000
     24       0.2940      2.00000
     25       0.6151      2.00000
     26       1.2435      2.00000
     27       1.8030      2.00000
     28       2.0621      2.00000
     29       2.5467      2.00000
     30       2.8532      2.00000
     31       4.0222      2.00000
     32       6.3594      0.00000
     33       6.6106      0.00000
     34       7.9262      0.00000
     35       8.8475      0.00000
     36       9.4682      0.00000
     37       9.6994      0.00000
     38      10.1738      0.00000

 k-point    49 :       0.4000    0.2000    0.5000
  band No.  band energies     occupation 
      1     -11.1359      2.00000
      2     -10.8034      2.00000
      3     -10.6581      2.00000
      4     -10.5797      2.00000
      5     -10.5402      2.00000
      6     -10.5288      2.00000
      7     -10.2902      2.00000
      8     -10.1202      2.00000
      9     -10.0602      2.00000
     10     -10.0587      2.00000
     11      -8.0079      2.00000
     12      -7.8818      2.00000
     13      -7.3560      2.00000
     14      -6.7497      2.00000
     15      -2.3028      2.00000
     16      -1.8957      2.00000
     17      -1.3412      2.00000
     18      -1.3105      2.00000
     19      -1.2073      2.00000
     20      -1.1022      2.00000
     21      -0.8160      2.00000
     22      -0.3272      2.00000
     23       0.0071      2.00000
     24       0.1443      2.00000
     25       0.4077      2.00000
     26       1.2729      2.00000
     27       1.7028      2.00000
     28       1.9619      2.00000
     29       2.5334      2.00000
     30       2.7565      2.00000
     31       3.9444      2.00000
     32       6.2861      0.00000
     33       6.6300      0.00000
     34       7.8539      0.00000
     35       8.9029      0.00000
     36       9.4051      0.00000
     37       9.6540      0.00000
     38      10.1401      0.00000

 k-point    50 :       0.3000    0.3000    0.5000
  band No.  band energies     occupation 
      1     -11.1357      2.00000
      2     -10.7958      2.00000
      3     -10.6625      2.00000
      4     -10.5641      2.00000
      5     -10.5444      2.00000
      6     -10.5199      2.00000
      7     -10.3376      2.00000
      8     -10.0987      2.00000
      9     -10.0814      2.00000
     10     -10.0592      2.00000
     11      -7.9155      2.00000
     12      -7.8006      2.00000
     13      -7.4004      2.00000
     14      -6.7320      2.00000
     15      -2.2361      2.00000
     16      -1.8851      2.00000
     17      -1.3337      2.00000
     18      -1.3206      2.00000
     19      -1.1753      2.00000
     20      -1.1198      2.00000
     21      -0.7968      2.00000
     22      -0.2521      2.00000
     23      -0.1345      2.00000
     24      -0.0864      2.00000
     25       0.4540      2.00000
     26       1.0690      2.00000
     27       1.5245      2.00000
     28       1.9546      2.00000
     29       2.3775      2.00000
     30       2.7042      2.00000
     31       3.9753      2.00000
     32       6.3922      0.00000
     33       6.6511      0.00000
     34       8.1920      0.00000
     35       8.9025      0.00000
     36       9.6183      0.00000
     37       9.8491      0.00000
     38      10.8980      0.00000


--------------------------------------------------------------------------------------------------------


 soft charge-density along one line, spin component           1
         0         1         2         3         4         5         6         7         8         9
 total charge-density along one line

 pseudopotential strength for first ion, spin component:           1
 39.874  45.793  -0.000   0.059  -0.000  -0.000   0.080  -0.000
 45.793  52.593  -0.000   0.067  -0.000  -0.000   0.092  -0.000
 -0.000  -0.000   8.314  -0.000  -0.000  11.269  -0.000  -0.000
  0.059   0.067  -0.000   8.305   0.000  -0.000  11.257   0.000
 -0.000  -0.000  -0.000   0.000   8.314  -0.000   0.000  11.269
 -0.000  -0.000  11.269  -0.000  -0.000  15.293  -0.000  -0.000
  0.080   0.092  -0.000  11.257   0.000  -0.000  15.277   0.000
 -0.000  -0.000  -0.000   0.000  11.269  -0.000   0.000  15.293
 total augmentation occupancy for first ion, spin component:           1
 12.652  -8.759   0.000   3.254   0.000   0.000  -1.001  -0.000
 -8.759   7.117   0.000  -2.895   0.000   0.000   0.792  -0.000
  0.000   0.000   3.573   0.000  -0.000  -1.039   0.000   0.000
  3.254  -2.895   0.000   3.087   0.000   0.000  -0.739   0.000
  0.000   0.000  -0.000   0.000   3.573   0.000  -0.000  -1.039
  0.000   0.000  -1.039  -0.000   0.000   0.353   0.000  -0.000
 -1.001   0.792  -0.000  -0.739  -0.000   0.000   0.229   0.000
 -0.000   0.000   0.000  -0.000  -1.039  -0.000   0.000   0.353


------------------------ aborting loop because EDIFF is reached ----------------------------------------





 total charge

# of ion       s       p       d       tot
------------------------------------------
    1        1.365   2.334   0.000   3.699
    2        1.344   2.387   0.000   3.731
    3        1.346   2.378   0.000   3.724
    4        1.321   2.413   0.000   3.734
    5        0.795   0.705   9.933  11.433
    6        0.733   0.613   9.951  11.296
    7        0.527   0.454   9.796  10.776
--------------------------------------------------
tot          7.430  11.282  29.679  48.391

    CHARGE:  cpu time      0.1187: real time      0.1189
    FORLOC:  cpu time      0.0014: real time      0.0014
    FORNL :  cpu time      0.2646: real time      0.2703
    STRESS:  cpu time      0.6881: real time      0.7294
    FORCOR:  cpu time      0.0194: real time      0.0197
    FORHAR:  cpu time      0.0046: real time      0.0046
    MIXING:  cpu time      0.0006: real time      0.0006
    OFIELD:  cpu time      0.0000: real time      0.0000

 ---------------------------------------------------------------------------------------------

         DFTD3 V3.0 Rev 1        
 DF pbe       
 parameters
 k1-k3        =   16.0000    1.3333   -4.0000
 Edisp (eV)   -2.11625

 E6    (eV) :    -1.2351
 E8    (eV) :    -0.8811
 % E8        : 41.64
    FORVDW:  cpu time      0.0079: real time      0.0082

  FORCE on cell =-STRESS in cart. coord.  units (eV):
  Direction    XX          YY          ZZ          XY          YZ          ZX
  --------------------------------------------------------------------------------------
  Alpha Z   146.42803   146.42803   146.42803
  Ewald   -1201.78961 -1201.78960 -1670.27428    -0.00002    -0.00000    -0.00000
  Hartree   746.10283   746.10282   409.24375     0.00000    -0.00001     0.00000
  E(xc)    -289.49096  -289.49097  -289.63324    -0.00000    -0.00000     0.00000
  Local    -617.14459  -617.14476   183.44850    -0.00014     0.00001     0.00000
  n-local   334.35184   334.37380   331.70160    -4.74796    -0.04801    -0.92586
  augment   290.75908   290.75924   290.81628     0.00014     0.00000    -0.00000
  Kinetic   591.85462   594.29028   600.64721   -10.61196    -0.00689     0.28260
  Fock        0.00000     0.00000     0.00000     0.00000     0.00000     0.00000
  vdW        -2.30537    -2.30537    -2.34218    -0.00000     0.00000     0.00000
  -------------------------------------------------------------------------------------
  Total      -0.00533    -0.00533     0.03568     0.00000     0.00000    -0.00000
  in kB      -0.05398    -0.05398     0.36122     0.00000     0.00000    -0.00000
  external pressure =        0.08 kB  Pullay stress =        0.00 kB


 VOLUME and BASIS-vectors are now :
 -----------------------------------------------------------------------------
  energy-cutoff  :      500.00
  volume of cell :      158.25
      direct lattice vectors                 reciprocal lattice vectors
     3.878284292  0.000000000 -0.000000000     0.257845976  0.148867444  0.000000000
    -1.939142146  3.358692720 -0.000000000     0.000000000  0.297734888  0.000000000
    -0.000000000 -0.000000000 12.148433133     0.000000000  0.000000000  0.082315142

  length of vectors
     3.878284292  3.878284292 12.148433133     0.297734888  0.297734888  0.082315142


 FORCES acting on ions
    electron-ion (+dipol)            ewald-force                    non-local-force                 convergence-correction
 -----------------------------------------------------------------------------------------------
   0.133E-06 -.417E-05 0.994E+02   0.272E-07 0.782E-05 -.106E+03   -.575E-16 -.908E-17 0.679E+01   0.247E-08 -.164E-08 0.521E-02
   -.100E-05 -.388E-04 0.710E+02   0.389E-05 -.255E-05 -.680E+02   0.187E-16 0.886E-17 -.296E+01   0.131E-08 -.360E-08 0.947E-03
   -.279E-05 -.140E-05 -.668E+02   0.550E-05 0.322E-05 0.689E+02   0.280E-16 0.975E-17 -.208E+01   0.249E-09 -.393E-09 -.554E-02
   -.265E-04 -.134E-04 -.114E+03   -.107E-04 -.566E-05 0.118E+03   -.624E-17 -.108E-16 -.340E+01   0.205E-09 -.380E-08 -.116E-02
   0.900E-06 -.228E-04 0.396E+02   0.411E-06 -.780E-05 -.393E+02   0.611E-16 -.158E-17 -.362E+00   0.893E-09 -.148E-08 0.697E-02
   -.142E-04 -.705E-05 0.499E+02   -.953E-05 -.678E-06 -.472E+02   0.390E-16 -.747E-17 -.274E+01   -.133E-08 -.295E-08 -.108E-01
   0.967E-07 0.102E-05 -.717E+02   0.104E-04 0.565E-05 0.742E+02   -.241E-16 0.942E-17 -.252E+01   -.186E-07 0.126E-07 -.260E-02
 -----------------------------------------------------------------------------------------------
   -.433E-04 -.865E-04 0.728E+01   -.156E-13 -.109E-13 0.000E+00   0.590E-16 -.939E-18 -.727E+01   -.148E-07 -.130E-08 -.700E-02


 POSITION                                       TOTAL-FORCE (eV/Angst)
 -----------------------------------------------------------------------------------
      0.00000      0.00000      1.17580         0.000000      0.000000      0.004555
     -0.00000      2.23913      4.71353        -0.000000      0.000000      0.001174
      0.00000      0.00000      7.50405         0.000000      0.000000      0.007795
      1.93914      1.11956     10.59566        -0.000000     -0.000000     -0.004399
     -0.00000      2.23913      2.26258         0.000000      0.000000     -0.006272
      1.93914      1.11956      6.23871         0.000000     -0.000000     -0.001146
      0.00000      0.00000     10.04133         0.000000     -0.000000     -0.001706
 -----------------------------------------------------------------------------------
    total drift:                               -0.000043     -0.000087      0.001518


--------------------------------------------------------------------------------------------------------



  FREE ENERGIE OF THE ION-ELECTRON SYSTEM (eV)
  ---------------------------------------------------
  free  energy   TOTEN  =       -28.75482063 eV

  energy  without entropy=      -28.75482059  energy(sigma->0) =      -28.75482061



--------------------------------------------------------------------------------------------------------


    POTLOK:  cpu time      0.0562: real time      0.0589


--------------------------------------------------------------------------------------------------------


     LOOP+:  cpu time     32.2106: real time     33.5278
    4ORBIT:  cpu time      0.0000: real time      0.0000



 total charge

# of ion       s       p       d       tot
------------------------------------------
    1        1.365   2.334   0.000   3.699
    2        1.344   2.387   0.000   3.731
    3        1.346   2.378   0.000   3.724
    4        1.321   2.413   0.000   3.734
    5        0.795   0.705   9.933  11.433
    6        0.733   0.613   9.951  11.296
    7        0.527   0.454   9.796  10.776
--------------------------------------------------
tot          7.430  11.282  29.679  48.391


 total amount of memory used by VASP MPI-rank0    76179. kBytes
=======================================================================

   base                                    :      30000. kBytes
   nonl-proj                               :      22102. kBytes
   fftplans                                :       2916. kBytes
   grid                                    :       5262. kBytes
   one-center                              :         31. kBytes
   wavefun                                 :      15868. kBytes

  
  
 General timing and accounting informations for this job:
 ========================================================
  
                  Total CPU time used (sec):       33.128
                            User time (sec):       32.548
                          System time (sec):        0.580
                         Elapsed time (sec):       34.577
  
                   Maximum memory used (kb):   114638848.
                   Average memory used (kb):          N/A
  
                          Minor page faults:         8369
                          Major page faults:          211
                 Voluntary context switches:           67
