In2 S4 Zn
   1.00000000000000
     3.8782842923155867    0.0000000000000000   -0.0000000000000000
    -1.9391421461577933    3.3586927202930394   -0.0000000000000000
    -0.0000000000000000   -0.0000000000000000   12.1484331332749314
   S    In   Zn
     4     2     1
Direct
 -0.0000000000000000 -0.0000000000000000  0.0967864816910206
  0.3333333429999996  0.6666666870000029  0.3879948153093128
 -0.0000000000000000 -0.0000000000000000  0.6176972615275882
  0.6666666870000029  0.3333333429999996  0.8721834490904072
  0.3333333429999996  0.6666666870000029  0.1862445625742800
  0.6666666870000029  0.3333333429999996  0.5135399017785941
  0.0000000000000000  0.0000000000000000  0.8265534860287983

  0.00000000E+00  0.00000000E+00  0.00000000E+00
  0.00000000E+00  0.00000000E+00  0.00000000E+00
  0.00000000E+00  0.00000000E+00  0.00000000E+00
  0.00000000E+00  0.00000000E+00  0.00000000E+00
  0.00000000E+00  0.00000000E+00  0.00000000E+00
  0.00000000E+00  0.00000000E+00  0.00000000E+00
  0.00000000E+00  0.00000000E+00  0.00000000E+00