In2 S4 Zn                               
   1.00000000000000     
     3.8896490696427954    0.0000000000000015   -0.0000000000000002
    -1.9448245348213975    3.3685349061668703    0.0000000000000003
    -0.0000000000000031   -0.0000000000000016   24.5605989224715522
   In   S    Zn
     4     8     2
Direct
  0.0000000000000000  0.0000000000000000  0.2695397047011170
  0.0000000000000000  0.0000000000000000  0.7304602952988830
  0.3333333429999996  0.6666666870000029  0.1064598206323808
  0.6666666269999979  0.3333333129999971  0.8935401793676192
  0.3333333429999996  0.6666666870000029  0.2039095619025701
  0.6666666269999979  0.3333333129999971  0.7960904670974358
  0.3333333429999996  0.6666666870000029  0.9402188091297106
  0.6666666269999979  0.3333333129999971  0.0597811908702894
  0.3333333429999996  0.6666666870000029  0.6813854957467456
  0.6666666269999979  0.3333333129999971  0.3186145042532544
  0.3333333429999996  0.6666666870000029  0.4369447734782028
  0.6666666269999979  0.3333333129999971  0.5630552265217972
  0.3333333429999996  0.6666666870000029  0.5417033020189592
  0.6666666269999979  0.3333333129999971  0.4582966979810408
 
  0.00000000E+00  0.00000000E+00  0.00000000E+00
  0.00000000E+00  0.00000000E+00  0.00000000E+00
  0.00000000E+00  0.00000000E+00  0.00000000E+00
  0.00000000E+00  0.00000000E+00  0.00000000E+00
  0.00000000E+00  0.00000000E+00  0.00000000E+00
  0.00000000E+00  0.00000000E+00  0.00000000E+00
  0.00000000E+00  0.00000000E+00  0.00000000E+00
  0.00000000E+00  0.00000000E+00  0.00000000E+00
  0.00000000E+00  0.00000000E+00  0.00000000E+00
  0.00000000E+00  0.00000000E+00  0.00000000E+00
  0.00000000E+00  0.00000000E+00  0.00000000E+00
  0.00000000E+00  0.00000000E+00  0.00000000E+00
  0.00000000E+00  0.00000000E+00  0.00000000E+00
  0.00000000E+00  0.00000000E+00  0.00000000E+00
