       N       E                     dE             d eps       ncg     rms          rms(c)
DAV:   1     0.132646624773E+04    0.13265E+04   -0.52844E+04 57944   0.175E+03
DAV:   2     0.199874270350E+03   -0.11266E+04   -0.10809E+04 57640   0.486E+02
DAV:   3    -0.289165809721E+02   -0.22879E+03   -0.21668E+03 66056   0.202E+02
DAV:   4    -0.494397695961E+02   -0.20523E+02   -0.20132E+02 70632   0.591E+01
DAV:   5    -0.503795822642E+02   -0.93981E+00   -0.93612E+00 77104   0.136E+01
DAV:   6    -0.504212906140E+02   -0.41708E-01   -0.41691E-01 86600   0.253E+00
DAV:   7    -0.504222807323E+02   -0.99012E-03   -0.99000E-03 89320   0.377E-01
DAV:   8    -0.504223111856E+02   -0.30453E-04   -0.30452E-04 87888   0.676E-02
DAV:   9    -0.504223122170E+02   -0.10314E-05   -0.10311E-05 89240   0.128E-02
DAV:  10    -0.504223122574E+02   -0.40360E-07   -0.40576E-07 64680   0.269E-03
   1 F= -.54580726E+02 E0= -.54580726E+02  d E =-.135979E-06
