In6 S12 Zn3                             
   1.00000000000000     
     3.8833986740965196   -0.0000000000000001    0.0000000000000000
    -1.9416993370482598    3.3631219047923877    0.0000000000000000
    -0.0000000000000000   -0.0000000000000002   36.4944826743396504
   Zn   In   S 
     3     6    12
Direct
  0.6666666870000029  0.3333333429999996  0.1085986907256460
  0.3333333429999996  0.6666666870000029  0.4419320187256478
 -0.0000000000000000  0.0000000000000000  0.7752653327256487
  0.0000000000000000  0.0000000000000000  0.0044646012749719
  0.6666666870000029  0.3333333429999996  0.3377979442749717
  0.3333333429999996  0.6666666870000029  0.6711312882749746
 -0.0000000000000000 -0.0000000000000000  0.2288119425668189
  0.6666666870000029  0.3333333429999996  0.5621452855668189
  0.3333333429999996  0.6666666870000029  0.8954785985668160
  0.0000000000000000  0.0000000000000000  0.1235903338189471
  0.6666666870000029  0.3333333429999996  0.4569236628189455
  0.3333333429999996  0.6666666870000029  0.7902570058189449
 -0.0000000000000000 -0.0000000000000000  0.2960267081701274
  0.6666666870000029  0.3333333429999996  0.6293600511701271
  0.3333333429999996  0.6666666870000029  0.9626933651701278
  0.0000000000000000  0.0000000000000000  0.7057199735809113
  0.6666666870000029  0.3333333429999996  0.0390533055809138
  0.3333333429999996  0.6666666870000029  0.3723866295809155
 -0.0000000000000000 -0.0000000000000000  0.8661211238625833
  0.6666666870000029  0.3333333429999996  0.1994544518625780
  0.3333333429999996  0.6666666870000029  0.5327878098625826
 
  0.00000000E+00  0.00000000E+00  0.00000000E+00
  0.00000000E+00  0.00000000E+00  0.00000000E+00
  0.00000000E+00  0.00000000E+00  0.00000000E+00
  0.00000000E+00  0.00000000E+00  0.00000000E+00
  0.00000000E+00  0.00000000E+00  0.00000000E+00
  0.00000000E+00  0.00000000E+00  0.00000000E+00
  0.00000000E+00  0.00000000E+00  0.00000000E+00
  0.00000000E+00  0.00000000E+00  0.00000000E+00
  0.00000000E+00  0.00000000E+00  0.00000000E+00
  0.00000000E+00  0.00000000E+00  0.00000000E+00
  0.00000000E+00  0.00000000E+00  0.00000000E+00
  0.00000000E+00  0.00000000E+00  0.00000000E+00
  0.00000000E+00  0.00000000E+00  0.00000000E+00
  0.00000000E+00  0.00000000E+00  0.00000000E+00
  0.00000000E+00  0.00000000E+00  0.00000000E+00
  0.00000000E+00  0.00000000E+00  0.00000000E+00
  0.00000000E+00  0.00000000E+00  0.00000000E+00
  0.00000000E+00  0.00000000E+00  0.00000000E+00
  0.00000000E+00  0.00000000E+00  0.00000000E+00
  0.00000000E+00  0.00000000E+00  0.00000000E+00
  0.00000000E+00  0.00000000E+00  0.00000000E+00
