In6 S12 Zn3
1.0
        3.8728001118         0.0000000000         0.0000000000
       -1.9364000559         3.3539432806         0.0000000000
        0.0000000000         0.0000000000        37.0663986206
   Zn   In    S
    3    6   12
Direct
     0.666666687         0.333333343         0.103373334
     0.333333343         0.666666687         0.436706662
     0.000000000         0.000000000         0.770039976
     0.000000000         0.000000000         0.000000000
     0.666666687         0.333333343         0.333333343
     0.333333343         0.666666687         0.666666687
     0.000000000         0.000000000         0.229959995
     0.666666687         0.333333343         0.563293338
     0.333333343         0.666666687         0.896626651
     0.000000000         0.000000000         0.125599995
     0.666666687         0.333333343         0.458933324
     0.333333343         0.666666687         0.792266667
     0.000000000         0.000000000         0.296200007
     0.666666687         0.333333343         0.629533350
     0.333333343         0.666666687         0.962866664
     0.000000000         0.000000000         0.703800023
     0.666666687         0.333333343         0.037133355
     0.333333343         0.666666687         0.370466679
     0.000000000         0.000000000         0.874400020
     0.666666687         0.333333343         0.207733348
     0.333333343         0.666666687         0.541066706
