ZnIn2S4 bulk PBE-D3BJ relaxation        
           1
     3.872800    0.000000    0.000000
    -1.936400    3.353943    0.000000
     0.000000    0.000000   37.066399
   Zn   In   S 
   3   6  12
Direct configuration=     1
   0.66666669  0.33333334  0.10337333
   0.33333334  0.66666669  0.43670666
   0.00000000  0.00000000  0.77003998
   0.00000000  0.00000000  0.00000000
   0.66666669  0.33333334  0.33333334
   0.33333334  0.66666669  0.66666669
   0.00000000  0.00000000  0.22996000
   0.66666669  0.33333334  0.56329334
   0.33333334  0.66666669  0.89662665
   0.00000000  0.00000000  0.12560000
   0.66666669  0.33333334  0.45893332
   0.33333334  0.66666669  0.79226667
   0.00000000  0.00000000  0.29620001
   0.66666669  0.33333334  0.62953335
   0.33333334  0.66666669  0.96286666
   0.00000000  0.00000000  0.70380002
   0.66666669  0.33333334  0.03713336
   0.33333334  0.66666669  0.37046668
   0.00000000  0.00000000  0.87440002
   0.66666669  0.33333334  0.20773335
   0.33333334  0.66666669  0.54106671
ZnIn2S4 bulk PBE-D3BJ relaxation        
           1
     3.931905   -0.000000   -0.000000
    -1.965953    3.405130    0.000000
     0.000000    0.000000   37.130707
   Zn   In   S 
   3   6  12
Direct configuration=     2
   0.66666669  0.33333334  0.10433583
   0.33333334  0.66666669  0.43766915
  -0.00000000  0.00000000  0.77100247
   0.00000000 -0.00000000  0.00155335
   0.66666669  0.33333334  0.33488669
   0.33333334  0.66666669  0.66822003
  -0.00000000 -0.00000000  0.23098509
   0.66666669  0.33333334  0.56431843
   0.33333334  0.66666669  0.89765174
   0.00000000  0.00000000  0.12490813
   0.66666669  0.33333334  0.45824146
   0.33333334  0.66666669  0.79157480
  -0.00000000  0.00000000  0.29575418
   0.66666669  0.33333334  0.62908752
   0.33333334  0.66666669  0.96242084
   0.00000000  0.00000000  0.70334528
   0.66666669  0.33333334  0.03667861
   0.33333334  0.66666669  0.37001194
  -0.00000000  0.00000000  0.87245152
   0.66666669  0.33333334  0.20578485
   0.33333334  0.66666669  0.53911821
ZnIn2S4 bulk PBE-D3BJ relaxation        
           1
     3.945101   -0.000000   -0.000000
    -1.972550    3.416558    0.000000
     0.000000    0.000000   37.145065
   Zn   In   S 
   3   6  12
Direct configuration=     3
   0.66666669  0.33333334  0.10455034
   0.33333334  0.66666669  0.43788366
  -0.00000000 -0.00000000  0.77121698
  -0.00000000 -0.00000000  0.00189954
   0.66666669  0.33333334  0.33523288
   0.33333334  0.66666669  0.66856622
  -0.00000000 -0.00000000  0.23121355
   0.66666669  0.33333334  0.56454689
   0.33333334  0.66666669  0.89788021
   0.00000000  0.00000000  0.12475394
   0.66666669  0.33333334  0.45808727
   0.33333334  0.66666669  0.79142061
   0.00000000  0.00000000  0.29565482
   0.66666669  0.33333334  0.62898816
   0.33333334  0.66666669  0.96232147
   0.00000000  0.00000000  0.70324394
   0.66666669  0.33333334  0.03657727
   0.33333334  0.66666669  0.36991059
   0.00000000  0.00000000  0.87201726
   0.66666669  0.33333334  0.20535059
   0.33333334  0.66666669  0.53868395
ZnIn2S4 bulk PBE-D3BJ relaxation        
           1
     3.907633   -0.000000   -0.000000
    -1.953816    3.384109    0.000000
     0.000000    0.000000   37.198605
   Zn   In   S 
   3   6  12
Direct configuration=     4
   0.66666669  0.33333334  0.10596492
   0.33333334  0.66666669  0.43929825
  -0.00000000 -0.00000000  0.77263156
  -0.00000000 -0.00000000  0.00334383
   0.66666669  0.33333334  0.33667717
   0.33333334  0.66666669  0.67001052
  -0.00000000 -0.00000000  0.23119210
   0.66666669  0.33333334  0.56452544
   0.33333334  0.66666669  0.89785875
   0.00000000  0.00000000  0.12353715
   0.66666669  0.33333334  0.45687048
   0.33333334  0.66666669  0.79020382
   0.00000000  0.00000000  0.29623624
   0.66666669  0.33333334  0.62956958
   0.33333334  0.66666669  0.96290290
   0.00000000  0.00000000  0.70284003
   0.66666669  0.33333334  0.03617336
   0.33333334  0.66666669  0.36950668
   0.00000000  0.00000000  0.87021911
   0.66666669  0.33333334  0.20355244
   0.33333334  0.66666669  0.53688580
ZnIn2S4 bulk PBE-D3BJ relaxation        
           1
     3.887435   -0.000000   -0.000000
    -1.943717    3.366617    0.000000
     0.000000    0.000000   37.227468
   Zn   In   S 
   3   6  12
Direct configuration=     5
   0.66666669  0.33333334  0.10672640
   0.33333334  0.66666669  0.44005973
  -0.00000000 -0.00000000  0.77339305
  -0.00000000 -0.00000000  0.00412131
   0.66666669  0.33333334  0.33745465
   0.33333334  0.66666669  0.67078799
  -0.00000000 -0.00000000  0.23118055
   0.66666669  0.33333334  0.56451389
   0.33333334  0.66666669  0.89784721
   0.00000000  0.00000000  0.12288214
   0.66666669  0.33333334  0.45621547
   0.33333334  0.66666669  0.78954881
   0.00000000  0.00000000  0.29654923
   0.66666669  0.33333334  0.62988257
   0.33333334  0.66666669  0.96321588
   0.00000000  0.00000000  0.70262260
   0.66666669  0.33333334  0.03595593
   0.33333334  0.66666669  0.36928925
   0.00000000  0.00000000  0.86925115
   0.66666669  0.33333334  0.20258448
   0.33333334  0.66666669  0.53591784
ZnIn2S4 bulk PBE-D3BJ relaxation        
           1
     3.881524   -0.000000   -0.000000
    -1.940762    3.361498    0.000000
     0.000000    0.000000   37.250937
   Zn   In   S 
   3   6  12
Direct configuration=     6
   0.66666669  0.33333334  0.10721938
   0.33333334  0.66666669  0.44055271
  -0.00000000 -0.00000000  0.77388602
  -0.00000000 -0.00000000  0.00388148
   0.66666669  0.33333334  0.33721482
   0.33333334  0.66666669  0.67054817
  -0.00000000 -0.00000000  0.23112012
   0.66666669  0.33333334  0.56445346
   0.33333334  0.66666669  0.89778678
   0.00000000  0.00000000  0.12232869
   0.66666669  0.33333334  0.45566202
   0.33333334  0.66666669  0.78899536
   0.00000000  0.00000000  0.29659385
   0.66666669  0.33333334  0.62992719
   0.33333334  0.66666669  0.96326050
   0.00000000  0.00000000  0.70356991
   0.66666669  0.33333334  0.03690324
   0.33333334  0.66666669  0.37023657
   0.00000000  0.00000000  0.86861994
   0.66666669  0.33333334  0.20195327
   0.33333334  0.66666669  0.53528663
ZnIn2S4 bulk PBE-D3BJ relaxation        
           1
     3.876866   -0.000000   -0.000000
    -1.938433    3.357464    0.000000
     0.000000    0.000000   37.269431
   Zn   In   S 
   3   6  12
Direct configuration=     7
   0.66666669  0.33333334  0.10760762
   0.33333334  0.66666669  0.44094095
  -0.00000000 -0.00000000  0.77427426
  -0.00000000 -0.00000000  0.00369261
   0.66666669  0.33333334  0.33702595
   0.33333334  0.66666669  0.67035930
  -0.00000000 -0.00000000  0.23107253
   0.66666669  0.33333334  0.56440587
   0.33333334  0.66666669  0.89773919
   0.00000000  0.00000000  0.12189283
   0.66666669  0.33333334  0.45522616
   0.33333334  0.66666669  0.78855950
   0.00000000  0.00000000  0.29662898
   0.66666669  0.33333334  0.62996233
   0.33333334  0.66666669  0.96329564
   0.00000000 -0.00000000  0.70431595
   0.66666669  0.33333334  0.03764928
   0.33333334  0.66666669  0.37098261
   0.00000000  0.00000000  0.86812285
   0.66666669  0.33333334  0.20145618
   0.33333334  0.66666669  0.53478954
ZnIn2S4 bulk PBE-D3BJ relaxation        
           1
     3.873750   -0.000000   -0.000000
    -1.936875    3.354766    0.000000
     0.000000   -0.000000   37.116101
   Zn   In   S 
   3   6  12
Direct configuration=     8
   0.66666669  0.33333334  0.10769707
   0.33333334  0.66666669  0.44103040
  -0.00000000 -0.00000000  0.77436372
  -0.00000000 -0.00000000  0.00399449
   0.66666669  0.33333334  0.33732783
   0.33333334  0.66666669  0.67066118
  -0.00000000 -0.00000000  0.23081163
   0.66666669  0.33333334  0.56414498
   0.33333334  0.66666669  0.89747829
   0.00000000  0.00000000  0.12181906
   0.66666669  0.33333334  0.45515239
   0.33333334  0.66666669  0.78848573
   0.00000000  0.00000000  0.29637137
   0.66666669  0.33333334  0.62970472
   0.33333334  0.66666669  0.96303803
   0.00000000 -0.00000000  0.70467555
   0.66666669  0.33333334  0.03800889
   0.33333334  0.66666669  0.37134221
   0.00000000  0.00000000  0.86796419
   0.66666669  0.33333334  0.20129752
   0.33333334  0.66666669  0.53463088
ZnIn2S4 bulk PBE-D3BJ relaxation        
           1
     3.871433   -0.000000    0.000000
    -1.935717    3.352760    0.000000
     0.000000   -0.000000   37.002060
   Zn   In   S 
   3   6  12
Direct configuration=     9
   0.66666669  0.33333334  0.10776388
   0.33333334  0.66666669  0.44109721
  -0.00000000 -0.00000000  0.77443052
  -0.00000000 -0.00000000  0.00421994
   0.66666669  0.33333334  0.33755329
   0.33333334  0.66666669  0.67088663
  -0.00000000 -0.00000000  0.23061679
   0.66666669  0.33333334  0.56395013
   0.33333334  0.66666669  0.89728344
   0.00000000  0.00000000  0.12176397
   0.66666669  0.33333334  0.45509730
   0.33333334  0.66666669  0.78843064
  -0.00000000 -0.00000000  0.29617898
   0.66666669  0.33333334  0.62951233
   0.33333334  0.66666669  0.96284564
   0.00000000  0.00000000  0.70494412
   0.66666669  0.33333334  0.03827745
   0.33333334  0.66666669  0.37161077
   0.00000000  0.00000000  0.86784570
   0.66666669  0.33333334  0.20117903
   0.33333334  0.66666669  0.53451238
ZnIn2S4 bulk PBE-D3BJ relaxation        
           1
     3.878997   -0.000000    0.000000
    -1.939499    3.359310    0.000000
     0.000000   -0.000000   36.960290
   Zn   In   S 
   3   6  12
Direct configuration=    10
   0.66666669  0.33333334  0.10781150
   0.33333334  0.66666669  0.44114483
  -0.00000000 -0.00000000  0.77447815
  -0.00000000  0.00000000  0.00449118
   0.66666669  0.33333334  0.33782453
   0.33333334  0.66666669  0.67115787
  -0.00000000 -0.00000000  0.23021366
   0.66666669  0.33333334  0.56354700
   0.33333334  0.66666669  0.89688031
   0.00000000  0.00000000  0.12184318
   0.66666669  0.33333334  0.45517651
   0.33333334  0.66666669  0.78850985
  -0.00000000 -0.00000000  0.29616126
   0.66666669  0.33333334  0.62949460
   0.33333334  0.66666669  0.96282791
   0.00000000  0.00000000  0.70520894
   0.66666669  0.33333334  0.03854227
   0.33333334  0.66666669  0.37187560
   0.00000000  0.00000000  0.86760365
   0.66666669  0.33333334  0.20093698
   0.33333334  0.66666669  0.53427034
ZnIn2S4 bulk PBE-D3BJ relaxation        
           1
     3.884101   -0.000000    0.000000
    -1.942050    3.363730    0.000000
     0.000000   -0.000000   36.932106
   Zn   In   S 
   3   6  12
Direct configuration=    11
   0.66666669  0.33333334  0.10784367
   0.33333334  0.66666669  0.44117700
  -0.00000000 -0.00000000  0.77451032
  -0.00000000  0.00000000  0.00467441
   0.66666669  0.33333334  0.33800775
   0.33333334  0.66666669  0.67134110
  -0.00000000 -0.00000000  0.22994134
   0.66666669  0.33333334  0.56327468
   0.33333334  0.66666669  0.89660799
   0.00000000  0.00000000  0.12189669
   0.66666669  0.33333334  0.45523002
   0.33333334  0.66666669  0.78856336
  -0.00000000 -0.00000000  0.29614928
   0.66666669  0.33333334  0.62948263
   0.33333334  0.66666669  0.96281594
   0.00000000  0.00000000  0.70538783
   0.66666669  0.33333334  0.03872116
   0.33333334  0.66666669  0.37205449
   0.00000000  0.00000000  0.86744015
   0.66666669  0.33333334  0.20077348
   0.33333334  0.66666669  0.53410683
ZnIn2S4 bulk PBE-D3BJ relaxation        
           1
     3.883971   -0.000000    0.000000
    -1.941986    3.363618    0.000000
     0.000000   -0.000000   36.803605
   Zn   In   S 
   3   6  12
Direct configuration=    12
   0.66666669  0.33333334  0.10789624
   0.33333334  0.66666669  0.44122957
  -0.00000000 -0.00000000  0.77456288
  -0.00000000  0.00000000  0.00474173
   0.66666669  0.33333334  0.33807507
   0.33333334  0.66666669  0.67140841
  -0.00000000 -0.00000000  0.22970359
   0.66666669  0.33333334  0.56303693
   0.33333334  0.66666669  0.89637024
   0.00000000  0.00000000  0.12207740
   0.66666669  0.33333334  0.45541073
   0.33333334  0.66666669  0.78874407
  -0.00000000 -0.00000000  0.29627711
   0.66666669  0.33333334  0.62961045
   0.33333334  0.66666669  0.96294377
   0.00000000  0.00000000  0.70547495
   0.66666669  0.33333334  0.03880828
   0.33333334  0.66666669  0.37214161
   0.00000000  0.00000000  0.86716236
   0.66666669  0.33333334  0.20049569
   0.33333334  0.66666669  0.53382905
ZnIn2S4 bulk PBE-D3BJ relaxation        
           1
     3.883678   -0.000000    0.000000
    -1.941839    3.363364    0.000000
    -0.000000   -0.000000   36.512757
   Zn   In   S 
   3   6  12
Direct configuration=    13
   0.66666669  0.33333334  0.10801563
   0.33333334  0.66666669  0.44134896
  -0.00000000 -0.00000000  0.77468227
   0.00000000  0.00000000  0.00489462
   0.66666669  0.33333334  0.33822797
   0.33333334  0.66666669  0.67156131
  -0.00000000 -0.00000000  0.22916359
   0.66666669  0.33333334  0.56249694
   0.33333334  0.66666669  0.89583025
   0.00000000  0.00000000  0.12248785
   0.66666669  0.33333334  0.45582118
   0.33333334  0.66666669  0.78915452
  -0.00000000 -0.00000000  0.29656744
   0.66666669  0.33333334  0.62990078
   0.33333334  0.66666669  0.96323409
   0.00000000  0.00000000  0.70567282
   0.66666669  0.33333334  0.03900615
   0.33333334  0.66666669  0.37233947
   0.00000000 -0.00000000  0.86653143
   0.66666669  0.33333334  0.19986475
   0.33333334  0.66666669  0.53319811
ZnIn2S4 bulk PBE-D3BJ relaxation        
           1
     3.883755   -0.000000    0.000000
    -1.941877    3.363430    0.000000
    -0.000000   -0.000000   36.589161
   Zn   In   S 
   3   6  12
Direct configuration=    14
   0.66666669  0.33333334  0.10798402
   0.33333334  0.66666669  0.44131735
  -0.00000000 -0.00000000  0.77465066
   0.00000000  0.00000000  0.00485414
   0.66666669  0.33333334  0.33818748
   0.33333334  0.66666669  0.67152083
  -0.00000000 -0.00000000  0.22930658
   0.66666669  0.33333334  0.56263992
   0.33333334  0.66666669  0.89597323
   0.00000000  0.00000000  0.12237917
   0.66666669  0.33333334  0.45571250
   0.33333334  0.66666669  0.78904584
  -0.00000000 -0.00000000  0.29649056
   0.66666669  0.33333334  0.62982390
   0.33333334  0.66666669  0.96315722
   0.00000000  0.00000000  0.70562042
   0.66666669  0.33333334  0.03895376
   0.33333334  0.66666669  0.37228708
   0.00000000  0.00000000  0.86669849
   0.66666669  0.33333334  0.20003182
   0.33333334  0.66666669  0.53336517
ZnIn2S4 bulk PBE-D3BJ relaxation        
           1
     3.889699   -0.000000    0.000000
    -1.944849    3.368578    0.000000
    -0.000000   -0.000000   36.491009
   Zn   In   S 
   3   6  12
Direct configuration=    15
   0.66666669  0.33333334  0.10807946
   0.33333334  0.66666669  0.44141279
  -0.00000000 -0.00000000  0.77474611
   0.00000000  0.00000000  0.00476728
   0.66666669  0.33333334  0.33810063
   0.33333334  0.66666669  0.67143397
  -0.00000000 -0.00000000  0.22925554
   0.66666669  0.33333334  0.56258888
   0.33333334  0.66666669  0.89592219
   0.00000000  0.00000000  0.12272391
   0.66666669  0.33333334  0.45605724
   0.33333334  0.66666669  0.78939058
  -0.00000000 -0.00000000  0.29643836
   0.66666669  0.33333334  0.62977171
   0.33333334  0.66666669  0.96310502
   0.00000000  0.00000000  0.70574734
   0.66666669  0.33333334  0.03908067
   0.33333334  0.66666669  0.37241400
   0.00000000 -0.00000000  0.86632147
   0.66666669  0.33333334  0.19965480
   0.33333334  0.66666669  0.53298816
ZnIn2S4 bulk PBE-D3BJ relaxation        
           1
     3.888644   -0.000000    0.000000
    -1.944322    3.367665    0.000000
    -0.000000   -0.000000   36.508420
   Zn   In   S 
   3   6  12
Direct configuration=    16
   0.66666669  0.33333334  0.10806249
   0.33333334  0.66666669  0.44139582
  -0.00000000 -0.00000000  0.77472913
   0.00000000  0.00000000  0.00478273
   0.66666669  0.33333334  0.33811608
   0.33333334  0.66666669  0.67144942
  -0.00000000 -0.00000000  0.22926462
   0.66666669  0.33333334  0.56259796
   0.33333334  0.66666669  0.89593127
   0.00000000  0.00000000  0.12266259
   0.66666669  0.33333334  0.45599592
   0.33333334  0.66666669  0.78932926
  -0.00000000 -0.00000000  0.29644765
   0.66666669  0.33333334  0.62978099
   0.33333334  0.66666669  0.96311431
   0.00000000  0.00000000  0.70572477
   0.66666669  0.33333334  0.03905810
   0.33333334  0.66666669  0.37239142
   0.00000000 -0.00000000  0.86638853
   0.66666669  0.33333334  0.19972186
   0.33333334  0.66666669  0.53305521
ZnIn2S4 bulk PBE-D3BJ relaxation        
           1
     3.885380   -0.000000    0.000000
    -1.942690    3.364838    0.000000
    -0.000000   -0.000000   36.510064
   Zn   In   S 
   3   6  12
Direct configuration=    17
   0.66666669  0.33333334  0.10819023
   0.33333334  0.66666669  0.44152356
  -0.00000000 -0.00000000  0.77485687
   0.00000000  0.00000000  0.00468467
   0.66666669  0.33333334  0.33801801
   0.33333334  0.66666669  0.67135136
  -0.00000000 -0.00000000  0.22915589
   0.66666669  0.33333334  0.56248924
   0.33333334  0.66666669  0.89582255
   0.00000000  0.00000000  0.12293662
   0.66666669  0.33333334  0.45626995
   0.33333334  0.66666669  0.78960329
  -0.00000000 -0.00000000  0.29635799
   0.66666669  0.33333334  0.62969134
   0.33333334  0.66666669  0.96302465
   0.00000000  0.00000000  0.70575307
   0.66666669  0.33333334  0.03908640
   0.33333334  0.66666669  0.37241972
  -0.00000000 -0.00000000  0.86625490
   0.66666669  0.33333334  0.19958823
   0.33333334  0.66666669  0.53292159
ZnIn2S4 bulk PBE-D3BJ relaxation        
           1
     3.881542   -0.000000    0.000000
    -1.940771    3.361514    0.000000
    -0.000000   -0.000000   36.511999
   Zn   In   S 
   3   6  12
Direct configuration=    18
   0.66666669  0.33333334  0.10834045
   0.33333334  0.66666669  0.44167378
  -0.00000000  0.00000000  0.77500709
   0.00000000  0.00000000  0.00456935
   0.66666669  0.33333334  0.33790269
   0.33333334  0.66666669  0.67123604
  -0.00000000 -0.00000000  0.22902804
   0.66666669  0.33333334  0.56236138
   0.33333334  0.66666669  0.89569469
   0.00000000  0.00000000  0.12325888
   0.66666669  0.33333334  0.45659220
   0.33333334  0.66666669  0.78992555
  -0.00000000 -0.00000000  0.29625256
   0.66666669  0.33333334  0.62958590
   0.33333334  0.66666669  0.96291922
   0.00000000  0.00000000  0.70578635
   0.66666669  0.33333334  0.03911968
   0.33333334  0.66666669  0.37245300
  -0.00000000 -0.00000000  0.86609775
   0.66666669  0.33333334  0.19943108
   0.33333334  0.66666669  0.53276444
ZnIn2S4 bulk PBE-D3BJ relaxation        
           1
     3.873865   -0.000000    0.000000
    -1.936933    3.354866    0.000000
    -0.000000   -0.000000   36.515867
   Zn   In   S 
   3   6  12
Direct configuration=    19
   0.66666669  0.33333334  0.10864088
   0.33333334  0.66666669  0.44197420
  -0.00000000  0.00000000  0.77530752
   0.00000000  0.00000000  0.00433872
   0.66666669  0.33333334  0.33767206
   0.33333334  0.66666669  0.67100541
  -0.00000000 -0.00000000  0.22877233
   0.66666669  0.33333334  0.56210568
   0.33333334  0.66666669  0.89543899
   0.00000000  0.00000000  0.12390335
   0.66666669  0.33333334  0.45723668
   0.33333334  0.66666669  0.79057003
  -0.00000000 -0.00000000  0.29604171
   0.66666669  0.33333334  0.62937505
   0.33333334  0.66666669  0.96270836
   0.00000000  0.00000000  0.70585291
   0.66666669  0.33333334  0.03918624
   0.33333334  0.66666669  0.37251956
  -0.00000000 -0.00000000  0.86578348
   0.66666669  0.33333334  0.19911681
   0.33333334  0.66666669  0.53245016
ZnIn2S4 bulk PBE-D3BJ relaxation        
           1
     3.879716   -0.000000    0.000000
    -1.939858    3.359932    0.000000
    -0.000000   -0.000000   36.512919
   Zn   In   S 
   3   6  12
Direct configuration=    20
   0.66666669  0.33333334  0.10841196
   0.33333334  0.66666669  0.44174528
  -0.00000000  0.00000000  0.77507860
   0.00000000  0.00000000  0.00451446
   0.66666669  0.33333334  0.33784780
   0.33333334  0.66666669  0.67118114
  -0.00000000 -0.00000000  0.22896717
   0.66666669  0.33333334  0.56230052
   0.33333334  0.66666669  0.89563383
   0.00000000  0.00000000  0.12341227
   0.66666669  0.33333334  0.45674560
   0.33333334  0.66666669  0.79007894
  -0.00000000 -0.00000000  0.29620237
   0.66666669  0.33333334  0.62953572
   0.33333334  0.66666669  0.96286903
   0.00000000  0.00000000  0.70580219
   0.66666669  0.33333334  0.03913552
   0.33333334  0.66666669  0.37246885
  -0.00000000 -0.00000000  0.86602295
   0.66666669  0.33333334  0.19935628
   0.33333334  0.66666669  0.53268964
ZnIn2S4 bulk PBE-D3BJ relaxation        
           1
     3.883354   -0.000000    0.000000
    -1.941677    3.363083    0.000000
    -0.000000   -0.000000   36.531564
   Zn   In   S 
   3   6  12
Direct configuration=    21
   0.66666669  0.33333334  0.10851596
   0.33333334  0.66666669  0.44184929
  -0.00000000  0.00000000  0.77518260
   0.00000000  0.00000000  0.00451643
   0.66666669  0.33333334  0.33784978
   0.33333334  0.66666669  0.67118312
  -0.00000000 -0.00000000  0.22885938
   0.66666669  0.33333334  0.56219273
   0.33333334  0.66666669  0.89552604
   0.00000000  0.00000000  0.12358431
   0.66666669  0.33333334  0.45691764
   0.33333334  0.66666669  0.79025099
  -0.00000000 -0.00000000  0.29604832
   0.66666669  0.33333334  0.62938166
   0.33333334  0.66666669  0.96271498
   0.00000000  0.00000000  0.70576399
   0.66666669  0.33333334  0.03909732
   0.33333334  0.66666669  0.37243065
  -0.00000000 -0.00000000  0.86604497
   0.66666669  0.33333334  0.19937830
   0.33333334  0.66666669  0.53271166
ZnIn2S4 bulk PBE-D3BJ relaxation        
           1
     3.882623   -0.000000    0.000000
    -1.941311    3.362450    0.000000
    -0.000000   -0.000000   36.527816
   Zn   In   S 
   3   6  12
Direct configuration=    22
   0.66666669  0.33333334  0.10849507
   0.33333334  0.66666669  0.44182839
  -0.00000000  0.00000000  0.77516171
   0.00000000  0.00000000  0.00451604
   0.66666669  0.33333334  0.33784938
   0.33333334  0.66666669  0.67118272
  -0.00000000 -0.00000000  0.22888104
   0.66666669  0.33333334  0.56221438
   0.33333334  0.66666669  0.89554769
   0.00000000  0.00000000  0.12354975
   0.66666669  0.33333334  0.45688308
   0.33333334  0.66666669  0.79021642
  -0.00000000 -0.00000000  0.29607927
   0.66666669  0.33333334  0.62941261
   0.33333334  0.66666669  0.96274593
   0.00000000  0.00000000  0.70577167
   0.66666669  0.33333334  0.03910500
   0.33333334  0.66666669  0.37243832
  -0.00000000 -0.00000000  0.86604055
   0.66666669  0.33333334  0.19937387
   0.33333334  0.66666669  0.53270723
ZnIn2S4 bulk PBE-D3BJ relaxation        
           1
     3.881733   -0.000000    0.000000
    -1.940866    3.361679    0.000000
    -0.000000   -0.000000   36.493585
   Zn   In   S 
   3   6  12
Direct configuration=    23
   0.66666669  0.33333334  0.10858758
   0.33333334  0.66666669  0.44192091
  -0.00000000  0.00000000  0.77525423
   0.00000000  0.00000000  0.00450560
   0.66666669  0.33333334  0.33783894
   0.33333334  0.66666669  0.67117229
  -0.00000000 -0.00000000  0.22879147
   0.66666669  0.33333334  0.56212481
   0.33333334  0.66666669  0.89545812
   0.00000000  0.00000000  0.12361438
   0.66666669  0.33333334  0.45694771
   0.33333334  0.66666669  0.79028106
  -0.00000000 -0.00000000  0.29599629
   0.66666669  0.33333334  0.62932963
   0.33333334  0.66666669  0.96266295
   0.00000000  0.00000000  0.70571156
   0.66666669  0.33333334  0.03904489
   0.33333334  0.66666669  0.37237821
  -0.00000000 -0.00000000  0.86612649
   0.66666669  0.33333334  0.19945982
   0.33333334  0.66666669  0.53279318
ZnIn2S4 bulk PBE-D3BJ relaxation        
           1
     3.882068   -0.000000    0.000000
    -1.941034    3.361969    0.000000
    -0.000000   -0.000000   36.506457
   Zn   In   S 
   3   6  12
Direct configuration=    24
   0.66666669  0.33333334  0.10855276
   0.33333334  0.66666669  0.44188609
  -0.00000000  0.00000000  0.77521940
   0.00000000  0.00000000  0.00450953
   0.66666669  0.33333334  0.33784287
   0.33333334  0.66666669  0.67117621
  -0.00000000 -0.00000000  0.22882518
   0.66666669  0.33333334  0.56215852
   0.33333334  0.66666669  0.89549184
   0.00000000  0.00000000  0.12359006
   0.66666669  0.33333334  0.45692339
   0.33333334  0.66666669  0.79025673
  -0.00000000 -0.00000000  0.29602752
   0.66666669  0.33333334  0.62936086
   0.33333334  0.66666669  0.96269418
   0.00000000  0.00000000  0.70573418
   0.66666669  0.33333334  0.03906751
   0.33333334  0.66666669  0.37240084
  -0.00000000 -0.00000000  0.86609414
   0.66666669  0.33333334  0.19942747
   0.33333334  0.66666669  0.53276083
ZnIn2S4 bulk PBE-D3BJ relaxation        
           1
     3.883399   -0.000000    0.000000
    -1.941699    3.363122    0.000000
    -0.000000   -0.000000   36.494483
   Zn   In   S 
   3   6  12
Direct configuration=    25
   0.66666669  0.33333334  0.10859869
   0.33333334  0.66666669  0.44193202
  -0.00000000  0.00000000  0.77526533
   0.00000000  0.00000000  0.00446460
   0.66666669  0.33333334  0.33779794
   0.33333334  0.66666669  0.67113129
  -0.00000000 -0.00000000  0.22881194
   0.66666669  0.33333334  0.56214529
   0.33333334  0.66666669  0.89547860
   0.00000000  0.00000000  0.12359033
   0.66666669  0.33333334  0.45692366
   0.33333334  0.66666669  0.79025701
  -0.00000000 -0.00000000  0.29602671
   0.66666669  0.33333334  0.62936005
   0.33333334  0.66666669  0.96269337
   0.00000000  0.00000000  0.70571997
   0.66666669  0.33333334  0.03905331
   0.33333334  0.66666669  0.37238663
  -0.00000000 -0.00000000  0.86612112
   0.66666669  0.33333334  0.19945445
   0.33333334  0.66666669  0.53278781
