       N       E                     dE             d eps       ncg     rms          rms(c)
DAV:   1     0.214034275850E+04    0.21403E+04   -0.77955E+04 62728   0.189E+03
DAV:   2     0.368147458657E+03   -0.17722E+04   -0.17235E+04 62728   0.528E+02
DAV:   3    -0.247272217086E+02   -0.39287E+03   -0.37203E+03 70912   0.224E+02
DAV:   4    -0.667768871763E+02   -0.42050E+02   -0.41015E+02 77360   0.697E+01
DAV:   5    -0.687212275393E+02   -0.19443E+01   -0.19282E+01 80496   0.160E+01
DAV:   6    -0.688222456522E+02   -0.10102E+00   -0.10090E+00 96264   0.339E+00
DAV:   7    -0.688246006480E+02   -0.23550E-02   -0.23539E-02 93680   0.496E-01
DAV:   8    -0.688247039804E+02   -0.10333E-03   -0.10331E-03 97312   0.103E-01
DAV:   9    -0.688247074021E+02   -0.34217E-05   -0.34210E-05 94576   0.193E-02
DAV:  10    -0.688247075741E+02   -0.17198E-06   -0.17215E-06 83432   0.416E-03
DAV:  11    -0.688247075816E+02   -0.74760E-08   -0.76318E-08 48408   0.110E-03
   1 F= -.75138172E+02 E0= -.75138171E+02  d E =-.846657E-06
