       N       E                     dE             d eps       ncg     rms          rms(c)
DAV:   1     0.132280235477E+04    0.13228E+04   -0.52833E+04 23736   0.176E+03
DAV:   2     0.197002705874E+03   -0.11258E+04   -0.10799E+04 23680   0.489E+02
DAV:   3    -0.318370282155E+02   -0.22884E+03   -0.21789E+03 26832   0.203E+02
DAV:   4    -0.523450795033E+02   -0.20508E+02   -0.20157E+02 29128   0.596E+01
DAV:   5    -0.532549065849E+02   -0.90983E+00   -0.90652E+00 31328   0.136E+01
DAV:   6    -0.532983857183E+02   -0.43479E-01   -0.43465E-01 35984   0.256E+00
DAV:   7    -0.532992844636E+02   -0.89875E-03   -0.89868E-03 36304   0.362E-01
DAV:   8    -0.532993137102E+02   -0.29247E-04   -0.29246E-04 36336   0.673E-02
DAV:   9    -0.532993146142E+02   -0.90402E-06   -0.90399E-06 36224   0.123E-02
DAV:  10    -0.532993146513E+02   -0.37151E-07   -0.37197E-07 25712   0.264E-03
   1 F= -.57504121E+02 E0= -.57504121E+02  d E =0.000000E+00
