  14  14   0   0
  0.2298595E+02  0.3889649E-09  0.3889649E-09  0.2456060E-08  0.5000000E-15
  1.000000000000000E-004
  CAR 
 ZnIn2S4 bulk final static SCF           
     13.31983863    -13.39629333  301      4.19182688      1.00000000
    -13.396  0.0000E+00  0.0000E+00
    -13.307  0.0000E+00  0.0000E+00
    -13.218  0.0000E+00  0.0000E+00
    -13.129  0.0000E+00  0.0000E+00
    -13.040  0.0000E+00  0.0000E+00
    -12.951  0.0000E+00  0.0000E+00
    -12.862  0.0000E+00  0.0000E+00
    -12.773  0.0000E+00  0.0000E+00
    -12.684  0.0000E+00  0.0000E+00
    -12.595  0.0000E+00  0.0000E+00
    -12.506  0.0000E+00  0.0000E+00
    -12.417  0.0000E+00  0.0000E+00
    -12.328  0.0000E+00  0.0000E+00
    -12.239  0.0000E+00  0.0000E+00
    -12.150  0.0000E+00  0.0000E+00
    -12.060  0.0000E+00  0.0000E+00
    -11.971  0.0000E+00  0.0000E+00
    -11.882  0.0000E+00  0.0000E+00
    -11.793  0.0000E+00  0.0000E+00
    -11.704  0.0000E+00  0.0000E+00
    -11.615  0.0000E+00  0.0000E+00
    -11.526  0.0000E+00  0.0000E+00
    -11.437  0.0000E+00  0.0000E+00
    -11.348  0.1960E+02  0.2130E+01
    -11.259  0.1039E+02  0.3295E+01
    -11.170  0.0000E+00  0.4000E+01
    -11.081  0.2039E+02  0.7425E+01
    -10.992  0.1973E+02  0.8256E+01
    -10.903  0.0000E+00  0.1200E+02
    -10.814  0.0000E+00  0.2000E+02
    -10.725  0.0000E+00  0.2000E+02
    -10.636  0.0000E+00  0.2000E+02
    -10.547  0.0000E+00  0.2000E+02
    -10.458  0.0000E+00  0.2000E+02
    -10.368  0.0000E+00  0.2000E+02
    -10.279  0.3131E+02  0.2133E+02
    -10.190  0.7689E+01  0.2297E+02
    -10.101  0.4995E+01  0.2353E+02
    -10.012  0.1536E+02  0.2444E+02
     -9.923  0.4727E+02  0.2791E+02
     -9.834  0.2680E+03  0.3208E+02
     -9.745  0.9525E+00  0.4010E+02
     -9.656  0.1580E+01  0.4021E+02
     -9.567  0.1360E+01  0.4033E+02
     -9.478  0.1506E+01  0.4046E+02
     -9.389  0.1530E+01  0.4059E+02
     -9.300  0.1636E+01  0.4074E+02
     -9.211  0.1730E+01  0.4089E+02
     -9.122  0.1834E+01  0.4104E+02
     -9.033  0.1977E+01  0.4121E+02
     -8.944  0.2114E+01  0.4140E+02
     -8.855  0.2975E+01  0.4160E+02
     -8.765  0.4632E+01  0.4197E+02
     -8.676  0.5148E+01  0.4242E+02
     -8.587  0.7154E+01  0.4295E+02
     -8.498  0.9056E+01  0.4363E+02
     -8.409  0.8396E+01  0.4443E+02
     -8.320  0.8385E+01  0.4526E+02
     -8.231  0.6555E+01  0.4596E+02
     -8.142  0.5110E+01  0.4640E+02
     -8.053  0.6150E+01  0.4689E+02
     -7.964  0.1015E+02  0.4762E+02
     -7.875  0.1001E+02  0.4859E+02
     -7.786  0.1017E+02  0.4955E+02
     -7.697  0.1042E+02  0.5041E+02
     -7.608  0.7141E+01  0.5117E+02
     -7.519  0.2120E+01  0.5240E+02
     -7.430  0.2381E+01  0.5260E+02
     -7.341  0.2797E+01  0.5283E+02
     -7.252  0.3166E+01  0.5310E+02
     -7.163  0.4230E+01  0.5342E+02
     -7.073  0.5151E+01  0.5384E+02
     -6.984  0.9893E+01  0.5452E+02
     -6.895  0.0000E+00  0.5600E+02
     -6.806  0.0000E+00  0.5600E+02
     -6.717  0.0000E+00  0.5600E+02
     -6.628  0.0000E+00  0.5600E+02
     -6.539  0.0000E+00  0.5600E+02
     -6.450  0.0000E+00  0.5600E+02
     -6.361  0.0000E+00  0.5600E+02
     -6.272  0.0000E+00  0.5600E+02
     -6.183  0.0000E+00  0.5600E+02
     -6.094  0.0000E+00  0.5600E+02
     -6.005  0.0000E+00  0.5600E+02
     -5.916  0.0000E+00  0.5600E+02
     -5.827  0.0000E+00  0.5600E+02
     -5.738  0.0000E+00  0.5600E+02
     -5.649  0.0000E+00  0.5600E+02
     -5.560  0.0000E+00  0.5600E+02
     -5.471  0.0000E+00  0.5600E+02
     -5.381  0.0000E+00  0.5600E+02
     -5.292  0.0000E+00  0.5600E+02
     -5.203  0.0000E+00  0.5600E+02
     -5.114  0.0000E+00  0.5600E+02
     -5.025  0.0000E+00  0.5600E+02
     -4.936  0.0000E+00  0.5600E+02
     -4.847  0.0000E+00  0.5600E+02
     -4.758  0.0000E+00  0.5600E+02
     -4.669  0.0000E+00  0.5600E+02
     -4.580  0.0000E+00  0.5600E+02
     -4.491  0.0000E+00  0.5600E+02
     -4.402  0.0000E+00  0.5600E+02
     -4.313  0.0000E+00  0.5600E+02
     -4.224  0.0000E+00  0.5600E+02
     -4.135  0.0000E+00  0.5600E+02
     -4.046  0.0000E+00  0.5600E+02
     -3.957  0.0000E+00  0.5600E+02
     -3.868  0.0000E+00  0.5600E+02
     -3.778  0.0000E+00  0.5600E+02
     -3.689  0.0000E+00  0.5600E+02
     -3.600  0.0000E+00  0.5600E+02
     -3.511  0.0000E+00  0.5600E+02
     -3.422  0.0000E+00  0.5600E+02
     -3.333  0.0000E+00  0.5600E+02
     -3.244  0.0000E+00  0.5600E+02
     -3.155  0.0000E+00  0.5600E+02
     -3.066  0.0000E+00  0.5600E+02
     -2.977  0.0000E+00  0.5600E+02
     -2.888  0.0000E+00  0.5600E+02
     -2.799  0.0000E+00  0.5600E+02
     -2.710  0.0000E+00  0.5600E+02
     -2.621  0.2595E+01  0.5615E+02
     -2.532  0.3999E+01  0.5639E+02
     -2.443  0.5860E+01  0.5699E+02
     -2.354  0.4658E+01  0.5753E+02
     -2.265  0.4556E+01  0.5794E+02
     -2.176  0.6384E+01  0.5916E+02
     -2.086  0.2943E+02  0.6053E+02
     -1.997  0.2847E+02  0.6281E+02
     -1.908  0.5571E+02  0.6589E+02
     -1.819  0.2172E+02  0.6942E+02
     -1.730  0.1821E+02  0.7319E+02
     -1.641  0.4991E+01  0.7375E+02
     -1.552  0.2891E+02  0.7511E+02
     -1.463  0.3330E+02  0.7867E+02
     -1.374  0.1768E+02  0.8073E+02
     -1.285  0.3658E+01  0.8166E+02
     -1.196  0.2686E+01  0.8193E+02
     -1.107  0.2210E+01  0.8214E+02
     -1.018  0.1686E+01  0.8231E+02
     -0.929  0.1593E+01  0.8246E+02
     -0.840  0.1500E+01  0.8259E+02
     -0.751  0.1370E+01  0.8272E+02
     -0.662  0.1366E+01  0.8284E+02
     -0.573  0.3352E+01  0.8303E+02
     -0.483  0.3790E+01  0.8341E+02
     -0.394  0.3251E+01  0.8371E+02
     -0.305  0.4146E+01  0.8406E+02
     -0.216  0.1114E+02  0.8450E+02
     -0.127  0.1503E+02  0.8540E+02
     -0.038  0.1106E+02  0.8652E+02
      0.051  0.1226E+02  0.8753E+02
      0.140  0.9925E+01  0.8849E+02
      0.229  0.9339E+01  0.8943E+02
      0.318  0.8837E+01  0.9028E+02
      0.407  0.7689E+01  0.9099E+02
      0.496  0.7579E+01  0.9167E+02
      0.585  0.1200E+02  0.9254E+02
      0.674  0.1389E+02  0.9356E+02
      0.763  0.1321E+02  0.9478E+02
      0.852  0.8323E+01  0.9567E+02
      0.941  0.7455E+01  0.9636E+02
      1.030  0.6519E+01  0.9699E+02
      1.119  0.8015E+01  0.9769E+02
      1.209  0.7178E+01  0.9837E+02
      1.298  0.7306E+01  0.9899E+02
      1.387  0.1017E+02  0.1000E+03
      1.476  0.1255E+02  0.1010E+03
      1.565  0.1144E+02  0.1020E+03
      1.654  0.1081E+02  0.1030E+03
      1.743  0.1067E+02  0.1040E+03
      1.832  0.1079E+02  0.1049E+03
      1.921  0.9161E+01  0.1058E+03
      2.010  0.7396E+01  0.1066E+03
      2.099  0.1317E+02  0.1075E+03
      2.188  0.1019E+02  0.1087E+03
      2.277  0.7333E+01  0.1094E+03
      2.366  0.6710E+01  0.1100E+03
      2.455  0.6758E+01  0.1106E+03
      2.544  0.7881E+01  0.1113E+03
      2.633  0.1172E+02  0.1121E+03
      2.722  0.9245E+01  0.1129E+03
      2.811  0.1767E+02  0.1139E+03
      2.901  0.7018E+01  0.1149E+03
      2.990  0.6329E+01  0.1155E+03
      3.079  0.1171E+02  0.1161E+03
      3.168  0.1581E+02  0.1176E+03
      3.257  0.9627E+01  0.1185E+03
      3.346  0.1599E+02  0.1195E+03
      3.435  0.1041E+02  0.1211E+03
      3.524  0.6909E+01  0.1218E+03
      3.613  0.3656E+01  0.1223E+03
      3.702  0.3123E+01  0.1226E+03
      3.791  0.3266E+01  0.1228E+03
      3.880  0.2603E+01  0.1231E+03
      3.969  0.2365E+01  0.1233E+03
      4.058  0.2879E+01  0.1235E+03
      4.147  0.5508E+01  0.1240E+03
      4.236  0.0000E+00  0.1240E+03
      4.325  0.0000E+00  0.1240E+03
      4.414  0.0000E+00  0.1240E+03
      4.504  0.3011E-02  0.1240E+03
      4.593  0.3520E-01  0.1240E+03
      4.682  0.1100E+00  0.1240E+03
      4.771  0.1941E+00  0.1240E+03
      4.860  0.2367E+00  0.1240E+03
      4.949  0.2174E+00  0.1241E+03
      5.038  0.2394E+00  0.1241E+03
      5.127  0.2615E+00  0.1241E+03
      5.216  0.3269E+00  0.1241E+03
      5.305  0.5299E+00  0.1242E+03
      5.394  0.7379E+00  0.1242E+03
      5.483  0.1785E+01  0.1243E+03
      5.572  0.2516E+01  0.1245E+03
      5.661  0.3398E+01  0.1248E+03
      5.750  0.4557E+01  0.1251E+03
      5.839  0.6201E+01  0.1257E+03
      5.928  0.4728E+01  0.1261E+03
      6.017  0.4249E+01  0.1265E+03
      6.106  0.6806E+01  0.1270E+03
      6.196  0.6495E+01  0.1275E+03
      6.285  0.6963E+01  0.1282E+03
      6.374  0.8386E+01  0.1288E+03
      6.463  0.6858E+01  0.1295E+03
      6.552  0.9486E+01  0.1302E+03
      6.641  0.4415E+01  0.1309E+03
      6.730  0.3805E+01  0.1312E+03
      6.819  0.8200E+01  0.1317E+03
      6.908  0.4260E+01  0.1321E+03
      6.997  0.1991E+01  0.1323E+03
      7.086  0.2830E+01  0.1325E+03
      7.175  0.2873E+01  0.1328E+03
      7.264  0.3134E+01  0.1331E+03
      7.353  0.3281E+01  0.1334E+03
      7.442  0.3741E+01  0.1337E+03
      7.531  0.4338E+01  0.1340E+03
      7.620  0.6665E+01  0.1346E+03
      7.709  0.5675E+01  0.1352E+03
      7.799  0.4897E+01  0.1356E+03
      7.888  0.3311E+01  0.1360E+03
      7.977  0.3414E+01  0.1364E+03
      8.066  0.3146E+01  0.1367E+03
      8.155  0.2637E+01  0.1370E+03
      8.244  0.2655E+01  0.1372E+03
      8.333  0.3059E+01  0.1375E+03
      8.422  0.2889E+01  0.1379E+03
      8.511  0.5456E+01  0.1383E+03
      8.600  0.7945E+01  0.1388E+03
      8.689  0.7494E+01  0.1395E+03
      8.778  0.8205E+01  0.1402E+03
      8.867  0.1622E+02  0.1412E+03
      8.956  0.1210E+02  0.1425E+03
      9.045  0.5967E+01  0.1432E+03
      9.134  0.6325E+01  0.1438E+03
      9.223  0.7967E+01  0.1445E+03
      9.312  0.1158E+02  0.1454E+03
      9.401  0.1132E+02  0.1464E+03
      9.491  0.1184E+02  0.1475E+03
      9.580  0.8512E+01  0.1483E+03
      9.669  0.1156E+02  0.1493E+03
      9.758  0.4726E+01  0.1499E+03
      9.847  0.7512E+01  0.1504E+03
      9.936  0.1069E+02  0.1513E+03
     10.025  0.6571E+01  0.1519E+03
     10.114  0.6434E+01  0.1525E+03
     10.203  0.1103E+02  0.1532E+03
     10.292  0.6898E+01  0.1540E+03
     10.381  0.6228E+01  0.1546E+03
     10.470  0.9750E+01  0.1552E+03
     10.559  0.8249E+01  0.1560E+03
     10.648  0.6136E+01  0.1566E+03
     10.737  0.9253E+01  0.1573E+03
     10.826  0.8753E+01  0.1581E+03
     10.915  0.4015E+01  0.1587E+03
     11.004  0.7465E+01  0.1591E+03
     11.093  0.4329E+01  0.1598E+03
     11.183  0.4952E+00  0.1600E+03
     11.272  0.1219E+00  0.1600E+03
     11.361  0.0000E+00  0.1600E+03
     11.450  0.0000E+00  0.1600E+03
     11.539  0.0000E+00  0.1600E+03
     11.628  0.0000E+00  0.1600E+03
     11.717  0.0000E+00  0.1600E+03
     11.806  0.0000E+00  0.1600E+03
     11.895  0.0000E+00  0.1600E+03
     11.984  0.0000E+00  0.1600E+03
     12.073  0.0000E+00  0.1600E+03
     12.162  0.0000E+00  0.1600E+03
     12.251  0.0000E+00  0.1600E+03
     12.340  0.0000E+00  0.1600E+03
     12.429  0.0000E+00  0.1600E+03
     12.518  0.0000E+00  0.1600E+03
     12.607  0.0000E+00  0.1600E+03
     12.696  0.0000E+00  0.1600E+03
     12.786  0.0000E+00  0.1600E+03
     12.875  0.0000E+00  0.1600E+03
     12.964  0.0000E+00  0.1600E+03
     13.053  0.0000E+00  0.1600E+03
     13.142  0.0000E+00  0.1600E+03
     13.231  0.0000E+00  0.1600E+03
     13.320  0.0000E+00  0.1600E+03
