       N       E                     dE             d eps       ncg     rms          rms(c)
DAV:   1     0.132904192099E+04    0.13290E+04   -0.52457E+04 11072   0.174E+03
DAV:   2     0.198209093921E+03   -0.11308E+04   -0.10821E+04 11080   0.476E+02
DAV:   3    -0.352108563250E+02   -0.23342E+03   -0.22320E+03 12632   0.203E+02
DAV:   4    -0.558248272798E+02   -0.20614E+02   -0.20328E+02 13800   0.592E+01
DAV:   5    -0.567554426298E+02   -0.93062E+00   -0.92846E+00 15120   0.137E+01    0.196E+01
DAV:   6    -0.532657608251E+02    0.34897E+01   -0.53274E+00 17896   0.393E+01    0.142E+01
DAV:   7    -0.534335257163E+02   -0.16776E+00   -0.70644E+00 15080   0.120E+01    0.403E+00
DAV:   8    -0.532876435097E+02    0.14588E+00   -0.96348E-01 16008   0.692E+00    0.314E+00
DAV:   9    -0.532902387053E+02   -0.25952E-02   -0.18569E-01 13408   0.164E+00    0.117E+00
DAV:  10    -0.532916213135E+02   -0.13826E-02   -0.19056E-02 15360   0.729E-01    0.779E-01
DAV:  11    -0.532924103724E+02   -0.78906E-03   -0.48597E-03 15120   0.319E-01    0.237E-01
DAV:  12    -0.532923475112E+02    0.62861E-04   -0.91270E-04 16040   0.207E-01    0.119E-01
DAV:  13    -0.532924043295E+02   -0.56818E-04   -0.31362E-04 15792   0.834E-02    0.674E-02
DAV:  14    -0.532924174860E+02   -0.13157E-04   -0.10067E-04 16232   0.653E-02    0.369E-02
DAV:  15    -0.532924213681E+02   -0.38820E-05   -0.32045E-05 13600   0.450E-02    0.160E-02
DAV:  16    -0.532924222198E+02   -0.85170E-06   -0.57473E-06 16192   0.122E-02    0.110E-02
DAV:  17    -0.532924224975E+02   -0.27777E-06   -0.90589E-07 12104   0.479E-03    0.428E-03
DAV:  18    -0.532924223269E+02    0.17067E-06   -0.42550E-07 11824   0.442E-03    0.346E-03
DAV:  19    -0.532924223425E+02   -0.15658E-07   -0.13937E-07  8784   0.148E-03
   1 F= -.57450836E+02 E0= -.57450836E+02  d E =0.000000E+00
