In2 S4 Zn
   1.00000000000000
     3.8896490696427954    0.0000000000000015   -0.0000000000000002
    -1.9448245348213975    3.3685349061668703    0.0000000000000003
    -0.0000000000000031   -0.0000000000000016   24.5605989224715522
   In   S    Zn
     4     8     2
Direct
 -0.0000000000000000  0.0000000000000000  0.2695397047011173
  0.0000000000000000 -0.0000000000000000  0.7304602952988823
  0.3333333429999996  0.6666666870000029  0.1064598206323779
  0.6666666269999979  0.3333333129999971  0.8935401793676223
  0.3333333429999996  0.6666666870000029  0.2039095619025688
  0.6666666269999979  0.3333333129999971  0.7960904670974375
  0.3333333429999996  0.6666666870000029  0.9402188091297136
  0.6666666269999979  0.3333333129999971  0.0597811908702861
  0.3333333429999996  0.6666666870000029  0.6813854957467465
  0.6666666269999979  0.3333333129999971  0.3186145042532532
  0.3333333429999996  0.6666666870000029  0.4369447734782060
  0.6666666269999979  0.3333333129999971  0.5630552265217941
  0.3333333429999996  0.6666666870000029  0.5417033020189626
  0.6666666269999979  0.3333333129999971  0.4582966979810374

  0.00000000E+00  0.00000000E+00  0.00000000E+00
  0.00000000E+00  0.00000000E+00  0.00000000E+00
  0.00000000E+00  0.00000000E+00  0.00000000E+00
  0.00000000E+00  0.00000000E+00  0.00000000E+00
  0.00000000E+00  0.00000000E+00  0.00000000E+00
  0.00000000E+00  0.00000000E+00  0.00000000E+00
  0.00000000E+00  0.00000000E+00  0.00000000E+00
  0.00000000E+00  0.00000000E+00  0.00000000E+00
  0.00000000E+00  0.00000000E+00  0.00000000E+00
  0.00000000E+00  0.00000000E+00  0.00000000E+00
  0.00000000E+00  0.00000000E+00  0.00000000E+00
  0.00000000E+00  0.00000000E+00  0.00000000E+00
  0.00000000E+00  0.00000000E+00  0.00000000E+00
  0.00000000E+00  0.00000000E+00  0.00000000E+00
