  21  21   0   0
  0.2269669E+02  0.3883399E-09  0.3883399E-09  0.3649448E-08  0.5000000E-15
  1.000000000000000E-004
  CAR 
 ZnIn2S4 bulk final static SCF           
     12.71060865    -13.20724293  301      4.52488720      1.00000000
    -13.207  0.0000E+00  0.0000E+00
    -13.121  0.0000E+00  0.0000E+00
    -13.034  0.0000E+00  0.0000E+00
    -12.948  0.0000E+00  0.0000E+00
    -12.862  0.0000E+00  0.0000E+00
    -12.775  0.0000E+00  0.0000E+00
    -12.689  0.0000E+00  0.0000E+00
    -12.602  0.0000E+00  0.0000E+00
    -12.516  0.0000E+00  0.0000E+00
    -12.430  0.0000E+00  0.0000E+00
    -12.343  0.0000E+00  0.0000E+00
    -12.257  0.0000E+00  0.0000E+00
    -12.171  0.0000E+00  0.0000E+00
    -12.084  0.0000E+00  0.0000E+00
    -11.998  0.0000E+00  0.0000E+00
    -11.911  0.0000E+00  0.0000E+00
    -11.825  0.0000E+00  0.0000E+00
    -11.739  0.0000E+00  0.0000E+00
    -11.652  0.0000E+00  0.0000E+00
    -11.566  0.0000E+00  0.0000E+00
    -11.479  0.0000E+00  0.0000E+00
    -11.393  0.0000E+00  0.0000E+00
    -11.307  0.0000E+00  0.0000E+00
    -11.220  0.0000E+00  0.0000E+00
    -11.134  0.2148E+02  0.3838E+01
    -11.047  0.1250E+02  0.5180E+01
    -10.961  0.0000E+00  0.6000E+01
    -10.875  0.0000E+00  0.6000E+01
    -10.788  0.4830E+01  0.1198E+02
    -10.702  0.0000E+00  0.1800E+02
    -10.615  0.3478E+02  0.2375E+02
    -10.529  0.2081E+02  0.3378E+02
    -10.443  0.9964E+01  0.3496E+02
    -10.356  0.1966E+02  0.3585E+02
    -10.270  0.3891E+02  0.3811E+02
    -10.183  0.2292E+02  0.4282E+02
    -10.097  0.1643E+03  0.5504E+02
    -10.011  0.0000E+00  0.6000E+02
     -9.924  0.0000E+00  0.6000E+02
     -9.838  0.0000E+00  0.6000E+02
     -9.752  0.0000E+00  0.6000E+02
     -9.665  0.1702E+01  0.6004E+02
     -9.579  0.1828E+01  0.6021E+02
     -9.492  0.2169E+01  0.6038E+02
     -9.406  0.2117E+01  0.6057E+02
     -9.320  0.2293E+01  0.6076E+02
     -9.233  0.2477E+01  0.6097E+02
     -9.147  0.2528E+01  0.6118E+02
     -9.060  0.5147E+01  0.6157E+02
     -8.974  0.5901E+01  0.6205E+02
     -8.888  0.5815E+01  0.6255E+02
     -8.801  0.6298E+01  0.6307E+02
     -8.715  0.6533E+01  0.6363E+02
     -8.628  0.6957E+01  0.6421E+02
     -8.542  0.7635E+01  0.6483E+02
     -8.456  0.8642E+01  0.6554E+02
     -8.369  0.1016E+02  0.6634E+02
     -8.283  0.2064E+02  0.6736E+02
     -8.196  0.1167E+02  0.6838E+02
     -8.110  0.1551E+02  0.6951E+02
     -8.024  0.1496E+02  0.7093E+02
     -7.937  0.9234E+01  0.7200E+02
     -7.851  0.7207E+01  0.7270E+02
     -7.764  0.3867E+01  0.7311E+02
     -7.678  0.4516E+01  0.7348E+02
     -7.592  0.5701E+01  0.7390E+02
     -7.505  0.7710E+01  0.7449E+02
     -7.419  0.2778E+02  0.7567E+02
     -7.333  0.4133E+01  0.7828E+02
     -7.246  0.4610E+01  0.7866E+02
     -7.160  0.5398E+01  0.7910E+02
     -7.073  0.6291E+01  0.7960E+02
     -6.987  0.8243E+01  0.8022E+02
     -6.901  0.1193E+02  0.8103E+02
     -6.814  0.5249E+02  0.8264E+02
     -6.728  0.0000E+00  0.8400E+02
     -6.641  0.0000E+00  0.8400E+02
     -6.555  0.0000E+00  0.8400E+02
     -6.469  0.0000E+00  0.8400E+02
     -6.382  0.0000E+00  0.8400E+02
     -6.296  0.0000E+00  0.8400E+02
     -6.209  0.0000E+00  0.8400E+02
     -6.123  0.0000E+00  0.8400E+02
     -6.037  0.0000E+00  0.8400E+02
     -5.950  0.0000E+00  0.8400E+02
     -5.864  0.0000E+00  0.8400E+02
     -5.777  0.0000E+00  0.8400E+02
     -5.691  0.0000E+00  0.8400E+02
     -5.605  0.0000E+00  0.8400E+02
     -5.518  0.0000E+00  0.8400E+02
     -5.432  0.0000E+00  0.8400E+02
     -5.345  0.0000E+00  0.8400E+02
     -5.259  0.0000E+00  0.8400E+02
     -5.173  0.0000E+00  0.8400E+02
     -5.086  0.0000E+00  0.8400E+02
     -5.000  0.0000E+00  0.8400E+02
     -4.914  0.0000E+00  0.8400E+02
     -4.827  0.0000E+00  0.8400E+02
     -4.741  0.0000E+00  0.8400E+02
     -4.654  0.0000E+00  0.8400E+02
     -4.568  0.0000E+00  0.8400E+02
     -4.482  0.0000E+00  0.8400E+02
     -4.395  0.0000E+00  0.8400E+02
     -4.309  0.0000E+00  0.8400E+02
     -4.222  0.0000E+00  0.8400E+02
     -4.136  0.0000E+00  0.8400E+02
     -4.050  0.0000E+00  0.8400E+02
     -3.963  0.0000E+00  0.8400E+02
     -3.877  0.0000E+00  0.8400E+02
     -3.790  0.0000E+00  0.8400E+02
     -3.704  0.0000E+00  0.8400E+02
     -3.618  0.0000E+00  0.8400E+02
     -3.531  0.0000E+00  0.8400E+02
     -3.445  0.0000E+00  0.8400E+02
     -3.358  0.0000E+00  0.8400E+02
     -3.272  0.0000E+00  0.8400E+02
     -3.186  0.0000E+00  0.8400E+02
     -3.099  0.0000E+00  0.8400E+02
     -3.013  0.0000E+00  0.8400E+02
     -2.926  0.0000E+00  0.8400E+02
     -2.840  0.0000E+00  0.8400E+02
     -2.754  0.0000E+00  0.8400E+02
     -2.667  0.0000E+00  0.8400E+02
     -2.581  0.0000E+00  0.8400E+02
     -2.495  0.7961E+01  0.8427E+02
     -2.408  0.7888E+01  0.8490E+02
     -2.322  0.1890E+02  0.8596E+02
     -2.235  0.6220E+01  0.8672E+02
     -2.149  0.6076E+01  0.8725E+02
     -2.063  0.6983E+01  0.8778E+02
     -1.976  0.1966E+02  0.8916E+02
     -1.890  0.5517E+01  0.9011E+02
     -1.803  0.1174E+02  0.9119E+02
     -1.717  0.7045E+01  0.9199E+02
     -1.631  0.6225E+01  0.9255E+02
     -1.544  0.5123E+02  0.9416E+02
     -1.458  0.1524E+02  0.9723E+02
     -1.371  0.9815E+02  0.1007E+03
     -1.285  0.1582E+02  0.1066E+03
     -1.199  0.8946E+02  0.1106E+03
     -1.112  0.1628E+03  0.1166E+03
     -1.026  0.2562E+02  0.1203E+03
     -0.939  0.2319E+02  0.1223E+03
     -0.853  0.1206E+02  0.1235E+03
     -0.767  0.2881E+01  0.1241E+03
     -0.680  0.1982E+01  0.1243E+03
     -0.594  0.1883E+01  0.1245E+03
     -0.507  0.4949E+01  0.1247E+03
     -0.421  0.1273E+02  0.1255E+03
     -0.335  0.1055E+02  0.1268E+03
     -0.248  0.8157E+01  0.1276E+03
     -0.162  0.1048E+02  0.1283E+03
     -0.076  0.1858E+02  0.1298E+03
      0.011  0.1278E+02  0.1310E+03
      0.097  0.1183E+02  0.1320E+03
      0.184  0.9947E+01  0.1330E+03
      0.270  0.8948E+01  0.1338E+03
      0.356  0.8598E+01  0.1346E+03
      0.443  0.8192E+01  0.1353E+03
      0.529  0.8029E+01  0.1360E+03
      0.616  0.1775E+02  0.1372E+03
      0.702  0.1485E+02  0.1388E+03
      0.788  0.1836E+02  0.1402E+03
      0.875  0.1509E+02  0.1417E+03
      0.961  0.1415E+02  0.1429E+03
      1.048  0.1157E+02  0.1440E+03
      1.134  0.1309E+02  0.1450E+03
      1.220  0.1938E+02  0.1464E+03
      1.307  0.1851E+02  0.1481E+03
      1.393  0.1585E+02  0.1495E+03
      1.480  0.1692E+02  0.1510E+03
      1.566  0.1969E+02  0.1528E+03
      1.652  0.1471E+02  0.1543E+03
      1.739  0.1471E+02  0.1556E+03
      1.825  0.1517E+02  0.1570E+03
      1.912  0.1311E+02  0.1582E+03
      1.998  0.1295E+02  0.1593E+03
      2.084  0.9603E+01  0.1602E+03
      2.171  0.9869E+01  0.1611E+03
      2.257  0.1363E+02  0.1621E+03
      2.343  0.1293E+02  0.1632E+03
      2.430  0.1254E+02  0.1643E+03
      2.516  0.1166E+02  0.1653E+03
      2.603  0.1213E+02  0.1663E+03
      2.689  0.1173E+02  0.1674E+03
      2.775  0.2430E+02  0.1687E+03
      2.862  0.2641E+02  0.1712E+03
      2.948  0.1626E+02  0.1730E+03
      3.035  0.1553E+02  0.1743E+03
      3.121  0.5894E+01  0.1751E+03
      3.207  0.6435E+01  0.1756E+03
      3.294  0.7053E+01  0.1762E+03
      3.380  0.6832E+01  0.1768E+03
      3.467  0.5544E+01  0.1774E+03
      3.553  0.4533E+01  0.1778E+03
      3.639  0.3766E+01  0.1782E+03
      3.726  0.3163E+01  0.1785E+03
      3.812  0.7794E+01  0.1788E+03
      3.899  0.3717E+02  0.1803E+03
      3.985  0.2417E+02  0.1832E+03
      4.071  0.1080E+02  0.1848E+03
      4.158  0.4061E+01  0.1853E+03
      4.244  0.2328E+01  0.1856E+03
      4.331  0.1849E+01  0.1857E+03
      4.417  0.2578E+01  0.1859E+03
      4.503  0.1383E+00  0.1860E+03
      4.590  0.0000E+00  0.1860E+03
      4.676  0.0000E+00  0.1860E+03
      4.762  0.0000E+00  0.1860E+03
      4.849  0.2676E-02  0.1860E+03
      4.935  0.2885E-01  0.1860E+03
      5.022  0.7321E-01  0.1860E+03
      5.108  0.1373E+00  0.1860E+03
      5.194  0.2229E+00  0.1860E+03
      5.281  0.3238E+00  0.1861E+03
      5.367  0.4349E+00  0.1861E+03
      5.454  0.6358E+00  0.1861E+03
      5.540  0.1883E+01  0.1862E+03
      5.626  0.3532E+01  0.1865E+03
      5.713  0.4638E+01  0.1868E+03
      5.799  0.5324E+01  0.1873E+03
      5.886  0.6399E+01  0.1878E+03
      5.972  0.8432E+01  0.1884E+03
      6.058  0.1523E+02  0.1893E+03
      6.145  0.1226E+02  0.1905E+03
      6.231  0.1261E+02  0.1916E+03
      6.318  0.1126E+02  0.1927E+03
      6.404  0.1086E+02  0.1936E+03
      6.490  0.1183E+02  0.1946E+03
      6.577  0.1664E+02  0.1958E+03
      6.663  0.1360E+02  0.1973E+03
      6.750  0.4120E+01  0.1979E+03
      6.836  0.0000E+00  0.1980E+03
      6.922  0.0000E+00  0.1980E+03
      7.009  0.0000E+00  0.1980E+03
      7.095  0.0000E+00  0.1980E+03
      7.181  0.0000E+00  0.1980E+03
      7.268  0.3132E+01  0.1981E+03
      7.354  0.5327E+01  0.1985E+03
      7.441  0.6256E+01  0.1990E+03
      7.527  0.8771E+01  0.1996E+03
      7.613  0.1335E+02  0.2006E+03
      7.700  0.1145E+02  0.2017E+03
      7.786  0.1005E+02  0.2026E+03
      7.873  0.7578E+01  0.2033E+03
      7.959  0.2531E+01  0.2040E+03
      8.045  0.1071E+01  0.2041E+03
      8.132  0.1903E+01  0.2042E+03
      8.218  0.2423E+01  0.2044E+03
      8.305  0.3559E+01  0.2047E+03
      8.391  0.5553E+01  0.2051E+03
      8.477  0.7410E+01  0.2056E+03
      8.564  0.8175E+01  0.2063E+03
      8.650  0.1190E+02  0.2072E+03
      8.737  0.7991E+01  0.2081E+03
      8.823  0.8071E+01  0.2088E+03
      8.909  0.9594E+01  0.2095E+03
      8.996  0.1461E+02  0.2106E+03
      9.082  0.2069E+02  0.2121E+03
      9.169  0.2340E+02  0.2139E+03
      9.255  0.1491E+02  0.2158E+03
      9.341  0.7315E+01  0.2166E+03
      9.428  0.9381E+01  0.2172E+03
      9.514  0.1635E+02  0.2184E+03
      9.600  0.1484E+02  0.2197E+03
      9.687  0.1248E+02  0.2209E+03
      9.773  0.7129E+01  0.2218E+03
      9.860  0.1185E+02  0.2226E+03
      9.946  0.7819E+01  0.2234E+03
     10.032  0.8368E+00  0.2236E+03
     10.119  0.7408E+00  0.2237E+03
     10.205  0.6451E+00  0.2237E+03
     10.292  0.5498E+00  0.2238E+03
     10.378  0.5016E+00  0.2238E+03
     10.464  0.5601E+00  0.2239E+03
     10.551  0.8122E+00  0.2239E+03
     10.637  0.3681E+00  0.2240E+03
     10.724  0.0000E+00  0.2240E+03
     10.810  0.0000E+00  0.2240E+03
     10.896  0.0000E+00  0.2240E+03
     10.983  0.0000E+00  0.2240E+03
     11.069  0.0000E+00  0.2240E+03
     11.156  0.0000E+00  0.2240E+03
     11.242  0.0000E+00  0.2240E+03
     11.328  0.0000E+00  0.2240E+03
     11.415  0.0000E+00  0.2240E+03
     11.501  0.0000E+00  0.2240E+03
     11.588  0.0000E+00  0.2240E+03
     11.674  0.0000E+00  0.2240E+03
     11.760  0.0000E+00  0.2240E+03
     11.847  0.0000E+00  0.2240E+03
     11.933  0.0000E+00  0.2240E+03
     12.019  0.0000E+00  0.2240E+03
     12.106  0.0000E+00  0.2240E+03
     12.192  0.0000E+00  0.2240E+03
     12.279  0.0000E+00  0.2240E+03
     12.365  0.0000E+00  0.2240E+03
     12.451  0.0000E+00  0.2240E+03
     12.538  0.0000E+00  0.2240E+03
     12.624  0.0000E+00  0.2240E+03
     12.711  0.0000E+00  0.2240E+03
