       N       E                     dE             d eps       ncg     rms          rms(c)
DAV:   1     0.210399996592E+04    0.21040E+04   -0.77515E+04 15456   0.187E+03
DAV:   2     0.350150619814E+03   -0.17538E+04   -0.17024E+04 15456   0.515E+02
DAV:   3    -0.424722004412E+02   -0.39262E+03   -0.37367E+03 17536   0.224E+02
DAV:   4    -0.835121548159E+02   -0.41040E+02   -0.40451E+02 19488   0.697E+01
DAV:   5    -0.851985329104E+02   -0.16864E+01   -0.16789E+01 20568   0.157E+01    0.243E+01
DAV:   6    -0.799334284049E+02    0.52651E+01   -0.89957E+00 24416   0.411E+01    0.168E+01
DAV:   7    -0.802605829205E+02   -0.32715E+00   -0.13486E+01 23072   0.151E+01    0.446E+00
DAV:   8    -0.799295117059E+02    0.33107E+00   -0.21996E+00 21528   0.778E+00    0.369E+00
DAV:   9    -0.799329765262E+02   -0.34648E-02   -0.35202E-01 20488   0.175E+00    0.200E+00
DAV:  10    -0.799317937816E+02    0.11827E-02   -0.32819E-02 21328   0.127E+00    0.129E+00
DAV:  11    -0.799325112444E+02   -0.71746E-03   -0.91464E-03 19720   0.400E-01    0.342E-01
DAV:  12    -0.799324560014E+02    0.55243E-04   -0.19561E-03 18848   0.207E-01    0.323E-01
DAV:  13    -0.799324804240E+02   -0.24423E-04   -0.37690E-04 22760   0.636E-02    0.320E-01
DAV:  14    -0.799325371324E+02   -0.56708E-04   -0.16201E-04 19632   0.607E-02    0.116E-01
DAV:  15    -0.799325297030E+02    0.74294E-05   -0.12893E-04 23344   0.814E-02    0.662E-02
DAV:  16    -0.799325194890E+02    0.10214E-04   -0.54816E-05 19712   0.270E-02    0.491E-02
DAV:  17    -0.799325172484E+02    0.22406E-05   -0.18019E-05 22200   0.143E-02    0.319E-02
DAV:  18    -0.799325176643E+02   -0.41586E-06   -0.14784E-06 17464   0.524E-03    0.365E-02
DAV:  19    -0.799325176454E+02    0.18885E-07   -0.10525E-07 10368   0.174E-03
   1 F= -.86245982E+02 E0= -.86245982E+02  d E =0.000000E+00
