 vasp.5.4.4.18Apr17-6-g9f103f2a35 (build Feb 10 2022 16:34:21) complex          
  
 executed on         VASP-optcell date 2026.09.03  21:59:38
 running on    8 total cores
 distrk:  each k-point on    8 cores,    1 groups
 distr:  one band on NCORES_PER_BAND=   1 cores,    8 groups


--------------------------------------------------------------------------------------------------------


 INCAR:
 POTCAR:    PAW_PBE Zn 06Sep2000                  
 POTCAR:    PAW_PBE In_d 06Sep2000                
 POTCAR:    PAW_PBE S 06Sep2000                   

 ----------------------------------------------------------------------------- 
|                                                                             |
|           W    W    AA    RRRRR   N    N  II  N    N   GGGG   !!!           |
|           W    W   A  A   R    R  NN   N  II  NN   N  G    G  !!!           |
|           W    W  A    A  R    R  N N  N  II  N N  N  G       !!!           |
|           W WW W  AAAAAA  RRRRR   N  N N  II  N  N N  G  GGG   !            |
|           WW  WW  A    A  R   R   N   NN  II  N   NN  G    G                |
|           W    W  A    A  R    R  N    N  II  N    N   GGGG   !!!           |
|                                                                             |
|      For optimal performance we recommend to set                            |
|        NCORE= 4 - approx SQRT( number of cores)                             |
|      NCORE specifies how many cores store one orbital (NPAR=cpu/NCORE).     |
|      This setting can  greatly improve the performance of VASP for DFT.     |
|      The default,   NCORE=1            might be grossly inefficient         |
|      on modern multi-core architectures or massively parallel machines.     |
|      Do your own testing !!!!                                               |
|      Unfortunately you need to use the default for GW and RPA calculations. |
|      (for HF NCORE is supported but not extensively tested yet)             |
|                                                                             |
 ----------------------------------------------------------------------------- 

 POTCAR:    PAW_PBE Zn 06Sep2000                  
   VRHFIN =Zn: d10 p2                                                           
   LEXCH  = PE                                                                  
   EATOM  =  1748.8345 eV,  128.5357 Ry                                         
                                                                                
   TITEL  = PAW_PBE Zn 06Sep2000                                                
   LULTRA =        F    use ultrasoft PP ?                                      
   IUNSCR =        1    unscreen: 0-lin 1-nonlin 2-no                           
   RPACOR =    2.000    partial core radius                                     
   POMASS =   65.390; ZVAL   =   12.000    mass and valenz                      
   RCORE  =    2.300    outmost cutoff radius                                   
   RWIGS  =    2.400; RWIGS  =    1.270    wigner-seitz radius (au A)           
   ENMAX  =  276.723; ENMIN  =  207.542 eV                                      
   RCLOC  =    1.828    cutoff for local pot                                    
   LCOR   =        T    correct aug charges                                     
   LPAW   =        T    paw PP                                                  
   EAUG   =  575.892                                                            
   DEXC   =    0.000                                                            
   RMAX   =    2.347    core radius for proj-oper                               
   RAUG   =    1.300    factor for augmentation sphere                          
   RDEP   =    2.324    radius for radial grids                                 
   RDEPT  =    1.788    core radius for aug-charge                              
                                                                                
   Atomic configuration                                                         
    9 entries                                                                   
     n  l   j            E        occ.                                          
     1  0  0.50     -9524.6913   2.0000                                         
     2  0  0.50     -1158.1882   2.0000                                         
     2  1  1.50     -1003.8506   6.0000                                         
     3  0  0.50      -129.2194   2.0000                                         
     3  1  1.50       -83.3890   6.0000                                         
     3  2  2.50       -10.1410  10.0000                                         
     4  0  0.50        -5.9785   2.0000                                         
     4  1  0.50        -4.0817   0.0000                                         
     4  3  2.50        -1.3606   0.0000                                         
   Description                                                                  
     l       E           TYP  RCUT    TYP  RCUT                                 
     2    -10.1410010     23  2.300                                             
     2    -11.5015836     23  2.300                                             
     0     -5.9785163     23  2.300                                             
     0      1.1858015     23  2.300                                             
     1     -2.7211652     23  2.300                                             
     1     13.2444212     23  2.300                                             
  local pseudopotential read in
  partial core-charges read in
  partial kinetic energy density read in
  atomic valenz-charges read in
  non local Contribution for L=           2  read in
    real space projection operators read in
  non local Contribution for L=           2  read in
    real space projection operators read in
  non local Contribution for L=           0  read in
    real space projection operators read in
  non local Contribution for L=           0  read in
    real space projection operators read in
  non local Contribution for L=           1  read in
    real space projection operators read in
  non local Contribution for L=           1  read in
    real space projection operators read in
    PAW grid and wavefunctions read in
 
   number of l-projection  operators is LMAX  =           6
   number of lm-projection operators is LMMAX =          18
 
 POTCAR:    PAW_PBE In_d 06Sep2000                
   VRHFIN =In: s2p1                                                             
   LEXCH  = PE                                                                  
   EATOM  =  1576.8302 eV,  115.8937 Ry                                         
                                                                                
   TITEL  = PAW_PBE In_d 06Sep2000                                              
   LULTRA =        F    use ultrasoft PP ?                                      
   IUNSCR =        1    unscreen: 0-lin 1-nonlin 2-no                           
   RPACOR =    2.200    partial core radius                                     
   POMASS =  114.820; ZVAL   =   13.000    mass and valenz                      
   RCORE  =    2.500    outmost cutoff radius                                   
   RWIGS  =    3.170; RWIGS  =    1.677    wigner-seitz radius (au A)           
   ENMAX  =  239.211; ENMIN  =  179.409 eV                                      
   ICORE  =        3    local potential                                         
   LCOR   =        T    correct aug charges                                     
   LPAW   =        T    paw PP                                                  
   EAUG   =  449.704                                                            
   DEXC   =    0.000                                                            
   RMAX   =    2.552    core radius for proj-oper                               
   RAUG   =    1.300    factor for augmentation sphere                          
   RDEP   =    2.630    radius for radial grids                                 
   RDEPT  =    2.033    core radius for aug-charge                              
                                                                                
   Atomic configuration                                                         
   12 entries                                                                   
     n  l   j            E        occ.                                          
     1  0  0.50    -27747.9169   2.0000                                         
     2  0  0.50     -4154.4438   2.0000                                         
     2  1  1.50     -3728.4305   6.0000                                         
     3  0  0.50      -788.3680   2.0000                                         
     3  1  1.50      -648.9215   6.0000                                         
     3  2  2.50      -432.5893  10.0000                                         
     4  0  0.50      -119.6363   2.0000                                         
     4  1  1.50       -78.1086   6.0000                                         
     4  2  2.50       -18.6227  10.0000                                         
     5  0  0.50        -8.2107   2.0000                                         
     5  1  0.50        -2.5185   1.0000                                         
     4  3  2.50        -2.7212   0.0000                                         
   Description                                                                  
     l       E           TYP  RCUT    TYP  RCUT                                 
     2    -18.6226981     23  2.500                                             
     2     -1.3605826     23  2.500                                             
     0     -8.2107305     23  2.500                                             
     0     -6.1485975     23  2.500                                             
     1     -2.5184867     23  2.500                                             
     1      3.2427302     23  2.500                                             
     3     -1.3605826      7  2.500                                             
  local pseudopotential read in
  partial core-charges read in
  partial kinetic energy density read in
  atomic valenz-charges read in
  non local Contribution for L=           2  read in
    real space projection operators read in
  non local Contribution for L=           2  read in
    real space projection operators read in
  non local Contribution for L=           0  read in
    real space projection operators read in
  non local Contribution for L=           0  read in
    real space projection operators read in
  non local Contribution for L=           1  read in
    real space projection operators read in
  non local Contribution for L=           1  read in
    real space projection operators read in
    PAW grid and wavefunctions read in
 
   number of l-projection  operators is LMAX  =           6
   number of lm-projection operators is LMMAX =          18
 
 POTCAR:    PAW_PBE S 06Sep2000                   
   VRHFIN =S : s2p4                                                             
   LEXCH  = PE                                                                  
   EATOM  =   276.8230 eV,   20.3459 Ry                                         
                                                                                
   TITEL  = PAW_PBE S 06Sep2000                                                 
   LULTRA =        F    use ultrasoft PP ?                                      
   IUNSCR =        1    unscreen: 0-lin 1-nonlin 2-no                           
   RPACOR =    1.500    partial core radius                                     
   POMASS =   32.066; ZVAL   =    6.000    mass and valenz                      
   RCORE  =    1.900    outmost cutoff radius                                   
   RWIGS  =    2.200; RWIGS  =    1.164    wigner-seitz radius (au A)           
   ENMAX  =  258.689; ENMIN  =  194.016 eV                                      
   ICORE  =        2    local potential                                         
   LCOR   =        T    correct aug charges                                     
   LPAW   =        T    paw PP                                                  
   EAUG   =  335.092                                                            
   DEXC   =    0.000                                                            
   RMAX   =    1.942    core radius for proj-oper                               
   RAUG   =    1.300    factor for augmentation sphere                          
   RDEP   =    1.954    radius for radial grids                                 
   RDEPT  =    1.744    core radius for aug-charge                              
                                                                                
   Atomic configuration                                                         
    6 entries                                                                   
     n  l   j            E        occ.                                          
     1  0  0.50     -2405.8406   2.0000                                         
     2  0  0.50      -211.7007   2.0000                                         
     2  1  1.50      -156.4958   6.0000                                         
     3  0  0.50       -17.2562   2.0000                                         
     3  1  0.50        -7.0085   4.0000                                         
     3  2  1.50        -6.8029   0.0000                                         
   Description                                                                  
     l       E           TYP  RCUT    TYP  RCUT                                 
     0    -17.2561641     23  1.900                                             
     0    -15.8743224     23  1.900                                             
     1     -7.0085400     23  1.900                                             
     1     -2.7779785     23  1.900                                             
     2     -6.8029130     23  1.900                                             
  local pseudopotential read in
  partial core-charges read in
  partial kinetic energy density read in
  atomic valenz-charges read in
  non local Contribution for L=           0  read in
    real space projection operators read in
  non local Contribution for L=           0  read in
    real space projection operators read in
  non local Contribution for L=           1  read in
    real space projection operators read in
  non local Contribution for L=           1  read in
    real space projection operators read in
    PAW grid and wavefunctions read in
 
   number of l-projection  operators is LMAX  =           4
   number of lm-projection operators is LMMAX =           8
 

 ----------------------------------------------------------------------------- 
|                                                                             |
|  ADVICE TO THIS USER RUNNING 'VASP/VAMP'   (HEAR YOUR MASTER'S VOICE ...):  |
|                                                                             |
|      You have a (more or less) 'large supercell' and for larger cells       |
|      it might be more efficient to use real space projection opertators     |
|      So try LREAL= Auto  in the INCAR   file.                               |
|      Mind:          For very  accurate calculation you might also keep the  |
|      reciprocal projection scheme          (i.e. LREAL=.FALSE.)             |
|                                                                             |
 ----------------------------------------------------------------------------- 

  PAW_PBE Zn 06Sep2000                  :
 energy of atom  1       EATOM=-1748.8345
 kinetic energy error for atom=    0.0029 (will be added to EATOM!!)
  PAW_PBE In_d 06Sep2000                :
 energy of atom  2       EATOM=-1576.8302
 kinetic energy error for atom=    0.0036 (will be added to EATOM!!)
  PAW_PBE S 06Sep2000                   :
 energy of atom  3       EATOM= -276.8230
 kinetic energy error for atom=    0.0020 (will be added to EATOM!!)
 
 
 POSCAR: In6 S12 Zn3                             
  positions in direct lattice
  velocities in cartesian coordinates
 exchange correlation table for  LEXCH =        8
   RHO(1)=    0.500       N(1)  =     2000
   RHO(2)=  100.500       N(2)  =     4000
 


--------------------------------------------------------------------------------------------------------


 ion  position               nearest neighbor table
   1  0.667  0.333  0.109-  10 2.31  10 2.31  10 2.31  17 2.54
   2  0.333  0.667  0.442-  11 2.31  11 2.31  11 2.31  18 2.54
   3  0.000  0.000  0.775-  12 2.31  12 2.31  12 2.31  16 2.54
   4  0.000  0.000  0.004-  17 2.57  17 2.57  17 2.57  15 2.71  15 2.71  15 2.71
   5  0.667  0.333  0.338-  18 2.57  18 2.57  18 2.57  13 2.71  13 2.71  13 2.71
   6  0.333  0.667  0.671-  16 2.57  16 2.57  16 2.57  14 2.71  14 2.71  14 2.71
   7  0.000  0.000  0.229-  13 2.45  20 2.48  20 2.48  20 2.48
   8  0.667  0.333  0.562-  14 2.45  21 2.48  21 2.48  21 2.48
   9  0.333  0.667  0.895-  15 2.45  19 2.48  19 2.48  19 2.48
  10  0.000  0.000  0.124-   1 2.31   1 2.31   1 2.31
  11  0.667  0.333  0.457-   2 2.31   2 2.31   2 2.31
  12  0.333  0.667  0.790-   3 2.31   3 2.31   3 2.31
  13  0.000  0.000  0.296-   7 2.45   5 2.71   5 2.71   5 2.71
  14  0.667  0.333  0.629-   8 2.45   6 2.71   6 2.71   6 2.71
  15  0.333  0.667  0.963-   9 2.45   4 2.71   4 2.71   4 2.71
  16  0.000  0.000  0.706-   3 2.54   6 2.57   6 2.57   6 2.57
  17  0.667  0.333  0.039-   1 2.54   4 2.57   4 2.57   4 2.57
  18  0.333  0.667  0.372-   2 2.54   5 2.57   5 2.57   5 2.57
  19  0.000  0.000  0.866-   9 2.48   9 2.48   9 2.48
  20  0.667  0.333  0.199-   7 2.48   7 2.48   7 2.48
  21  0.333  0.667  0.533-   8 2.48   8 2.48   8 2.48
 
  LATTYP: Found a hexagonal cell.
 ALAT       =     3.8833986741
 C/A-ratio  =     9.3975627374
  
  Lattice vectors:
  
 A1 = (   3.8833986741,  -0.0000000000,   0.0000000000)
 A2 = (  -1.9416993370,   3.3631219048,   0.0000000000)
 A3 = (   0.0000000000,  -0.0000000000,  36.4944826743)


Analysis of symmetry for initial positions (statically):
=====================================================================
 Subroutine PRICEL returns following result:
 
  LATTYP: Found a trigonal (rhomboedric) cell.
 ALAT       =    12.3697176008
 COS(alpha) =     0.9507195964
  
  Lattice vectors:
  
 A1 = (   1.9416992167,   1.1210405699,  12.1648257577)
 A2 = (  -1.9416992769,   1.1210406674,  12.1648284583)
 A3 = (   0.0000000602,  -2.2420812374,  12.1648284583)
 
   3 primitive cells build up your supercell.
 

 Routine SETGRP: Setting up the symmetry group for a 
 hexagonal supercell.


 Subroutine GETGRP returns: Found  6 space group operations
 (whereof  6 operations were pure point group operations)
 out of a pool of 24 trial point group operations.


The static configuration has the point symmetry C_3v.


Analysis of symmetry for dynamics (positions and initial velocities):
=====================================================================
 Subroutine PRICEL returns following result:
 
  LATTYP: Found a trigonal (rhomboedric) cell.
 ALAT       =    12.3697176008
 COS(alpha) =     0.9507195964
  
  Lattice vectors:
  
 A1 = (   1.9416992167,   1.1210405699,  12.1648257577)
 A2 = (  -1.9416992769,   1.1210406674,  12.1648284583)
 A3 = (   0.0000000602,  -2.2420812374,  12.1648284583)
 
   3 primitive cells build up your supercell.
 

 Routine SETGRP: Setting up the symmetry group for a 
 hexagonal supercell.


 Subroutine GETGRP returns: Found  6 space group operations
 (whereof  6 operations were pure point group operations)
 out of a pool of 24 trial point group operations.


The dynamic configuration has the point symmetry C_3v.


 Subroutine INISYM returns: Found  6 space group operations
 (whereof  6 operations are pure point group operations),
 and found     3 'primitive' translations

 
 
 KPOINTS: K-point convergence                     

Automatic generation of k-mesh.
Space group operators:
 irot       det(A)        alpha          n_x          n_y          n_z        tau_x        tau_y        tau_z
    1     1.000000     0.000000     1.000000     0.000000     0.000000     0.000000     0.000000     0.000000
    2     1.000000   120.000000    -0.000000     0.000000    -1.000000     0.000000     0.000000     0.000000
    3     1.000000   120.000000    -0.000000    -0.000000     1.000000     0.000000     0.000000     0.000000
    4    -1.000000   179.999999     1.000000     0.000000     0.000000     0.000000     0.000000     0.000000
    5    -1.000000   180.000000    -0.500000     0.866025     0.000000     0.000000     0.000000     0.000000
    6    -1.000000   180.000000     0.500000     0.866025     0.000000     0.000000     0.000000     0.000000
 
 Subroutine IBZKPT returns following result:
 ===========================================
 
 Found     69 irreducible k-points:
 
 Following reciprocal coordinates:
            Coordinates               Weight
  0.000000  0.000000  0.000000      1.000000
  0.083333  0.000000  0.000000      6.000000
  0.166667 -0.000000  0.000000      6.000000
  0.250000 -0.000000  0.000000      6.000000
  0.333333 -0.000000  0.000000      6.000000
  0.416667 -0.000000  0.000000      6.000000
  0.500000 -0.000000  0.000000      3.000000
  0.083333  0.083333  0.000000      6.000000
  0.166667  0.083333  0.000000     12.000000
  0.250000  0.083333  0.000000     12.000000
  0.333333  0.083333  0.000000     12.000000
  0.416667  0.083333  0.000000     12.000000
  0.166667  0.166667  0.000000      6.000000
  0.250000  0.166667  0.000000     12.000000
  0.333333  0.166667  0.000000     12.000000
  0.416667  0.166667 -0.000000      6.000000
  0.250000  0.250000  0.000000      6.000000
  0.333333  0.250000 -0.000000     12.000000
  0.333333  0.333333  0.000000      2.000000
  0.000000  0.000000  0.250000      2.000000
  0.083333  0.000000  0.250000      6.000000
  0.166667 -0.000000  0.250000      6.000000
  0.250000 -0.000000  0.250000      6.000000
  0.333333 -0.000000  0.250000      6.000000
  0.416667 -0.000000  0.250000      6.000000
  0.500000 -0.000000  0.250000      6.000000
 -0.416667  0.000000  0.250000      6.000000
 -0.333333  0.000000  0.250000      6.000000
 -0.250000  0.000000  0.250000      6.000000
 -0.166667  0.000000  0.250000      6.000000
 -0.083333  0.000000  0.250000      6.000000
  0.083333  0.083333  0.250000     12.000000
  0.166667  0.083333  0.250000     12.000000
  0.250000  0.083333  0.250000     12.000000
  0.333333  0.083333  0.250000     12.000000
  0.416667  0.083333  0.250000     12.000000
  0.500000  0.083333  0.250000     12.000000
 -0.416667  0.083333  0.250000     12.000000
 -0.333333  0.083333  0.250000     12.000000
 -0.250000  0.083333  0.250000     12.000000
  0.166667  0.166667  0.250000     12.000000
  0.250000  0.166667  0.250000     12.000000
  0.333333  0.166667  0.250000     12.000000
  0.416667  0.166667  0.250000     12.000000
  0.500000  0.166667  0.250000     12.000000
 -0.416667  0.166667  0.250000     12.000000
  0.250000  0.250000  0.250000     12.000000
  0.333333  0.250000  0.250000     12.000000
  0.416667  0.250000  0.250000     12.000000
  0.333333  0.333333  0.250000      4.000000
  0.000000  0.000000  0.500000      1.000000
  0.083333  0.000000  0.500000      6.000000
  0.166667 -0.000000  0.500000      6.000000
  0.250000 -0.000000  0.500000      6.000000
  0.333333 -0.000000  0.500000      6.000000
  0.416667 -0.000000  0.500000      6.000000
  0.500000 -0.000000  0.500000      3.000000
  0.083333  0.083333  0.500000      6.000000
  0.166667  0.083333  0.500000     12.000000
  0.250000  0.083333  0.500000     12.000000
  0.333333  0.083333  0.500000     12.000000
  0.416667  0.083333  0.500000     12.000000
  0.166667  0.166667  0.500000      6.000000
  0.250000  0.166667  0.500000     12.000000
  0.333333  0.166667  0.500000     12.000000
  0.416667  0.166667  0.500000      6.000000
  0.250000  0.250000  0.500000      6.000000
  0.333333  0.250000  0.500000     12.000000
  0.333333  0.333333  0.500000      2.000000
 
 Following cartesian coordinates:
            Coordinates               Weight
  0.000000  0.000000  0.000000      1.000000
  0.021459  0.012389  0.000000      6.000000
  0.042918  0.024779  0.000000      6.000000
  0.064377  0.037168  0.000000      6.000000
  0.085835  0.049557  0.000000      6.000000
  0.107294  0.061946  0.000000      6.000000
  0.128753  0.074336  0.000000      3.000000
  0.021459  0.037168  0.000000      6.000000
  0.042918  0.049557  0.000000     12.000000
  0.064377  0.061946  0.000000     12.000000
  0.085835  0.074336  0.000000     12.000000
  0.107294  0.086725  0.000000     12.000000
  0.042918  0.074336  0.000000      6.000000
  0.064377  0.086725  0.000000     12.000000
  0.085835  0.099114  0.000000     12.000000
  0.107294  0.111504  0.000000      6.000000
  0.064377  0.111504  0.000000      6.000000
  0.085835  0.123893  0.000000     12.000000
  0.085835  0.148671  0.000000      2.000000
  0.000000  0.000000  0.006850      2.000000
  0.021459  0.012389  0.006850      6.000000
  0.042918  0.024779  0.006850      6.000000
  0.064377  0.037168  0.006850      6.000000
  0.085835  0.049557  0.006850      6.000000
  0.107294  0.061946  0.006850      6.000000
  0.128753  0.074336  0.006850      6.000000
 -0.107294 -0.061946  0.006850      6.000000
 -0.085835 -0.049557  0.006850      6.000000
 -0.064377 -0.037168  0.006850      6.000000
 -0.042918 -0.024779  0.006850      6.000000
 -0.021459 -0.012389  0.006850      6.000000
  0.021459  0.037168  0.006850     12.000000
  0.042918  0.049557  0.006850     12.000000
  0.064377  0.061946  0.006850     12.000000
  0.085835  0.074336  0.006850     12.000000
  0.107294  0.086725  0.006850     12.000000
  0.128753  0.099114  0.006850     12.000000
 -0.107294 -0.037168  0.006850     12.000000
 -0.085835 -0.024779  0.006850     12.000000
 -0.064377 -0.012389  0.006850     12.000000
  0.042918  0.074336  0.006850     12.000000
  0.064377  0.086725  0.006850     12.000000
  0.085835  0.099114  0.006850     12.000000
  0.107294  0.111504  0.006850     12.000000
  0.128753  0.123893  0.006850     12.000000
 -0.107294 -0.012389  0.006850     12.000000
  0.064377  0.111504  0.006850     12.000000
  0.085835  0.123893  0.006850     12.000000
  0.107294  0.136282  0.006850     12.000000
  0.085835  0.148671  0.006850      4.000000
  0.000000  0.000000  0.013701      1.000000
  0.021459  0.012389  0.013701      6.000000
  0.042918  0.024779  0.013701      6.000000
  0.064377  0.037168  0.013701      6.000000
  0.085835  0.049557  0.013701      6.000000
  0.107294  0.061946  0.013701      6.000000
  0.128753  0.074336  0.013701      3.000000
  0.021459  0.037168  0.013701      6.000000
  0.042918  0.049557  0.013701     12.000000
  0.064377  0.061946  0.013701     12.000000
  0.085835  0.074336  0.013701     12.000000
  0.107294  0.086725  0.013701     12.000000
  0.042918  0.074336  0.013701      6.000000
  0.064377  0.086725  0.013701     12.000000
  0.085835  0.099114  0.013701     12.000000
  0.107294  0.111504  0.013701      6.000000
  0.064377  0.111504  0.013701      6.000000
  0.085835  0.123893  0.013701     12.000000
  0.085835  0.148671  0.013701      2.000000
 
 TETIRR: Found    806 inequivalent tetrahedra from     3456


--------------------------------------------------------------------------------------------------------




 Dimension of arrays:
   k-points           NKPTS =     69   k-points in BZ     NKDIM =     69   number of bands    NBANDS=    112
   number of dos      NEDOS =    301   number of ions     NIONS =     21
   non local maximal  LDIM  =      6   non local SUM 2l+1 LMDIM =     18
   total plane-waves  NPLWV = 211680
   max r-space proj   IRMAX =      1   max aug-charges    IRDMAX= 153649
   dimension x,y,z NGX =    28 NGY =   28 NGZ =  270
   dimension x,y,z NGXF=    56 NGYF=   56 NGZF=  540
   support grid    NGXF=   112 NGYF=  112 NGZF= 1080
   ions per type =               3   6  12
   NGX,Y,Z   is equivalent  to a cutoff of  11.99, 11.99, 12.30 a.u.
   NGXF,Y,Z  is equivalent  to a cutoff of  23.97, 23.97, 24.60 a.u.

 SYSTEM =  ZnIn2S4 bulk final static SCF           
 POSCAR =  In6 S12 Zn3                             

 Startparameter for this run:
   NWRITE =      2    write-flag & timer
   PREC   = accura    normal or accurate (medium, high low for compatibility)
   ISTART =      0    job   : 0-new  1-cont  2-samecut
   ICHARG =      2    charge: 1-file 2-atom 10-const
   ISPIN  =      1    spin polarized calculation?
   LNONCOLLINEAR =      F non collinear calculations
   LSORBIT =      F    spin-orbit coupling
   INIWAV =      1    electr: 0-lowe 1-rand  2-diag
   LASPH  =      T    aspherical Exc in radial PAW
   METAGGA=      F    non-selfconsistent MetaGGA calc.

 Electronic Relaxation 1
   ENCUT  =  500.0 eV  36.75 Ry    6.06 a.u.   7.08  7.08 66.54*2*pi/ulx,y,z
   ENINI  =  500.0     initial cutoff
   ENAUG  =  575.9 eV  augmentation charge cutoff
   NELM   =    150;   NELMIN=  2; NELMDL= -5     # of ELM steps 
   EDIFF  = 0.1E-06   stopping-criterion for ELM
   LREAL  =      F    real-space projection
   NLSPLINE    = F    spline interpolate recip. space projectors
   LCOMPAT=      F    compatible to vasp.4.4
   GGA_COMPAT  = T    GGA compatible to vasp.4.4-vasp.4.6
   LMAXPAW     = -100 max onsite density
   LMAXMIX     =    2 max onsite mixed and CHGCAR
   VOSKOWN=      0    Vosko Wilk Nusair interpolation
   ROPT   =    0.00000   0.00000   0.00000
 Ionic relaxation
   EDIFFG = 0.1E-05   stopping-criterion for IOM
   NSW    =      0    number of steps for IOM
   NBLOCK =      1;   KBLOCK =      1    inner block; outer block 
   IBRION =     -1    ionic relax: 0-MD 1-quasi-New 2-CG
   NFREE  =      0    steps in history (QN), initial steepest desc. (CG)
   ISIF   =      2    stress and relaxation
   IWAVPR =     10    prediction:  0-non 1-charg 2-wave 3-comb
   ISYM   =      2    0-nonsym 1-usesym 2-fastsym
   LCORR  =      T    Harris-Foulkes like correction to forces

   POTIM  = 0.5000    time-step for ionic-motion
   TEIN   =    0.0    initial temperature
   TEBEG  =    0.0;   TEEND  =   0.0 temperature during run
   SMASS  =  -3.00    Nose mass-parameter (am)
   estimated Nose-frequenzy (Omega)   =  0.10E-29 period in steps =****** mass=  -0.345E-27a.u.
   SCALEE = 1.0000    scale energy and forces
   NPACO  =    256;   APACO  = 16.0  distance and # of slots for P.C.
   PSTRESS=    0.0 pullay stress

  Mass of Ions in am
   POMASS =  65.39114.82 32.07
  Ionic Valenz
   ZVAL   =  12.00 13.00  6.00
  Atomic Wigner-Seitz radii
   RWIGS  =  -1.00 -1.00 -1.00
  virtual crystal weights 
   VCA    =   1.00  1.00  1.00
   NELECT =     186.0000    total number of electrons
   NUPDOWN=      -1.0000    fix difference up-down

 DOS related values:
   EMIN   =  10.00;   EMAX   =-10.00  energy-range for DOS
   EFERMI =   0.00
   ISMEAR =    -5;   SIGMA  =   0.20  broadening in eV -4-tet -1-fermi 0-gaus

 Electronic relaxation 2 (details)
   IALGO  =     38    algorithm
   LDIAG  =      T    sub-space diagonalisation (order eigenvalues)
   LSUBROT=      F    optimize rotation matrix (better conditioning)
   TURBO    =      0    0=normal 1=particle mesh
   IRESTART =      0    0=no restart 2=restart with 2 vectors
   NREBOOT  =      0    no. of reboots
   NMIN     =      0    reboot dimension
   EREF     =   0.00    reference energy to select bands
   IMIX   =      4    mixing-type and parameters
     AMIX     =   0.40;   BMIX     =  1.00
     AMIX_MAG =   1.60;   BMIX_MAG =  1.00
     AMIN     =   0.10
     WC   =   100.;   INIMIX=   1;  MIXPRE=   1;  MAXMIX= -45

 Intra band minimization:
   WEIMIN = 0.0000     energy-eigenvalue tresh-hold
   EBREAK =  0.22E-09  absolut break condition
   DEPER  =   0.30     relativ break condition  

   TIME   =   0.40     timestep for ELM

  volume/ion in A,a.u.               =      22.70       153.16
  Fermi-wavevector in a.u.,A,eV,Ry     =   1.196332  2.260741 19.472812  1.431211
  Thomas-Fermi vector in A             =   2.332275
 
 Write flags
   LWAVE        =      F    write WAVECAR
   LDOWNSAMPLE  =      F    k-point downsampling of WAVECAR
   LCHARG       =      T    write CHGCAR
   LVTOT        =      F    write LOCPOT, total local potential
   LVHAR        =      F    write LOCPOT, Hartree potential only
   LELF         =      F    write electronic localiz. function (ELF)
   LORBIT       =      0    0 simple, 1 ext, 2 COOP (PROOUT), +10 PAW based schemes


 Dipole corrections
   LMONO  =      F    monopole corrections only (constant potential shift)
   LDIPOL =      F    correct potential (dipole corrections)
   IDIPOL =      0    1-x, 2-y, 3-z, 4-all directions 
   EPSILON=  1.0000000 bulk dielectric constant

 Exchange correlation treatment:
   GGA     =    PE    GGA type
   LEXCH   =     8    internal setting for exchange type
   VOSKOWN=      0    Vosko Wilk Nusair interpolation
   LHFCALC =     F    Hartree Fock is set to
   LHFONE  =     F    Hartree Fock one center treatment
   AEXX    =    0.0000 exact exchange contribution

 Linear response parameters
   LEPSILON=     F    determine dielectric tensor
   LRPA    =     F    only Hartree local field effects (RPA)
   LNABLA  =     F    use nabla operator in PAW spheres
   LVEL    =     F    velocity operator in full k-point grid
   LINTERFAST=   F  fast interpolation
   KINTER  =     0    interpolate to denser k-point grid
   CSHIFT  =0.1000    complex shift for real part using Kramers Kronig
   OMEGAMAX=  -1.0    maximum frequency
   DEG_THRESHOLD= 0.2000000E-02 threshold for treating states as degnerate
   RTIME   =   -0.100 relaxation time in fs
  (WPLASMAI=    0.000 imaginary part of plasma frequency in eV, 0.658/RTIME)
   DFIELD  = 0.0000000 0.0000000 0.0000000 field for delta impulse in time
 
 Orbital magnetization related:
   ORBITALMAG=     F  switch on orbital magnetization
   LCHIMAG   =     F  perturbation theory with respect to B field
   DQ        =  0.001000  dq finite difference perturbation B field
   LLRAUG    =     F  two centre corrections for induced B field



--------------------------------------------------------------------------------------------------------


 Static calculation
 charge density and potential will be updated during run
 non-spin polarized calculation
 Variant of blocked Davidson
 Davidson routine will perform the subspace rotation
 perform sub-space diagonalisation
    after iterative eigenvector-optimisation
 modified Broyden-mixing scheme, WC =      100.0
 initial mixing is a Kerker type mixing with AMIX =  0.4000 and BMIX =      1.0000
 Hartree-type preconditioning will be used
 using additional bands           19
 reciprocal scheme for non local part
 use partial core corrections
 calculate Harris-corrections to forces 
   (improved forces if not selfconsistent)
 use gradient corrections 
 use of overlap-Matrix (Vanderbilt PP)
 Fermi weights with tetrahedron method with Bloechl corrections


--------------------------------------------------------------------------------------------------------


  energy-cutoff  :      500.00
  volume of cell :      476.63
      direct lattice vectors                 reciprocal lattice vectors
     3.883398674 -0.000000000  0.000000000     0.257506397  0.148671388  0.000000000
    -1.941699337  3.363121905  0.000000000     0.000000000  0.297342775  0.000000000
     0.000000000 -0.000000000 36.494482674     0.000000000  0.000000000  0.027401402

  length of vectors
     3.883398674  3.883398674 36.494482674     0.297342775  0.297342775  0.027401402


 
 k-points in units of 2pi/SCALE and weight: K-point convergence                     
   0.00000000  0.00000000  0.00000000       0.002
   0.02145887  0.01238928  0.00000000       0.010
   0.04291773  0.02477856  0.00000000       0.010
   0.06437660  0.03716785  0.00000000       0.010
   0.08583547  0.04955713  0.00000000       0.010
   0.10729433  0.06194641  0.00000000       0.010
   0.12875320  0.07433569  0.00000000       0.005
   0.02145887  0.03716785  0.00000000       0.010
   0.04291773  0.04955713  0.00000000       0.021
   0.06437660  0.06194641  0.00000000       0.021
   0.08583547  0.07433569  0.00000000       0.021
   0.10729433  0.08672498  0.00000000       0.021
   0.04291773  0.07433569  0.00000000       0.010
   0.06437660  0.08672498  0.00000000       0.021
   0.08583547  0.09911426  0.00000000       0.021
   0.10729433  0.11150354  0.00000000       0.010
   0.06437660  0.11150354  0.00000000       0.010
   0.08583547  0.12389282  0.00000000       0.021
   0.08583547  0.14867139  0.00000000       0.003
   0.00000000  0.00000000  0.00685035       0.003
   0.02145887  0.01238928  0.00685035       0.010
   0.04291773  0.02477856  0.00685035       0.010
   0.06437660  0.03716785  0.00685035       0.010
   0.08583547  0.04955713  0.00685035       0.010
   0.10729433  0.06194641  0.00685035       0.010
   0.12875320  0.07433569  0.00685035       0.010
  -0.10729433 -0.06194641  0.00685035       0.010
  -0.08583547 -0.04955713  0.00685035       0.010
  -0.06437660 -0.03716785  0.00685035       0.010
  -0.04291773 -0.02477856  0.00685035       0.010
  -0.02145887 -0.01238928  0.00685035       0.010
   0.02145887  0.03716785  0.00685035       0.021
   0.04291773  0.04955713  0.00685035       0.021
   0.06437660  0.06194641  0.00685035       0.021
   0.08583547  0.07433569  0.00685035       0.021
   0.10729433  0.08672498  0.00685035       0.021
   0.12875320  0.09911426  0.00685035       0.021
  -0.10729433 -0.03716785  0.00685035       0.021
  -0.08583547 -0.02477856  0.00685035       0.021
  -0.06437660 -0.01238928  0.00685035       0.021
   0.04291773  0.07433569  0.00685035       0.021
   0.06437660  0.08672498  0.00685035       0.021
   0.08583547  0.09911426  0.00685035       0.021
   0.10729433  0.11150354  0.00685035       0.021
   0.12875320  0.12389282  0.00685035       0.021
  -0.10729433 -0.01238928  0.00685035       0.021
   0.06437660  0.11150354  0.00685035       0.021
   0.08583547  0.12389282  0.00685035       0.021
   0.10729433  0.13628211  0.00685035       0.021
   0.08583547  0.14867139  0.00685035       0.007
   0.00000000  0.00000000  0.01370070       0.002
   0.02145887  0.01238928  0.01370070       0.010
   0.04291773  0.02477856  0.01370070       0.010
   0.06437660  0.03716785  0.01370070       0.010
   0.08583547  0.04955713  0.01370070       0.010
   0.10729433  0.06194641  0.01370070       0.010
   0.12875320  0.07433569  0.01370070       0.005
   0.02145887  0.03716785  0.01370070       0.010
   0.04291773  0.04955713  0.01370070       0.021
   0.06437660  0.06194641  0.01370070       0.021
   0.08583547  0.07433569  0.01370070       0.021
   0.10729433  0.08672498  0.01370070       0.021
   0.04291773  0.07433569  0.01370070       0.010
   0.06437660  0.08672498  0.01370070       0.021
   0.08583547  0.09911426  0.01370070       0.021
   0.10729433  0.11150354  0.01370070       0.010
   0.06437660  0.11150354  0.01370070       0.010
   0.08583547  0.12389282  0.01370070       0.021
   0.08583547  0.14867139  0.01370070       0.003
 
 k-points in reciprocal lattice and weights: K-point convergence                     
   0.00000000  0.00000000  0.00000000       0.002
   0.08333333  0.00000000  0.00000000       0.010
   0.16666667 -0.00000000  0.00000000       0.010
   0.25000000 -0.00000000  0.00000000       0.010
   0.33333333 -0.00000000  0.00000000       0.010
   0.41666667 -0.00000000  0.00000000       0.010
   0.50000000 -0.00000000  0.00000000       0.005
   0.08333333  0.08333333  0.00000000       0.010
   0.16666667  0.08333333  0.00000000       0.021
   0.25000000  0.08333333  0.00000000       0.021
   0.33333333  0.08333333  0.00000000       0.021
   0.41666667  0.08333333  0.00000000       0.021
   0.16666667  0.16666667  0.00000000       0.010
   0.25000000  0.16666667  0.00000000       0.021
   0.33333333  0.16666667  0.00000000       0.021
   0.41666667  0.16666667 -0.00000000       0.010
   0.25000000  0.25000000  0.00000000       0.010
   0.33333333  0.25000000 -0.00000000       0.021
   0.33333333  0.33333333  0.00000000       0.003
   0.00000000  0.00000000  0.25000000       0.003
   0.08333333  0.00000000  0.25000000       0.010
   0.16666667 -0.00000000  0.25000000       0.010
   0.25000000 -0.00000000  0.25000000       0.010
   0.33333333 -0.00000000  0.25000000       0.010
   0.41666667 -0.00000000  0.25000000       0.010
   0.50000000 -0.00000000  0.25000000       0.010
  -0.41666667  0.00000000  0.25000000       0.010
  -0.33333333  0.00000000  0.25000000       0.010
  -0.25000000  0.00000000  0.25000000       0.010
  -0.16666667  0.00000000  0.25000000       0.010
  -0.08333333  0.00000000  0.25000000       0.010
   0.08333333  0.08333333  0.25000000       0.021
   0.16666667  0.08333333  0.25000000       0.021
   0.25000000  0.08333333  0.25000000       0.021
   0.33333333  0.08333333  0.25000000       0.021
   0.41666667  0.08333333  0.25000000       0.021
   0.50000000  0.08333333  0.25000000       0.021
  -0.41666667  0.08333333  0.25000000       0.021
  -0.33333333  0.08333333  0.25000000       0.021
  -0.25000000  0.08333333  0.25000000       0.021
   0.16666667  0.16666667  0.25000000       0.021
   0.25000000  0.16666667  0.25000000       0.021
   0.33333333  0.16666667  0.25000000       0.021
   0.41666667  0.16666667  0.25000000       0.021
   0.50000000  0.16666667  0.25000000       0.021
  -0.41666667  0.16666667  0.25000000       0.021
   0.25000000  0.25000000  0.25000000       0.021
   0.33333333  0.25000000  0.25000000       0.021
   0.41666667  0.25000000  0.25000000       0.021
   0.33333333  0.33333333  0.25000000       0.007
   0.00000000  0.00000000  0.50000000       0.002
   0.08333333  0.00000000  0.50000000       0.010
   0.16666667 -0.00000000  0.50000000       0.010
   0.25000000 -0.00000000  0.50000000       0.010
   0.33333333 -0.00000000  0.50000000       0.010
   0.41666667 -0.00000000  0.50000000       0.010
   0.50000000 -0.00000000  0.50000000       0.005
   0.08333333  0.08333333  0.50000000       0.010
   0.16666667  0.08333333  0.50000000       0.021
   0.25000000  0.08333333  0.50000000       0.021
   0.33333333  0.08333333  0.50000000       0.021
   0.41666667  0.08333333  0.50000000       0.021
   0.16666667  0.16666667  0.50000000       0.010
   0.25000000  0.16666667  0.50000000       0.021
   0.33333333  0.16666667  0.50000000       0.021
   0.41666667  0.16666667  0.50000000       0.010
   0.25000000  0.25000000  0.50000000       0.010
   0.33333333  0.25000000  0.50000000       0.021
   0.33333333  0.33333333  0.50000000       0.003
 
 position of ions in fractional coordinates (direct lattice) 
   0.66666669  0.33333334  0.10859869
   0.33333334  0.66666669  0.44193202
   0.00000000  0.00000000  0.77526533
   0.00000000  0.00000000  0.00446460
   0.66666669  0.33333334  0.33779794
   0.33333334  0.66666669  0.67113129
   0.00000000  0.00000000  0.22881194
   0.66666669  0.33333334  0.56214529
   0.33333334  0.66666669  0.89547860
   0.00000000  0.00000000  0.12359033
   0.66666669  0.33333334  0.45692366
   0.33333334  0.66666669  0.79025701
   0.00000000  0.00000000  0.29602671
   0.66666669  0.33333334  0.62936005
   0.33333334  0.66666669  0.96269337
   0.00000000  0.00000000  0.70571997
   0.66666669  0.33333334  0.03905331
   0.33333334  0.66666669  0.37238663
   0.00000000  0.00000000  0.86612112
   0.66666669  0.33333334  0.19945445
   0.33333334  0.66666669  0.53278781
 
 position of ions in cartesian coordinates  (Angst):
   1.94169940  1.12104067  3.96325304
  -0.00000000  2.24208134 16.12808040
   0.00000000 -0.00000000 28.29290725
   0.00000000 -0.00000000  0.16293331
   1.94169940  1.12104067 12.32776122
  -0.00000000  2.24208134 24.49258917
   0.00000000 -0.00000000  8.35037347
   1.94169940  1.12104067 20.51520138
  -0.00000000  2.24208134 32.68002820
   0.00000000 -0.00000000  4.51036530
   1.94169940  1.12104067 16.67519270
  -0.00000000  2.24208134 28.84002061
   0.00000000 -0.00000000 10.80334157
   1.94169940  1.12104067 22.96816948
  -0.00000000  2.24208134 35.13299634
   0.00000000 -0.00000000 25.75488535
   1.94169940  1.12104067  1.42523018
  -0.00000000  2.24208134 13.59005740
   0.00000000 -0.00000000 31.60864235
   1.94169940  1.12104067  7.27898704
  -0.00000000  2.24208134 19.44381550
 


--------------------------------------------------------------------------------------------------------


 k-point  1 :   0.0000 0.0000 0.0000  plane waves:   12031
 k-point  2 :   0.0833 0.0000 0.0000  plane waves:   12005
 k-point  3 :   0.1667-0.0000 0.0000  plane waves:   12050
 k-point  4 :   0.2500-0.0000 0.0000  plane waves:   12094
 k-point  5 :   0.3333-0.0000 0.0000  plane waves:   12090
 k-point  6 :   0.4167-0.0000 0.0000  plane waves:   12094
 k-point  7 :   0.5000-0.0000 0.0000  plane waves:   12108
 k-point  8 :   0.0833 0.0833 0.0000  plane waves:   12011
 k-point  9 :   0.1667 0.0833 0.0000  plane waves:   12057
 k-point 10 :   0.2500 0.0833 0.0000  plane waves:   12102
 k-point 11 :   0.3333 0.0833 0.0000  plane waves:   12105
 k-point 12 :   0.4167 0.0833 0.0000  plane waves:   12119
 k-point 13 :   0.1667 0.1667 0.0000  plane waves:   12087
 k-point 14 :   0.2500 0.1667 0.0000  plane waves:   12118
 k-point 15 :   0.3333 0.1667 0.0000  plane waves:   12131
 k-point 16 :   0.4167 0.1667-0.0000  plane waves:   12145
 k-point 17 :   0.2500 0.2500 0.0000  plane waves:   12119
 k-point 18 :   0.3333 0.2500-0.0000  plane waves:   12166
 k-point 19 :   0.3333 0.3333 0.0000  plane waves:   12183
 k-point 20 :   0.0000 0.0000 0.2500  plane waves:   12055
 k-point 21 :   0.0833 0.0000 0.2500  plane waves:   12008
 k-point 22 :   0.1667-0.0000 0.2500  plane waves:   12048
 k-point 23 :   0.2500-0.0000 0.2500  plane waves:   12077
 k-point 24 :   0.3333-0.0000 0.2500  plane waves:   12090
 k-point 25 :   0.4167-0.0000 0.2500  plane waves:   12090
 k-point 26 :   0.5000-0.0000 0.2500  plane waves:   12114
 k-point 27 :  -0.4167 0.0000 0.2500  plane waves:   12090
 k-point 28 :  -0.3333 0.0000 0.2500  plane waves:   12090
 k-point 29 :  -0.2500 0.0000 0.2500  plane waves:   12077
 k-point 30 :  -0.1667 0.0000 0.2500  plane waves:   12048
 k-point 31 :  -0.0833 0.0000 0.2500  plane waves:   12008
 k-point 32 :   0.0833 0.0833 0.2500  plane waves:   12011
 k-point 33 :   0.1667 0.0833 0.2500  plane waves:   12055
 k-point 34 :   0.2500 0.0833 0.2500  plane waves:   12097
 k-point 35 :   0.3333 0.0833 0.2500  plane waves:   12106
 k-point 36 :   0.4167 0.0833 0.2500  plane waves:   12129
 k-point 37 :   0.5000 0.0833 0.2500  plane waves:   12129
 k-point 38 :  -0.4167 0.0833 0.2500  plane waves:   12106
 k-point 39 :  -0.3333 0.0833 0.2500  plane waves:   12097
 k-point 40 :  -0.2500 0.0833 0.2500  plane waves:   12055
 k-point 41 :   0.1667 0.1667 0.2500  plane waves:   12100
 k-point 42 :   0.2500 0.1667 0.2500  plane waves:   12125
 k-point 43 :   0.3333 0.1667 0.2500  plane waves:   12131
 k-point 44 :   0.4167 0.1667 0.2500  plane waves:   12137
 k-point 45 :   0.5000 0.1667 0.2500  plane waves:   12131
 k-point 46 :  -0.4167 0.1667 0.2500  plane waves:   12125
 k-point 47 :   0.2500 0.2500 0.2500  plane waves:   12120
 k-point 48 :   0.3333 0.2500 0.2500  plane waves:   12147
 k-point 49 :   0.4167 0.2500 0.2500  plane waves:   12147
 k-point 50 :   0.3333 0.3333 0.2500  plane waves:   12156
 k-point 51 :   0.0000 0.0000 0.5000  plane waves:   12062
 k-point 52 :   0.0833 0.0000 0.5000  plane waves:   12020
 k-point 53 :   0.1667-0.0000 0.5000  plane waves:   12040
 k-point 54 :   0.2500-0.0000 0.5000  plane waves:   12072
 k-point 55 :   0.3333-0.0000 0.5000  plane waves:   12100
 k-point 56 :   0.4167-0.0000 0.5000  plane waves:   12092
 k-point 57 :   0.5000-0.0000 0.5000  plane waves:   12120
 k-point 58 :   0.0833 0.0833 0.5000  plane waves:   12006
 k-point 59 :   0.1667 0.0833 0.5000  plane waves:   12042
 k-point 60 :   0.2500 0.0833 0.5000  plane waves:   12106
 k-point 61 :   0.3333 0.0833 0.5000  plane waves:   12102
 k-point 62 :   0.4167 0.0833 0.5000  plane waves:   12124
 k-point 63 :   0.1667 0.1667 0.5000  plane waves:   12088
 k-point 64 :   0.2500 0.1667 0.5000  plane waves:   12122
 k-point 65 :   0.3333 0.1667 0.5000  plane waves:   12126
 k-point 66 :   0.4167 0.1667 0.5000  plane waves:   12136
 k-point 67 :   0.2500 0.2500 0.5000  plane waves:   12128
 k-point 68 :   0.3333 0.2500 0.5000  plane waves:   12148
 k-point 69 :   0.3333 0.3333 0.5000  plane waves:   12180

 maximum and minimum number of plane-waves per node :     12183    12005

 maximum number of plane-waves:     12183
 maximum index in each direction: 
   IXMAX=    7   IYMAX=    7   IZMAX=   66
   IXMIN=   -7   IYMIN=   -7   IZMIN=  -67


 serial   3D FFT for wavefunctions
 parallel 3D FFT for charge:
    minimum data exchange during FFTs selected (reduces bandwidth)


 total amount of memory used by VASP MPI-rank0   643792. kBytes
=======================================================================

   base      :      30000. kBytes
   nonl-proj :     367274. kBytes
   fftplans  :      31732. kBytes
   grid      :      22064. kBytes
   one-center:        326. kBytes
   wavefun   :     192396. kBytes
 
     INWAV:  cpu time    0.0000: real time    0.0001
 Broyden mixing: mesh for mixing (old mesh)
   NGX = 15   NGY = 15   NGZ =133
  (NGX  = 56   NGY  = 56   NGZ  =540)
  gives a total of  29925 points

 initial charge density was supplied:
 charge density of overlapping atoms calculated
 number of electron     186.0000000 magnetization 
 keeping initial charge density in first step


--------------------------------------------------------------------------------------------------------


 Maximum index for augmentation-charges        18756 (set IRDMAX)


--------------------------------------------------------------------------------------------------------


 First call to EWALD:  gamma=   0.227
 Maximum number of real-space cells 6x 6x 1
 Maximum number of reciprocal cells 2x 2x11

    FEWALD:  cpu time    0.0014: real time    0.0017


--------------------------------------- Iteration      1(   1)  ---------------------------------------


    POTLOK:  cpu time    0.1050: real time    0.1655
    SETDIJ:  cpu time    0.3364: real time    0.3373
     EDDAV:  cpu time   41.5920: real time   41.7347
 BZINTS: Fermi energy: 27.797261;186.000000 electrons
         Band energy:1460.633930;  BLOECHL correction: -0.285402
       DOS:  cpu time    0.1016: real time    0.1018
    --------------------------------------------
      LOOP:  cpu time   42.1349: real time   42.3393

 eigenvalue-minimisations  : 15456
 total energy-change (2. order) : 0.2104000E+04  (-0.7751466E+04)
 number of electron     186.0000000 magnetization 
 augmentation part      186.0000000 magnetization 

 Free energy of the ion-electron system (eV)
  ---------------------------------------------------
  alpha Z        PSCENC =       437.53732390
  Ewald energy   TEWEN  =    -12182.51451303
  -Hartree energ DENC   =     -5771.48127172
  -exchange      EXHF   =         0.00000000
  -V(xc)+E(xc)   XCENC  =       569.08549363
  PAW double counting   =     15261.13837759   -15699.70644097
  entropy T*S    EENTRO =         0.00000000
  eigenvalues    EBANDS =      1460.63392950
  atomic energy  EATOM  =     18029.30706701
  Solvation  Ediel_sol  =         0.00000000
  ---------------------------------------------------
  free energy    TOTEN  =      2103.99996592 eV

  energy without entropy =     2103.99996592  energy(sigma->0) =     2103.99996592


--------------------------------------------------------------------------------------------------------




--------------------------------------- Iteration      1(   2)  ---------------------------------------


     EDDAV:  cpu time   39.4711: real time   39.5859
 BZINTS: Fermi energy: 11.220697;186.000000 electrons
         Band energy:-293.215417;  BLOECHL correction: -0.137433
       DOS:  cpu time    0.1130: real time    0.1133
    --------------------------------------------
      LOOP:  cpu time   39.5841: real time   39.6992

 eigenvalue-minimisations  : 15456
 total energy-change (2. order) :-0.1753849E+04  (-0.1702389E+04)
 number of electron     186.0000000 magnetization 
 augmentation part      186.0000000 magnetization 

 Free energy of the ion-electron system (eV)
  ---------------------------------------------------
  alpha Z        PSCENC =       437.53732390
  Ewald energy   TEWEN  =    -12182.51451303
  -Hartree energ DENC   =     -5771.48127172
  -exchange      EXHF   =         0.00000000
  -V(xc)+E(xc)   XCENC  =       569.08549363
  PAW double counting   =     15261.13837759   -15699.70644097
  entropy T*S    EENTRO =         0.00000000
  eigenvalues    EBANDS =      -293.21541661
  atomic energy  EATOM  =     18029.30706701
  Solvation  Ediel_sol  =         0.00000000
  ---------------------------------------------------
  free energy    TOTEN  =       350.15061981 eV

  energy without entropy =      350.15061981  energy(sigma->0) =      350.15061981


--------------------------------------------------------------------------------------------------------




--------------------------------------- Iteration      1(   3)  ---------------------------------------


     EDDAV:  cpu time   46.3305: real time   46.4567
 BZINTS: Fermi energy:  4.568451;186.000000 electrons
         Band energy:-685.838237;  BLOECHL correction:  0.000000
       DOS:  cpu time    0.0222: real time    0.0222
    --------------------------------------------
      LOOP:  cpu time   46.3527: real time   46.4790

 eigenvalue-minimisations  : 17536
 total energy-change (2. order) :-0.3926228E+03  (-0.3736711E+03)
 number of electron     186.0000000 magnetization 
 augmentation part      186.0000000 magnetization 

 Free energy of the ion-electron system (eV)
  ---------------------------------------------------
  alpha Z        PSCENC =       437.53732390
  Ewald energy   TEWEN  =    -12182.51451303
  -Hartree energ DENC   =     -5771.48127172
  -exchange      EXHF   =         0.00000000
  -V(xc)+E(xc)   XCENC  =       569.08549363
  PAW double counting   =     15261.13837759   -15699.70644097
  entropy T*S    EENTRO =         0.00000000
  eigenvalues    EBANDS =      -685.83823686
  atomic energy  EATOM  =     18029.30706701
  Solvation  Ediel_sol  =         0.00000000
  ---------------------------------------------------
  free energy    TOTEN  =       -42.47220044 eV

  energy without entropy =      -42.47220044  energy(sigma->0) =      -42.47220044


--------------------------------------------------------------------------------------------------------




--------------------------------------- Iteration      1(   4)  ---------------------------------------


     EDDAV:  cpu time   45.9880: real time   46.1261
 BZINTS: Fermi energy:  3.351877;186.000000 electrons
         Band energy:-726.878191;  BLOECHL correction:  0.000000
       DOS:  cpu time    0.0187: real time    0.0187
    --------------------------------------------
      LOOP:  cpu time   46.0067: real time   46.1448

 eigenvalue-minimisations  : 19488
 total energy-change (2. order) :-0.4103995E+02  (-0.4045110E+02)
 number of electron     186.0000000 magnetization 
 augmentation part      186.0000000 magnetization 

 Free energy of the ion-electron system (eV)
  ---------------------------------------------------
  alpha Z        PSCENC =       437.53732390
  Ewald energy   TEWEN  =    -12182.51451303
  -Hartree energ DENC   =     -5771.48127172
  -exchange      EXHF   =         0.00000000
  -V(xc)+E(xc)   XCENC  =       569.08549363
  PAW double counting   =     15261.13837759   -15699.70644097
  entropy T*S    EENTRO =         0.00000000
  eigenvalues    EBANDS =      -726.87819124
  atomic energy  EATOM  =     18029.30706701
  Solvation  Ediel_sol  =         0.00000000
  ---------------------------------------------------
  free energy    TOTEN  =       -83.51215482 eV

  energy without entropy =      -83.51215482  energy(sigma->0) =      -83.51215482


--------------------------------------------------------------------------------------------------------




--------------------------------------- Iteration      1(   5)  ---------------------------------------


     EDDAV:  cpu time   50.9619: real time   51.0972
 BZINTS: Fermi energy:  3.307492;186.000000 electrons
         Band energy:-728.564569;  BLOECHL correction:  0.000000
       DOS:  cpu time    0.0159: real time    0.0159
    CHARGE:  cpu time    2.2274: real time    2.2331
    MIXING:  cpu time    0.0026: real time    0.0026
    --------------------------------------------
      LOOP:  cpu time   53.2077: real time   53.3489

 eigenvalue-minimisations  : 20568
 total energy-change (2. order) :-0.1686378E+01  (-0.1678941E+01)
 number of electron     186.0000002 magnetization 
 augmentation part       56.1653526 magnetization 

 Broyden mixing:
  rms(total) = 0.24261E+01    rms(broyden)= 0.24261E+01
  rms(prec ) = 0.24485E+01
  weight for this iteration     100.00

 Free energy of the ion-electron system (eV)
  ---------------------------------------------------
  alpha Z        PSCENC =       437.53732390
  Ewald energy   TEWEN  =    -12182.51451303
  -Hartree energ DENC   =     -5771.48127172
  -exchange      EXHF   =         0.00000000
  -V(xc)+E(xc)   XCENC  =       569.08549363
  PAW double counting   =     15261.13837759   -15699.70644097
  entropy T*S    EENTRO =         0.00000000
  eigenvalues    EBANDS =      -728.56456933
  atomic energy  EATOM  =     18029.30706701
  Solvation  Ediel_sol  =         0.00000000
  ---------------------------------------------------
  free energy    TOTEN  =       -85.19853291 eV

  energy without entropy =      -85.19853291  energy(sigma->0) =      -85.19853291


--------------------------------------------------------------------------------------------------------




--------------------------------------- Iteration      1(   6)  ---------------------------------------


    POTLOK:  cpu time    0.0895: real time    0.0916
    SETDIJ:  cpu time    0.3148: real time    0.3156
     EDDAV:  cpu time   58.0059: real time   58.1611
 BZINTS: Fermi energy:  4.012824;186.000000 electrons
         Band energy:-776.680096;  BLOECHL correction:  0.000000
       DOS:  cpu time    0.0183: real time    0.0184
    CHARGE:  cpu time    2.8839: real time    2.8915
    MIXING:  cpu time    0.0074: real time    0.0074
    --------------------------------------------
      LOOP:  cpu time   61.3199: real time   61.4855

 eigenvalue-minimisations  : 24416
 total energy-change (2. order) : 0.5265105E+01  (-0.8995678E+00)
 number of electron     186.0000002 magnetization 
 augmentation part       56.6661033 magnetization 

 Broyden mixing:
  rms(total) = 0.16810E+01    rms(broyden)= 0.16810E+01
  rms(prec ) = 0.16862E+01
  weight for this iteration     100.00

 eigenvalues of (default mixing * dielectric matrix)
  average eigenvalue GAMMA=   2.2688
  2.2688

 Free energy of the ion-electron system (eV)
  ---------------------------------------------------
  alpha Z        PSCENC =       437.53732390
  Ewald energy   TEWEN  =    -12182.51451303
  -Hartree energ DENC   =     -5734.21587930
  -exchange      EXHF   =         0.00000000
  -V(xc)+E(xc)   XCENC  =       570.54819130
  PAW double counting   =     18496.05788278   -18919.97340528
  entropy T*S    EENTRO =         0.00000000
  eigenvalues    EBANDS =      -776.68009579
  atomic energy  EATOM  =     18029.30706701
  Solvation  Ediel_sol  =         0.00000000
  ---------------------------------------------------
  free energy    TOTEN  =       -79.93342840 eV

  energy without entropy =      -79.93342840  energy(sigma->0) =      -79.93342840


--------------------------------------------------------------------------------------------------------




--------------------------------------- Iteration      1(   7)  ---------------------------------------


    POTLOK:  cpu time    0.1040: real time    0.1062
    SETDIJ:  cpu time    0.3509: real time    0.3521
     EDDAV:  cpu time   55.2921: real time   55.4431
 BZINTS: Fermi energy:  4.850097;186.000000 electrons
         Band energy:-766.587643;  BLOECHL correction:  0.000000
       DOS:  cpu time    0.0210: real time    0.0211
    CHARGE:  cpu time    2.2197: real time    2.2255
    MIXING:  cpu time    0.0040: real time    0.0040
    --------------------------------------------
      LOOP:  cpu time   57.9918: real time   58.1520

 eigenvalue-minimisations  : 23072
 total energy-change (2. order) :-0.3271545E+00  (-0.1348587E+01)
 number of electron     186.0000002 magnetization 
 augmentation part       56.8170829 magnetization 

 Broyden mixing:
  rms(total) = 0.44622E+00    rms(broyden)= 0.44621E+00
  rms(prec ) = 0.45523E+00
  weight for this iteration     100.00

 eigenvalues of (default mixing * dielectric matrix)
  average eigenvalue GAMMA=   1.6242
  1.0967  2.1516

 Free energy of the ion-electron system (eV)
  ---------------------------------------------------
  alpha Z        PSCENC =       437.53732390
  Ewald energy   TEWEN  =    -12182.51451303
  -Hartree energ DENC   =     -5737.72091894
  -exchange      EXHF   =         0.00000000
  -V(xc)+E(xc)   XCENC  =       573.39486741
  PAW double counting   =     24176.75592162   -24610.43268821
  entropy T*S    EENTRO =         0.00000000
  eigenvalues    EBANDS =      -766.58764269
  atomic energy  EATOM  =     18029.30706701
  Solvation  Ediel_sol  =         0.00000000
  ---------------------------------------------------
  free energy    TOTEN  =       -80.26058292 eV

  energy without entropy =      -80.26058292  energy(sigma->0) =      -80.26058292


--------------------------------------------------------------------------------------------------------




--------------------------------------- Iteration      1(   8)  ---------------------------------------


    POTLOK:  cpu time    0.0922: real time    0.0938
    SETDIJ:  cpu time    0.3244: real time    0.3257
     EDDAV:  cpu time   47.0532: real time   47.1766
 BZINTS: Fermi energy:  4.542113;186.000000 electrons
         Band energy:-763.516011;  BLOECHL correction:  0.000000
       DOS:  cpu time    0.0195: real time    0.0195
    CHARGE:  cpu time    2.1986: real time    2.2043
    MIXING:  cpu time    0.0029: real time    0.0029
    --------------------------------------------
      LOOP:  cpu time   49.6909: real time   49.8228

 eigenvalue-minimisations  : 21528
 total energy-change (2. order) : 0.3310712E+00  (-0.2199647E+00)
 number of electron     186.0000002 magnetization 
 augmentation part       56.7408235 magnetization 

 Broyden mixing:
  rms(total) = 0.36886E+00    rms(broyden)= 0.36885E+00
  rms(prec ) = 0.36977E+00
  weight for this iteration     100.00

 eigenvalues of (default mixing * dielectric matrix)
  average eigenvalue GAMMA=   1.3591
  2.0513  1.4044  0.6215

 Free energy of the ion-electron system (eV)
  ---------------------------------------------------
  alpha Z        PSCENC =       437.53732390
  Ewald energy   TEWEN  =    -12182.51451303
  -Hartree energ DENC   =     -5736.99525346
  -exchange      EXHF   =         0.00000000
  -V(xc)+E(xc)   XCENC  =       572.54288974
  PAW double counting   =     24687.16055981   -25123.45157454
  entropy T*S    EENTRO =         0.00000000
  eigenvalues    EBANDS =      -763.51601113
  atomic energy  EATOM  =     18029.30706701
  Solvation  Ediel_sol  =         0.00000000
  ---------------------------------------------------
  free energy    TOTEN  =       -79.92951171 eV

  energy without entropy =      -79.92951171  energy(sigma->0) =      -79.92951171


--------------------------------------------------------------------------------------------------------




--------------------------------------- Iteration      1(   9)  ---------------------------------------


    POTLOK:  cpu time    0.0880: real time    0.0897
    SETDIJ:  cpu time    0.3163: real time    0.3170
     EDDAV:  cpu time   45.5014: real time   45.6227
 BZINTS: Fermi energy:  4.449606;186.000000 electrons
         Band energy:-765.227676;  BLOECHL correction:  0.000000
       DOS:  cpu time    0.0185: real time    0.0185
    CHARGE:  cpu time    2.2096: real time    2.2153
    MIXING:  cpu time    0.0031: real time    0.0031
    --------------------------------------------
      LOOP:  cpu time   48.1368: real time   48.2663

 eigenvalue-minimisations  : 20488
 total energy-change (2. order) :-0.3464820E-02  (-0.3520204E-01)
 number of electron     186.0000002 magnetization 
 augmentation part       56.7151415 magnetization 

 Broyden mixing:
  rms(total) = 0.19962E+00    rms(broyden)= 0.19962E+00
  rms(prec ) = 0.20019E+00
  weight for this iteration     100.00

 eigenvalues of (default mixing * dielectric matrix)
  average eigenvalue GAMMA=   1.3587
  1.8839  1.4600  1.0455  1.0455

 Free energy of the ion-electron system (eV)
  ---------------------------------------------------
  alpha Z        PSCENC =       437.53732390
  Ewald energy   TEWEN  =    -12182.51451303
  -Hartree energ DENC   =     -5734.97540221
  -exchange      EXHF   =         0.00000000
  -V(xc)+E(xc)   XCENC  =       572.32808794
  PAW double counting   =     24781.75238619   -25218.14025028
  entropy T*S    EENTRO =         0.00000000
  eigenvalues    EBANDS =      -765.22767605
  atomic energy  EATOM  =     18029.30706701
  Solvation  Ediel_sol  =         0.00000000
  ---------------------------------------------------
  free energy    TOTEN  =       -79.93297653 eV

  energy without entropy =      -79.93297653  energy(sigma->0) =      -79.93297653


--------------------------------------------------------------------------------------------------------




--------------------------------------- Iteration      1(  10)  ---------------------------------------


    POTLOK:  cpu time    0.0899: real time    0.0957
    SETDIJ:  cpu time    0.3157: real time    0.3167
     EDDAV:  cpu time   46.7603: real time   46.8824
 BZINTS: Fermi energy:  4.527022;186.000000 electrons
         Band energy:-766.037444;  BLOECHL correction:  0.000000
       DOS:  cpu time    0.0185: real time    0.0185
    CHARGE:  cpu time    2.1913: real time    2.1971
    MIXING:  cpu time    0.0043: real time    0.0043
    --------------------------------------------
      LOOP:  cpu time   49.3800: real time   49.5146

 eigenvalue-minimisations  : 21328
 total energy-change (2. order) : 0.1182745E-02  (-0.3281891E-02)
 number of electron     186.0000002 magnetization 
 augmentation part       56.7284760 magnetization 

 Broyden mixing:
  rms(total) = 0.12852E+00    rms(broyden)= 0.12852E+00
  rms(prec ) = 0.12873E+00
  weight for this iteration     100.00

 eigenvalues of (default mixing * dielectric matrix)
  average eigenvalue GAMMA=   1.6407
  2.5801  2.5801  1.1148  1.1148  0.8136

 Free energy of the ion-electron system (eV)
  ---------------------------------------------------
  alpha Z        PSCENC =       437.53732390
  Ewald energy   TEWEN  =    -12182.51451303
  -Hartree energ DENC   =     -5734.55836738
  -exchange      EXHF   =         0.00000000
  -V(xc)+E(xc)   XCENC  =       572.44288131
  PAW double counting   =     24689.75325309   -25125.86199484
  entropy T*S    EENTRO =         0.00000000
  eigenvalues    EBANDS =      -766.03744385
  atomic energy  EATOM  =     18029.30706701
  Solvation  Ediel_sol  =         0.00000000
  ---------------------------------------------------
  free energy    TOTEN  =       -79.93179378 eV

  energy without entropy =      -79.93179378  energy(sigma->0) =      -79.93179378


--------------------------------------------------------------------------------------------------------




--------------------------------------- Iteration      1(  11)  ---------------------------------------


    POTLOK:  cpu time    0.0870: real time    0.0889
    SETDIJ:  cpu time    0.3153: real time    0.3160
     EDDAV:  cpu time   44.2208: real time   44.3365
 BZINTS: Fermi energy:  4.525662;186.000000 electrons
         Band energy:-765.676058;  BLOECHL correction:  0.000000
       DOS:  cpu time    0.0181: real time    0.0181
    CHARGE:  cpu time    2.0991: real time    2.1045
    MIXING:  cpu time    0.0032: real time    0.0032
    --------------------------------------------
      LOOP:  cpu time   46.7434: real time   46.8673

 eigenvalue-minimisations  : 19720
 total energy-change (2. order) :-0.7174628E-03  (-0.9146353E-03)
 number of electron     186.0000002 magnetization 
 augmentation part       56.7235317 magnetization 

 Broyden mixing:
  rms(total) = 0.34195E-01    rms(broyden)= 0.34194E-01
  rms(prec ) = 0.34290E-01
  weight for this iteration     100.00

 eigenvalues of (default mixing * dielectric matrix)
  average eigenvalue GAMMA=   1.4677
  2.0862  2.0862  1.4668  1.1139  1.1139  0.9395

 Free energy of the ion-electron system (eV)
  ---------------------------------------------------
  alpha Z        PSCENC =       437.53732390
  Ewald energy   TEWEN  =    -12182.51451303
  -Hartree energ DENC   =     -5734.86165256
  -exchange      EXHF   =         0.00000000
  -V(xc)+E(xc)   XCENC  =       572.47570187
  PAW double counting   =     24543.93499600   -24980.13537652
  entropy T*S    EENTRO =         0.00000000
  eigenvalues    EBANDS =      -765.67605791
  atomic energy  EATOM  =     18029.30706701
  Solvation  Ediel_sol  =         0.00000000
  ---------------------------------------------------
  free energy    TOTEN  =       -79.93251124 eV

  energy without entropy =      -79.93251124  energy(sigma->0) =      -79.93251124


--------------------------------------------------------------------------------------------------------




--------------------------------------- Iteration      1(  12)  ---------------------------------------


    POTLOK:  cpu time    0.0868: real time    0.0886
    SETDIJ:  cpu time    0.3159: real time    0.3166
     EDDAV:  cpu time   42.6128: real time   42.7242
 BZINTS: Fermi energy:  4.523957;186.000000 electrons
         Band energy:-765.785569;  BLOECHL correction:  0.000000
       DOS:  cpu time    0.0181: real time    0.0181
    CHARGE:  cpu time    2.1786: real time    2.1843
    MIXING:  cpu time    0.0034: real time    0.0034
    --------------------------------------------
      LOOP:  cpu time   45.2156: real time   45.3352

 eigenvalue-minimisations  : 18848
 total energy-change (2. order) : 0.5524307E-04  (-0.1956065E-03)
 number of electron     186.0000002 magnetization 
 augmentation part       56.7241669 magnetization 

 Broyden mixing:
  rms(total) = 0.32302E-01    rms(broyden)= 0.32302E-01
  rms(prec ) = 0.32356E-01
  weight for this iteration     100.00

 eigenvalues of (default mixing * dielectric matrix)
  average eigenvalue GAMMA=   1.3381
  2.0919  2.0919  1.6697  1.0965  1.0965  0.9758  0.3447

 Free energy of the ion-electron system (eV)
  ---------------------------------------------------
  alpha Z        PSCENC =       437.53732390
  Ewald energy   TEWEN  =    -12182.51451303
  -Hartree energ DENC   =     -5734.68834356
  -exchange      EXHF   =         0.00000000
  -V(xc)+E(xc)   XCENC  =       572.47393352
  PAW double counting   =     24630.27503075   -25066.53738586
  entropy T*S    EENTRO =         0.00000000
  eigenvalues    EBANDS =      -765.78556873
  atomic energy  EATOM  =     18029.30706701
  Solvation  Ediel_sol  =         0.00000000
  ---------------------------------------------------
  free energy    TOTEN  =       -79.93245600 eV

  energy without entropy =      -79.93245600  energy(sigma->0) =      -79.93245600


--------------------------------------------------------------------------------------------------------




--------------------------------------- Iteration      1(  13)  ---------------------------------------


    POTLOK:  cpu time    0.0867: real time    0.0889
    SETDIJ:  cpu time    0.3170: real time    0.3178
     EDDAV:  cpu time   49.4047: real time   49.5375
 BZINTS: Fermi energy:  4.523922;186.000000 electrons
         Band energy:-765.733639;  BLOECHL correction:  0.000000
       DOS:  cpu time    0.0182: real time    0.0183
    CHARGE:  cpu time    2.1822: real time    2.1879
    MIXING:  cpu time    0.0035: real time    0.0035
    --------------------------------------------
      LOOP:  cpu time   52.0123: real time   52.1539

 eigenvalue-minimisations  : 22760
 total energy-change (2. order) :-0.2442261E-04  (-0.3769033E-04)
 number of electron     186.0000002 magnetization 
 augmentation part       56.7230580 magnetization 

 Broyden mixing:
  rms(total) = 0.31957E-01    rms(broyden)= 0.31957E-01
  rms(prec ) = 0.32000E-01
  weight for this iteration     100.00

 eigenvalues of (default mixing * dielectric matrix)
  average eigenvalue GAMMA=   1.4281
  2.4697  2.4697  1.5985  1.0603  1.0603  0.8615  0.9524  0.9524

 Free energy of the ion-electron system (eV)
  ---------------------------------------------------
  alpha Z        PSCENC =       437.53732390
  Ewald energy   TEWEN  =    -12182.51451303
  -Hartree energ DENC   =     -5734.73316355
  -exchange      EXHF   =         0.00000000
  -V(xc)+E(xc)   XCENC  =       572.47484568
  PAW double counting   =     24613.73984624   -25050.01024792
  entropy T*S    EENTRO =         0.00000000
  eigenvalues    EBANDS =      -765.73363876
  atomic energy  EATOM  =     18029.30706701
  Solvation  Ediel_sol  =         0.00000000
  ---------------------------------------------------
  free energy    TOTEN  =       -79.93248042 eV

  energy without entropy =      -79.93248042  energy(sigma->0) =      -79.93248042


--------------------------------------------------------------------------------------------------------




--------------------------------------- Iteration      1(  14)  ---------------------------------------


    POTLOK:  cpu time    0.0894: real time    0.0909
    SETDIJ:  cpu time    0.3173: real time    0.3180
     EDDAV:  cpu time   44.0348: real time   44.1501
 BZINTS: Fermi energy:  4.524370;186.000000 electrons
         Band energy:-765.705825;  BLOECHL correction:  0.000000
       DOS:  cpu time    0.0201: real time    0.0201
    CHARGE:  cpu time    2.1828: real time    2.1885
    MIXING:  cpu time    0.0036: real time    0.0036
    --------------------------------------------
      LOOP:  cpu time   46.6479: real time   46.7712

 eigenvalue-minimisations  : 19632
 total energy-change (2. order) :-0.5670841E-04  (-0.1620129E-04)
 number of electron     186.0000002 magnetization 
 augmentation part       56.7229358 magnetization 

 Broyden mixing:
  rms(total) = 0.11639E-01    rms(broyden)= 0.11639E-01
  rms(prec ) = 0.11673E-01
  weight for this iteration     100.00

 eigenvalues of (default mixing * dielectric matrix)
  average eigenvalue GAMMA=   1.4795
  2.4724  2.2437  2.2437  1.3758  1.1279  1.1279  0.8025  0.9609  0.9609

 Free energy of the ion-electron system (eV)
  ---------------------------------------------------
  alpha Z        PSCENC =       437.53732390
  Ewald energy   TEWEN  =    -12182.51451303
  -Hartree energ DENC   =     -5734.78393728
  -exchange      EXHF   =         0.00000000
  -V(xc)+E(xc)   XCENC  =       572.48373614
  PAW double counting   =     24567.85351378   -25004.10990314
  entropy T*S    EENTRO =         0.00000000
  eigenvalues    EBANDS =      -765.70582452
  atomic energy  EATOM  =     18029.30706701
  Solvation  Ediel_sol  =         0.00000000
  ---------------------------------------------------
  free energy    TOTEN  =       -79.93253713 eV

  energy without entropy =      -79.93253713  energy(sigma->0) =      -79.93253713


--------------------------------------------------------------------------------------------------------




--------------------------------------- Iteration      1(  15)  ---------------------------------------


    POTLOK:  cpu time    0.0912: real time    0.0990
    SETDIJ:  cpu time    0.3162: real time    0.3169
     EDDAV:  cpu time   50.4084: real time   50.5463
 BZINTS: Fermi energy:  4.524863;186.000000 electrons
         Band energy:-765.526335;  BLOECHL correction:  0.000000
       DOS:  cpu time    0.0187: real time    0.0187
    CHARGE:  cpu time    2.2389: real time    2.2447
    MIXING:  cpu time    0.0036: real time    0.0036
    --------------------------------------------
      LOOP:  cpu time   53.0770: real time   53.2293

 eigenvalue-minimisations  : 23344
 total energy-change (2. order) : 0.7429422E-05  (-0.1289346E-04)
 number of electron     186.0000002 magnetization 
 augmentation part       56.7208853 magnetization 

 Broyden mixing:
  rms(total) = 0.66166E-02    rms(broyden)= 0.66165E-02
  rms(prec ) = 0.66433E-02
  weight for this iteration     100.00

 eigenvalues of (default mixing * dielectric matrix)
  average eigenvalue GAMMA=   1.5336
  2.9753  2.9753  2.5071  0.9331  0.9331  1.1452  1.1452  0.8229  0.9493  0.9493

 Free energy of the ion-electron system (eV)
  ---------------------------------------------------
  alpha Z        PSCENC =       437.53732390
  Ewald energy   TEWEN  =    -12182.51451303
  -Hartree energ DENC   =     -5734.88268498
  -exchange      EXHF   =         0.00000000
  -V(xc)+E(xc)   XCENC  =       572.48647494
  PAW double counting   =     24560.69700104   -24997.03686387
  entropy T*S    EENTRO =         0.00000000
  eigenvalues    EBANDS =      -765.52633472
  atomic energy  EATOM  =     18029.30706701
  Solvation  Ediel_sol  =         0.00000000
  ---------------------------------------------------
  free energy    TOTEN  =       -79.93252970 eV

  energy without entropy =      -79.93252970  energy(sigma->0) =      -79.93252970


--------------------------------------------------------------------------------------------------------




--------------------------------------- Iteration      1(  16)  ---------------------------------------


    POTLOK:  cpu time    0.0860: real time    0.0875
    SETDIJ:  cpu time    0.3130: real time    0.3137
     EDDAV:  cpu time   44.1882: real time   44.3092
 BZINTS: Fermi energy:  4.524915;186.000000 electrons
         Band energy:-765.513128;  BLOECHL correction:  0.000000
       DOS:  cpu time    0.0192: real time    0.0194
    CHARGE:  cpu time    2.1755: real time    2.1811
    MIXING:  cpu time    0.0039: real time    0.0039
    --------------------------------------------
      LOOP:  cpu time   46.7857: real time   46.9149

 eigenvalue-minimisations  : 19712
 total energy-change (2. order) : 0.1021402E-04  (-0.5481554E-05)
 number of electron     186.0000002 magnetization 
 augmentation part       56.7208405 magnetization 

 Broyden mixing:
  rms(total) = 0.49126E-02    rms(broyden)= 0.49125E-02
  rms(prec ) = 0.49194E-02
  weight for this iteration     100.00

 eigenvalues of (default mixing * dielectric matrix)
  average eigenvalue GAMMA=   1.4803
  3.0188  2.5452  2.5452  1.0678  1.0678  1.3098  1.0906  1.0906  0.8274  0.8603
  0.8603

 Free energy of the ion-electron system (eV)
  ---------------------------------------------------
  alpha Z        PSCENC =       437.53732390
  Ewald energy   TEWEN  =    -12182.51451303
  -Hartree energ DENC   =     -5734.89662211
  -exchange      EXHF   =         0.00000000
  -V(xc)+E(xc)   XCENC  =       572.48800592
  PAW double counting   =     24542.85332247   -24979.19397600
  entropy T*S    EENTRO =         0.00000000
  eigenvalues    EBANDS =      -765.51312765
  atomic energy  EATOM  =     18029.30706701
  Solvation  Ediel_sol  =         0.00000000
  ---------------------------------------------------
  free energy    TOTEN  =       -79.93251949 eV

  energy without entropy =      -79.93251949  energy(sigma->0) =      -79.93251949


--------------------------------------------------------------------------------------------------------




--------------------------------------- Iteration      1(  17)  ---------------------------------------


    POTLOK:  cpu time    0.0886: real time    0.0904
    SETDIJ:  cpu time    0.3186: real time    0.3203
     EDDAV:  cpu time   48.4009: real time   48.5354
 BZINTS: Fermi energy:  4.524899;186.000000 electrons
         Band energy:-765.508312;  BLOECHL correction:  0.000000
       DOS:  cpu time    0.0189: real time    0.0189
    CHARGE:  cpu time    2.2252: real time    2.2310
    MIXING:  cpu time    0.0043: real time    0.0043
    --------------------------------------------
      LOOP:  cpu time   51.0565: real time   51.2003

 eigenvalue-minimisations  : 22200
 total energy-change (2. order) : 0.2240566E-05  (-0.1801942E-05)
 number of electron     186.0000002 magnetization 
 augmentation part       56.7206201 magnetization 

 Broyden mixing:
  rms(total) = 0.31893E-02    rms(broyden)= 0.31891E-02
  rms(prec ) = 0.31905E-02
  weight for this iteration     100.00

 eigenvalues of (default mixing * dielectric matrix)
  average eigenvalue GAMMA=   1.3778
  3.0093  2.4974  2.4974  1.0297  1.0297  1.3277  1.0869  1.0869  0.8248  0.8788
  0.8788  0.3861

 Free energy of the ion-electron system (eV)
  ---------------------------------------------------
  alpha Z        PSCENC =       437.53732390
  Ewald energy   TEWEN  =    -12182.51451303
  -Hartree energ DENC   =     -5734.89324924
  -exchange      EXHF   =         0.00000000
  -V(xc)+E(xc)   XCENC  =       572.48680019
  PAW double counting   =     24543.78025015   -24980.12788393
  entropy T*S    EENTRO =         0.00000000
  eigenvalues    EBANDS =      -765.50831231
  atomic energy  EATOM  =     18029.30706701
  Solvation  Ediel_sol  =         0.00000000
  ---------------------------------------------------
  free energy    TOTEN  =       -79.93251725 eV

  energy without entropy =      -79.93251725  energy(sigma->0) =      -79.93251725


--------------------------------------------------------------------------------------------------------




--------------------------------------- Iteration      1(  18)  ---------------------------------------


    POTLOK:  cpu time    0.0856: real time    0.0872
    SETDIJ:  cpu time    0.3087: real time    0.3095
     EDDAV:  cpu time   40.3613: real time   40.4694
 BZINTS: Fermi energy:  4.524896;186.000000 electrons
         Band energy:-765.510801;  BLOECHL correction:  0.000000
       DOS:  cpu time    0.0192: real time    0.0192
    CHARGE:  cpu time    2.1488: real time    2.1544
    MIXING:  cpu time    0.0041: real time    0.0041
    --------------------------------------------
      LOOP:  cpu time   42.9278: real time   43.0438

 eigenvalue-minimisations  : 17464
 total energy-change (2. order) :-0.4158574E-06  (-0.1478445E-06)
 number of electron     186.0000002 magnetization 
 augmentation part       56.7206284 magnetization 

 Broyden mixing:
  rms(total) = 0.36539E-02    rms(broyden)= 0.36538E-02
  rms(prec ) = 0.36559E-02
  weight for this iteration     100.00

 eigenvalues of (default mixing * dielectric matrix)
  average eigenvalue GAMMA=   1.3599
  2.9411  2.4611  2.4611  1.2961  1.0398  1.0398  0.8175  0.9019  0.9019  0.9842
  0.9842  0.9247  0.9247

 Free energy of the ion-electron system (eV)
  ---------------------------------------------------
  alpha Z        PSCENC =       437.53732390
  Ewald energy   TEWEN  =    -12182.51451303
  -Hartree energ DENC   =     -5734.89346826
  -exchange      EXHF   =         0.00000000
  -V(xc)+E(xc)   XCENC  =       572.48675981
  PAW double counting   =     24543.15538898   -24979.50027546
  entropy T*S    EENTRO =         0.00000000
  eigenvalues    EBANDS =      -765.51080062
  atomic energy  EATOM  =     18029.30706701
  Solvation  Ediel_sol  =         0.00000000
  ---------------------------------------------------
  free energy    TOTEN  =       -79.93251766 eV

  energy without entropy =      -79.93251766  energy(sigma->0) =      -79.93251766


--------------------------------------------------------------------------------------------------------




--------------------------------------- Iteration      1(  19)  ---------------------------------------


    POTLOK:  cpu time    0.0891: real time    0.0911
    SETDIJ:  cpu time    0.3177: real time    0.3184
     EDDAV:  cpu time   28.2833: real time   28.3670
 BZINTS: Fermi energy:  4.524887;186.000000 electrons
         Band energy:-765.511884;  BLOECHL correction:  0.000000
       DOS:  cpu time    0.0189: real time    0.0189
    --------------------------------------------
      LOOP:  cpu time   28.7089: real time   28.7954

 eigenvalue-minimisations  : 10368
 total energy-change (2. order) : 0.1888475E-07  (-0.1052458E-07)
 number of electron     186.0000002 magnetization 
 augmentation part       56.7206284 magnetization 

 Free energy of the ion-electron system (eV)
  ---------------------------------------------------
  alpha Z        PSCENC =       437.53732390
  Ewald energy   TEWEN  =    -12182.51451303
  -Hartree energ DENC   =     -5734.89040858
  -exchange      EXHF   =         0.00000000
  -V(xc)+E(xc)   XCENC  =       572.48672382
  PAW double counting   =     24546.77268591   -24983.11951254
  entropy T*S    EENTRO =         0.00000000
  eigenvalues    EBANDS =      -765.51188415
  atomic energy  EATOM  =     18029.30706701
  Solvation  Ediel_sol  =         0.00000000
  ---------------------------------------------------
  free energy    TOTEN  =       -79.93251765 eV

  energy without entropy =      -79.93251765  energy(sigma->0) =      -79.93251765


--------------------------------------------------------------------------------------------------------




 average (electrostatic) potential at core
  the test charge radii are     0.9521  1.0774  0.9698
  (the norm of the test charge is              1.0000)
       1 -33.6452       2 -33.6452       3 -33.6453       4 -96.9315       5 -96.9314
       6 -96.9315       7 -97.4066       8 -97.4066       9 -97.4067      10 -85.5639
      11 -85.5638      12 -85.5640      13 -87.1627      14 -87.1627      15 -87.1627
      16 -86.9000      17 -86.8999      18 -86.8999      19 -87.6796      20 -87.6795
      21 -87.6795
 
 
 
 E-fermi :   4.5249     XC(G=0):  -9.4381     alpha+bet :-10.1204


 k-point     1 :       0.0000    0.0000    0.0000
  band No.  band energies     occupation 
      1     -10.9836      2.00000
      2     -10.9836      2.00000
      3     -10.9835      2.00000
      4     -10.7813      2.00000
      5     -10.7813      2.00000
      6     -10.7812      2.00000
      7     -10.7812      2.00000
      8     -10.7812      2.00000
      9     -10.7812      2.00000
     10     -10.6054      2.00000
     11     -10.6054      2.00000
     12     -10.6054      2.00000
     13     -10.6054      2.00000
     14     -10.6054      2.00000
     15     -10.6054      2.00000
     16     -10.2644      2.00000
     17     -10.2644      2.00000
     18     -10.2643      2.00000
     19     -10.2643      2.00000
     20     -10.2643      2.00000
     21     -10.2643      2.00000
     22     -10.2520      2.00000
     23     -10.2519      2.00000
     24     -10.2518      2.00000
     25     -10.1191      2.00000
     26     -10.1191      2.00000
     27     -10.1190      2.00000
     28     -10.1190      2.00000
     29     -10.1190      2.00000
     30     -10.1190      2.00000
     31      -9.7183      2.00000
     32      -9.7114      2.00000
     33      -9.7114      2.00000
     34      -9.1370      2.00000
     35      -9.1369      2.00000
     36      -9.1140      2.00000
     37      -8.1845      2.00000
     38      -8.1434      2.00000
     39      -8.1434      2.00000
     40      -7.4200      2.00000
     41      -7.4200      2.00000
     42      -7.3912      2.00000
     43      -2.0587      2.00000
     44      -2.0587      2.00000
     45      -2.0213      2.00000
     46      -1.5616      2.00000
     47      -1.5616      2.00000
     48      -1.5616      2.00000
     49      -1.5616      2.00000
     50      -1.5615      2.00000
     51      -1.5615      2.00000
     52      -1.3469      2.00000
     53      -1.1560      2.00000
     54      -1.1559      2.00000
     55      -1.1173      2.00000
     56      -1.1173      2.00000
     57      -1.1173      2.00000
     58      -1.1173      2.00000
     59      -1.1172      2.00000
     60      -1.1172      2.00000
     61       0.0086      2.00000
     62       0.0086      2.00000
     63       0.4560      2.00000
     64       1.4027      2.00000
     65       1.9589      2.00000
     66       1.9589      2.00000
     67       2.0782      2.00000
     68       2.0782      2.00000
     69       2.0783      2.00000
     70       2.0783      2.00000
     71       2.0799      2.00000
     72       2.0799      2.00000
     73       2.7082      2.00000
     74       2.7082      2.00000
     75       2.7158      2.00000
     76       2.7158      2.00000
     77       2.7159      2.00000
     78       2.7159      2.00000
     79       2.9911      2.00000
     80       2.9911      2.00000
     81       2.9911      2.00000
     82       2.9911      2.00000
     83       2.9976      2.00000
     84       2.9976      2.00000
     85       3.3288      2.00000
     86       3.3289      2.00000
     87       3.9097      2.00000
     88       4.5079      2.00000
     89       4.5079      2.00000
     90       4.5082      2.00000
     91       4.5082      2.00000
     92       4.5082      2.00000
     93       4.5082      2.00000
     94       4.8146      0.00000
     95       5.3380      0.00000
     96       5.3380      0.00000
     97       6.1723      0.00000
     98       6.1723      0.00000
     99       6.3372      0.00000
    100       7.2042      0.00000
    101       7.2449      0.00000
    102       7.2450      0.00000
    103       7.7510      0.00000
    104       7.7510      0.00000
    105       7.8916      0.00000
    106       8.9536      0.00000
    107       8.9548      0.00000
    108       8.9683      0.00000
    109       8.9683      0.00000
    110       8.9807      0.00000
    111       9.0040      0.00000
    112       9.0303      0.00000

 k-point     2 :       0.0833    0.0000    0.0000
  band No.  band energies     occupation 
      1     -10.9922      2.00000
      2     -10.9921      2.00000
      3     -10.9921      2.00000
      4     -10.8003      2.00000
      5     -10.8003      2.00000
      6     -10.8002      2.00000
      7     -10.7748      2.00000
      8     -10.7748      2.00000
      9     -10.7748      2.00000
     10     -10.6116      2.00000
     11     -10.6116      2.00000
     12     -10.6116      2.00000
     13     -10.6050      2.00000
     14     -10.6049      2.00000
     15     -10.6049      2.00000
     16     -10.3046      2.00000
     17     -10.3046      2.00000
     18     -10.3045      2.00000
     19     -10.2588      2.00000
     20     -10.2588      2.00000
     21     -10.2587      2.00000
     22     -10.2304      2.00000
     23     -10.2303      2.00000
     24     -10.2303      2.00000
     25     -10.1252      2.00000
     26     -10.1251      2.00000
     27     -10.1251      2.00000
     28     -10.1182      2.00000
     29     -10.1181      2.00000
     30     -10.1181      2.00000
     31      -9.6342      2.00000
     32      -9.6268      2.00000
     33      -9.6266      2.00000
     34      -9.0834      2.00000
     35      -9.0831      2.00000
     36      -9.0602      2.00000
     37      -8.1197      2.00000
     38      -8.0792      2.00000
     39      -8.0789      2.00000
     40      -7.3817      2.00000
     41      -7.3815      2.00000
     42      -7.3532      2.00000
     43      -2.0359      2.00000
     44      -2.0357      2.00000
     45      -1.9925      2.00000
     46      -1.5612      2.00000
     47      -1.5611      2.00000
     48      -1.5608      2.00000
     49      -1.5470      2.00000
     50      -1.5470      2.00000
     51      -1.5469      2.00000
     52      -1.3390      2.00000
     53      -1.1594      2.00000
     54      -1.1583      2.00000
     55      -1.1253      2.00000
     56      -1.1175      2.00000
     57      -1.1174      2.00000
     58      -1.1174      2.00000
     59      -1.1158      2.00000
     60      -1.1158      2.00000
     61      -0.0012      2.00000
     62       0.0038      2.00000
     63       0.3810      2.00000
     64       1.3792      2.00000
     65       1.6228      2.00000
     66       1.6304      2.00000
     67       1.7573      2.00000
     68       1.9064      2.00000
     69       1.9556      2.00000
     70       1.9883      2.00000
     71       1.9907      2.00000
     72       1.9916      2.00000
     73       2.2785      2.00000
     74       2.3306      2.00000
     75       2.3318      2.00000
     76       2.5420      2.00000
     77       2.5444      2.00000
     78       2.5524      2.00000
     79       2.7571      2.00000
     80       2.7925      2.00000
     81       2.8041      2.00000
     82       3.0502      2.00000
     83       3.0573      2.00000
     84       3.0590      2.00000
     85       3.5733      2.00000
     86       3.6072      2.00000
     87       3.9319      2.00000
     88       4.0818      2.00000
     89       4.1274      2.00000
     90       4.1414      2.00000
     91       4.4107      2.00000
     92       4.4108      2.00000
     93       4.4121      2.00000
     94       5.2253      0.00000
     95       5.5509      0.00000
     96       5.5663      0.00000
     97       6.3763      0.00000
     98       6.3764      0.00000
     99       6.5299      0.00000
    100       7.5257      0.00000
    101       7.5657      0.00000
    102       7.5743      0.00000
    103       8.0175      0.00000
    104       8.0511      0.00000
    105       8.1354      0.00000
    106       8.5743      0.00000
    107       8.6179      0.00000
    108       8.6251      0.00000
    109       9.0738      0.00000
    110       9.0894      0.00000
    111       9.1097      0.00000
    112       9.1164      0.00000

 k-point     3 :       0.1667   -0.0000    0.0000
  band No.  band energies     occupation 
      1     -11.0269      2.00000
      2     -11.0269      2.00000
      3     -11.0268      2.00000
      4     -10.8312      2.00000
      5     -10.8312      2.00000
      6     -10.8311      2.00000
      7     -10.7581      2.00000
      8     -10.7580      2.00000
      9     -10.7580      2.00000
     10     -10.6239      2.00000
     11     -10.6239      2.00000
     12     -10.6238      2.00000
     13     -10.6029      2.00000
     14     -10.6029      2.00000
     15     -10.6028      2.00000
     16     -10.3874      2.00000
     17     -10.3873      2.00000
     18     -10.3873      2.00000
     19     -10.2451      2.00000
     20     -10.2451      2.00000
     21     -10.2450      2.00000
     22     -10.1978      2.00000
     23     -10.1978      2.00000
     24     -10.1978      2.00000
     25     -10.1355      2.00000
     26     -10.1354      2.00000
     27     -10.1354      2.00000
     28     -10.1142      2.00000
     29     -10.1141      2.00000
     30     -10.1141      2.00000
     31      -9.4111      2.00000
     32      -9.4031      2.00000
     33      -9.4022      2.00000
     34      -8.9258      2.00000
     35      -8.9240      2.00000
     36      -8.9021      2.00000
     37      -7.9488      2.00000
     38      -7.9116      2.00000
     39      -7.9095      2.00000
     40      -7.2752      2.00000
     41      -7.2739      2.00000
     42      -7.2481      2.00000
     43      -1.9872      2.00000
     44      -1.9859      2.00000
     45      -1.9310      2.00000
     46      -1.5546      2.00000
     47      -1.5543      2.00000
     48      -1.5520      2.00000
     49      -1.5067      2.00000
     50      -1.5066      2.00000
     51      -1.5066      2.00000
     52      -1.3182      2.00000
     53      -1.1809      2.00000
     54      -1.1761      2.00000
     55      -1.1474      2.00000
     56      -1.1172      2.00000
     57      -1.1172      2.00000
     58      -1.1171      2.00000
     59      -1.1117      2.00000
     60      -1.1065      2.00000
     61      -0.1231      2.00000
     62      -0.0876      2.00000
     63       0.0726      2.00000
     64       0.8967      2.00000
     65       0.9131      2.00000
     66       0.9221      2.00000
     67       1.3028      2.00000
     68       1.4238      2.00000
     69       1.4899      2.00000
     70       1.7591      2.00000
     71       1.7644      2.00000
     72       1.7651      2.00000
     73       1.8091      2.00000
     74       1.9017      2.00000
     75       1.9746      2.00000
     76       2.2113      2.00000
     77       2.2310      2.00000
     78       2.2323      2.00000
     79       2.2449      2.00000
     80       2.3037      2.00000
     81       2.3438      2.00000
     82       3.0814      2.00000
     83       3.0936      2.00000
     84       3.0943      2.00000
     85       3.2587      2.00000
     86       3.3705      2.00000
     87       3.4059      2.00000
     88       3.8273      2.00000
     89       3.9644      2.00000
     90       4.0571      2.00000
     91       4.1619      2.00000
     92       4.1620      2.00000
     93       4.1673      2.00000
     94       5.7677      0.00000
     95       5.8680      0.00000
     96       5.9064      0.00000
     97       6.5992      0.00000
     98       6.6156      0.00000
     99       6.6746      0.00000
    100       7.8572      0.00000
    101       7.8706      0.00000
    102       7.9249      0.00000
    103       8.2131      0.00000
    104       8.3083      0.00000
    105       8.3335      0.00000
    106       8.7245      0.00000
    107       8.7636      0.00000
    108       8.7671      0.00000
    109       9.1224      0.00000
    110       9.1692      0.00000
    111       9.3429      0.00000
    112       9.3699      0.00000

 k-point     4 :       0.2500   -0.0000    0.0000
  band No.  band energies     occupation 
      1     -11.0877      2.00000
      2     -11.0876      2.00000
      3     -11.0876      2.00000
      4     -10.8463      2.00000
      5     -10.8462      2.00000
      6     -10.8462      2.00000
      7     -10.7374      2.00000
      8     -10.7374      2.00000
      9     -10.7374      2.00000
     10     -10.6365      2.00000
     11     -10.6365      2.00000
     12     -10.6365      2.00000
     13     -10.5974      2.00000
     14     -10.5973      2.00000
     15     -10.5973      2.00000
     16     -10.4814      2.00000
     17     -10.4814      2.00000
     18     -10.4813      2.00000
     19     -10.2305      2.00000
     20     -10.2304      2.00000
     21     -10.2304      2.00000
     22     -10.1732      2.00000
     23     -10.1731      2.00000
     24     -10.1731      2.00000
     25     -10.1356      2.00000
     26     -10.1356      2.00000
     27     -10.1356      2.00000
     28     -10.1043      2.00000
     29     -10.1042      2.00000
     30     -10.1042      2.00000
     31      -9.0984      2.00000
     32      -9.0908      2.00000
     33      -9.0886      2.00000
     34      -8.6817      2.00000
     35      -8.6772      2.00000
     36      -8.6586      2.00000
     37      -7.7268      2.00000
     38      -7.6978      2.00000
     39      -7.6921      2.00000
     40      -7.1255      2.00000
     41      -7.1219      2.00000
     42      -7.1028      2.00000
     43      -1.9799      2.00000
     44      -1.9758      2.00000
     45      -1.9240      2.00000
     46      -1.5303      2.00000
     47      -1.5300      2.00000
     48      -1.5211      2.00000
     49      -1.4512      2.00000
     50      -1.4511      2.00000
     51      -1.4510      2.00000
     52      -1.3042      2.00000
     53      -1.2269      2.00000
     54      -1.2164      2.00000
     55      -1.1805      2.00000
     56      -1.1452      2.00000
     57      -1.1246      2.00000
     58      -1.1141      2.00000
     59      -1.1140      2.00000
     60      -1.1140      2.00000
     61      -0.5318      2.00000
     62      -0.4971      2.00000
     63      -0.4930      2.00000
     64       0.2122      2.00000
     65       0.2495      2.00000
     66       0.3241      2.00000
     67       0.7958      2.00000
     68       1.0233      2.00000
     69       1.0466      2.00000
     70       1.4628      2.00000
     71       1.4743      2.00000
     72       1.4749      2.00000
     73       1.4833      2.00000
     74       1.4838      2.00000
     75       1.5464      2.00000
     76       1.8058      2.00000
     77       1.8666      2.00000
     78       1.9041      2.00000
     79       1.9051      2.00000
     80       1.9055      2.00000
     81       1.9222      2.00000
     82       2.6826      2.00000
     83       2.8024      2.00000
     84       2.9264      2.00000
     85       3.0428      2.00000
     86       3.0639      2.00000
     87       3.0644      2.00000
     88       3.8557      2.00000
     89       3.8559      2.00000
     90       3.8694      2.00000
     91       3.9055      2.00000
     92       4.0084      2.00000
     93       4.0512      2.00000
     94       6.0236      0.00000
     95       6.0262      0.00000
     96       6.0649      0.00000
     97       6.3513      0.00000
     98       6.3650      0.00000
     99       6.4157      0.00000
    100       7.6131      0.00000
    101       7.6637      0.00000
    102       7.6669      0.00000
    103       8.3940      0.00000
    104       8.5299      0.00000
    105       8.5457      0.00000
    106       9.0033      0.00000
    107       9.0964      0.00000
    108       9.0990      0.00000
    109       9.6396      0.00000
    110       9.6430      0.00000
    111       9.6702      0.00000
    112       9.7068      0.00000

 k-point     5 :       0.3333   -0.0000    0.0000
  band No.  band energies     occupation 
      1     -11.1492      2.00000
      2     -11.1491      2.00000
      3     -11.1491      2.00000
      4     -10.8548      2.00000
      5     -10.8547      2.00000
      6     -10.8546      2.00000
      7     -10.7205      2.00000
      8     -10.7205      2.00000
      9     -10.7205      2.00000
     10     -10.6480      2.00000
     11     -10.6479      2.00000
     12     -10.6479      2.00000
     13     -10.5878      2.00000
     14     -10.5877      2.00000
     15     -10.5877      2.00000
     16     -10.5563      2.00000
     17     -10.5562      2.00000
     18     -10.5561      2.00000
     19     -10.2211      2.00000
     20     -10.2211      2.00000
     21     -10.2210      2.00000
     22     -10.1738      2.00000
     23     -10.1738      2.00000
     24     -10.1737      2.00000
     25     -10.1151      2.00000
     26     -10.1150      2.00000
     27     -10.1150      2.00000
     28     -10.0887      2.00000
     29     -10.0886      2.00000
     30     -10.0886      2.00000
     31      -8.7470      2.00000
     32      -8.7417      2.00000
     33      -8.7378      2.00000
     34      -8.4005      2.00000
     35      -8.3925      2.00000
     36      -8.3807      2.00000
     37      -7.5185      2.00000
     38      -7.5036      2.00000
     39      -7.4941      2.00000
     40      -6.9717      2.00000
     41      -6.9661      2.00000
     42      -6.9576      2.00000
     43      -2.1337      2.00000
     44      -2.1302      2.00000
     45      -2.1078      2.00000
     46      -1.5198      2.00000
     47      -1.5049      2.00000
     48      -1.4773      2.00000
     49      -1.3966      2.00000
     50      -1.3966      2.00000
     51      -1.3965      2.00000
     52      -1.3914      2.00000
     53      -1.3408      2.00000
     54      -1.3373      2.00000
     55      -1.2026      2.00000
     56      -1.2018      2.00000
     57      -1.1855      2.00000
     58      -1.1056      2.00000
     59      -1.1056      2.00000
     60      -1.1055      2.00000
     61      -0.9917      2.00000
     62      -0.9791      2.00000
     63      -0.9722      2.00000
     64      -0.2208      2.00000
     65      -0.1940      2.00000
     66      -0.1031      2.00000
     67       0.6538      2.00000
     68       0.6648      2.00000
     69       0.6713      2.00000
     70       0.9035      2.00000
     71       0.9529      2.00000
     72       0.9570      2.00000
     73       1.2163      2.00000
     74       1.2274      2.00000
     75       1.2277      2.00000
     76       1.5365      2.00000
     77       1.6267      2.00000
     78       1.6272      2.00000
     79       1.6483      2.00000
     80       1.7323      2.00000
     81       1.7433      2.00000
     82       2.4487      2.00000
     83       2.5099      2.00000
     84       2.7156      2.00000
     85       2.9634      2.00000
     86       2.9972      2.00000
     87       2.9976      2.00000
     88       3.5842      2.00000
     89       3.5844      2.00000
     90       3.6104      2.00000
     91       3.9185      2.00000
     92       3.9201      2.00000
     93       3.9886      2.00000
     94       5.8166      0.00000
     95       5.8304      0.00000
     96       5.8821      0.00000
     97       6.1540      0.00000
     98       6.1758      0.00000
     99       6.1778      0.00000
    100       7.3598      0.00000
    101       7.3952      0.00000
    102       7.4232      0.00000
    103       8.3491      0.00000
    104       8.5222      0.00000
    105       8.5576      0.00000
    106       8.9566      0.00000
    107       8.9879      0.00000
    108       9.1039      0.00000
    109       9.7297      0.00000
    110       9.7618      0.00000
    111       9.8214      0.00000
    112       9.8327      0.00000

 k-point     6 :       0.4167   -0.0000    0.0000
  band No.  band energies     occupation 
      1     -11.1918      2.00000
      2     -11.1917      2.00000
      3     -11.1917      2.00000
      4     -10.8646      2.00000
      5     -10.8646      2.00000
      6     -10.8645      2.00000
      7     -10.7110      2.00000
      8     -10.7110      2.00000
      9     -10.7109      2.00000
     10     -10.6576      2.00000
     11     -10.6575      2.00000
     12     -10.6575      2.00000
     13     -10.5970      2.00000
     14     -10.5969      2.00000
     15     -10.5968      2.00000
     16     -10.5777      2.00000
     17     -10.5776      2.00000
     18     -10.5776      2.00000
     19     -10.2174      2.00000
     20     -10.2173      2.00000
     21     -10.2173      2.00000
     22     -10.1798      2.00000
     23     -10.1797      2.00000
     24     -10.1797      2.00000
     25     -10.0968      2.00000
     26     -10.0967      2.00000
     27     -10.0967      2.00000
     28     -10.0739      2.00000
     29     -10.0738      2.00000
     30     -10.0738      2.00000
     31      -8.4334      2.00000
     32      -8.4324      2.00000
     33      -8.4268      2.00000
     34      -8.1723      2.00000
     35      -8.1620      2.00000
     36      -8.1602      2.00000
     37      -7.3827      2.00000
     38      -7.3816      2.00000
     39      -7.3723      2.00000
     40      -6.8574      2.00000
     41      -6.8530      2.00000
     42      -6.8528      2.00000
     43      -2.4241      2.00000
     44      -2.4206      2.00000
     45      -2.4184      2.00000
     46      -1.7283      2.00000
     47      -1.7248      2.00000
     48      -1.7048      2.00000
     49      -1.4090      2.00000
     50      -1.3802      2.00000
     51      -1.3678      2.00000
     52      -1.3592      2.00000
     53      -1.3591      2.00000
     54      -1.3590      2.00000
     55      -1.2565      2.00000
     56      -1.2537      2.00000
     57      -1.2438      2.00000
     58      -1.0938      2.00000
     59      -1.0937      2.00000
     60      -1.0937      2.00000
     61      -1.0371      2.00000
     62      -1.0232      2.00000
     63      -1.0135      2.00000
     64      -0.4326      2.00000
     65      -0.4158      2.00000
     66      -0.3883      2.00000
     67       0.1220      2.00000
     68       0.2489      2.00000
     69       0.2840      2.00000
     70       0.7441      2.00000
     71       0.8306      2.00000
     72       0.8639      2.00000
     73       1.0398      2.00000
     74       1.0528      2.00000
     75       1.0530      2.00000
     76       1.3130      2.00000
     77       1.4428      2.00000
     78       1.4430      2.00000
     79       1.4669      2.00000
     80       1.5282      2.00000
     81       1.7725      2.00000
     82       2.2599      2.00000
     83       2.5568      2.00000
     84       2.6265      2.00000
     85       2.8833      2.00000
     86       2.9285      2.00000
     87       2.9288      2.00000
     88       3.4094      2.00000
     89       3.4096      2.00000
     90       3.4470      2.00000
     91       3.8380      2.00000
     92       3.8599      2.00000
     93       3.8960      2.00000
     94       5.5550      0.00000
     95       5.5789      0.00000
     96       5.6803      0.00000
     97       6.0056      0.00000
     98       6.0414      0.00000
     99       6.0573      0.00000
    100       7.2389      0.00000
    101       7.2644      0.00000
    102       7.2790      0.00000
    103       8.2273      0.00000
    104       8.4031      0.00000
    105       8.4168      0.00000
    106       8.8124      0.00000
    107       8.8421      0.00000
    108       8.9619      0.00000
    109       9.7056      0.00000
    110       9.7199      0.00000
    111       9.8070      0.00000
    112       9.8478      0.00000

 k-point     7 :       0.5000   -0.0000    0.0000
  band No.  band energies     occupation 
      1     -11.2068      2.00000
      2     -11.2068      2.00000
      3     -11.2067      2.00000
      4     -10.8697      2.00000
      5     -10.8697      2.00000
      6     -10.8696      2.00000
      7     -10.7081      2.00000
      8     -10.7081      2.00000
      9     -10.7081      2.00000
     10     -10.6619      2.00000
     11     -10.6619      2.00000
     12     -10.6618      2.00000
     13     -10.6082      2.00000
     14     -10.6081      2.00000
     15     -10.6081      2.00000
     16     -10.5733      2.00000
     17     -10.5732      2.00000
     18     -10.5732      2.00000
     19     -10.2165      2.00000
     20     -10.2165      2.00000
     21     -10.2164      2.00000
     22     -10.1822      2.00000
     23     -10.1821      2.00000
     24     -10.1821      2.00000
     25     -10.0902      2.00000
     26     -10.0901      2.00000
     27     -10.0901      2.00000
     28     -10.0679      2.00000
     29     -10.0678      2.00000
     30     -10.0678      2.00000
     31      -8.2939      2.00000
     32      -8.2894      2.00000
     33      -8.2893      2.00000
     34      -8.0874      2.00000
     35      -8.0874      2.00000
     36      -8.0798      2.00000
     37      -7.3439      2.00000
     38      -7.3385      2.00000
     39      -7.3384      2.00000
     40      -6.8151      2.00000
     41      -6.8150      2.00000
     42      -6.8131      2.00000
     43      -2.5689      2.00000
     44      -2.5689      2.00000
     45      -2.5579      2.00000
     46      -1.8683      2.00000
     47      -1.8511      2.00000
     48      -1.8511      2.00000
     49      -1.3896      2.00000
     50      -1.3895      2.00000
     51      -1.3540      2.00000
     52      -1.3464      2.00000
     53      -1.3463      2.00000
     54      -1.3463      2.00000
     55      -1.2752      2.00000
     56      -1.2688      2.00000
     57      -1.2687      2.00000
     58      -1.0878      2.00000
     59      -1.0877      2.00000
     60      -1.0877      2.00000
     61      -0.9228      2.00000
     62      -0.9228      2.00000
     63      -0.9168      2.00000
     64      -0.5394      2.00000
     65      -0.5394      2.00000
     66      -0.5206      2.00000
     67      -0.1536      2.00000
     68       0.0392      2.00000
     69       0.0393      2.00000
     70       0.8742      2.00000
     71       0.8742      2.00000
     72       0.8918      2.00000
     73       0.9775      2.00000
     74       0.9912      2.00000
     75       0.9913      2.00000
     76       1.2836      2.00000
     77       1.2837      2.00000
     78       1.3786      2.00000
     79       1.3786      2.00000
     80       1.4036      2.00000
     81       1.7574      2.00000
     82       2.2298      2.00000
     83       2.6004      2.00000
     84       2.6004      2.00000
     85       2.8488      2.00000
     86       2.8984      2.00000
     87       2.8985      2.00000
     88       3.3516      2.00000
     89       3.3517      2.00000
     90       3.3933      2.00000
     91       3.7534      2.00000
     92       3.8610      2.00000
     93       3.8611      2.00000
     94       5.4760      0.00000
     95       5.4760      0.00000
     96       5.6103      0.00000
     97       5.9537      0.00000
     98       5.9538      0.00000
     99       6.0183      0.00000
    100       7.2195      0.00000
    101       7.2195      0.00000
    102       7.2294      0.00000
    103       8.1791      0.00000
    104       8.3478      0.00000
    105       8.3478      0.00000
    106       8.7709      0.00000
    107       8.7710      0.00000
    108       8.8967      0.00000
    109       9.6868      0.00000
    110       9.6887      0.00000
    111       9.7027      0.00000
    112       9.7694      0.00000

 k-point     8 :       0.0833    0.0833    0.0000
  band No.  band energies     occupation 
      1     -11.0141      2.00000
      2     -11.0141      2.00000
      3     -11.0141      2.00000
      4     -10.8242      2.00000
      5     -10.8242      2.00000
      6     -10.8241      2.00000
      7     -10.7635      2.00000
      8     -10.7634      2.00000
      9     -10.7634      2.00000
     10     -10.6201      2.00000
     11     -10.6201      2.00000
     12     -10.6200      2.00000
     13     -10.6041      2.00000
     14     -10.6040      2.00000
     15     -10.6040      2.00000
     16     -10.3583      2.00000
     17     -10.3582      2.00000
     18     -10.3582      2.00000
     19     -10.2586      2.00000
     20     -10.2586      2.00000
     21     -10.2585      2.00000
     22     -10.2023      2.00000
     23     -10.2022      2.00000
     24     -10.2022      2.00000
     25     -10.1330      2.00000
     26     -10.1329      2.00000
     27     -10.1329      2.00000
     28     -10.1159      2.00000
     29     -10.1158      2.00000
     30     -10.1158      2.00000
     31      -9.4812      2.00000
     32      -9.4730      2.00000
     33      -9.4729      2.00000
     34      -8.9766      2.00000
     35      -8.9765      2.00000
     36      -8.9536      2.00000
     37      -8.0023      2.00000
     38      -7.9632      2.00000
     39      -7.9631      2.00000
     40      -7.3089      2.00000
     41      -7.3088      2.00000
     42      -7.2816      2.00000
     43      -1.9994      2.00000
     44      -1.9993      2.00000
     45      -1.9468      2.00000
     46      -1.5576      2.00000
     47      -1.5575      2.00000
     48      -1.5560      2.00000
     49      -1.5194      2.00000
     50      -1.5194      2.00000
     51      -1.5193      2.00000
     52      -1.3245      2.00000
     53      -1.1711      2.00000
     54      -1.1710      2.00000
     55      -1.1399      2.00000
     56      -1.1178      2.00000
     57      -1.1177      2.00000
     58      -1.1177      2.00000
     59      -1.1098      2.00000
     60      -1.1098      2.00000
     61      -0.0531      2.00000
     62      -0.0531      2.00000
     63       0.1901      2.00000
     64       1.1229      2.00000
     65       1.1229      2.00000
     66       1.1239      2.00000
     67       1.5092      2.00000
     68       1.6164      2.00000
     69       1.6164      2.00000
     70       1.7733      2.00000
     71       1.7733      2.00000
     72       1.7766      2.00000
     73       1.9721      2.00000
     74       2.0145      2.00000
     75       2.0146      2.00000
     76       2.1023      2.00000
     77       2.1125      2.00000
     78       2.1126      2.00000
     79       2.7701      2.00000
     80       2.7929      2.00000
     81       2.7929      2.00000
     82       2.8804      2.00000
     83       2.8805      2.00000
     84       2.9107      2.00000
     85       3.4875      2.00000
     86       3.5808      2.00000
     87       3.5809      2.00000
     88       3.8747      2.00000
     89       3.8748      2.00000
     90       4.0567      2.00000
     91       4.2084      2.00000
     92       4.2085      2.00000
     93       4.2121      2.00000
     94       5.6483      0.00000
     95       5.8206      0.00000
     96       5.8207      0.00000
     97       6.6194      0.00000
     98       6.6194      0.00000
     99       6.7238      0.00000
    100       7.9150      0.00000
    101       7.9921      0.00000
    102       7.9922      0.00000
    103       8.1935      0.00000
    104       8.1935      0.00000
    105       8.2597      0.00000
    106       8.6282      0.00000
    107       8.6282      0.00000
    108       8.6729      0.00000
    109       8.9455      0.00000
    110       8.9456      0.00000
    111       9.0384      0.00000
    112       9.3015      0.00000

 k-point     9 :       0.1667    0.0833    0.0000
  band No.  band energies     occupation 
      1     -11.0634      2.00000
      2     -11.0633      2.00000
      3     -11.0633      2.00000
      4     -10.8426      2.00000
      5     -10.8426      2.00000
      6     -10.8426      2.00000
      7     -10.7457      2.00000
      8     -10.7457      2.00000
      9     -10.7456      2.00000
     10     -10.6309      2.00000
     11     -10.6308      2.00000
     12     -10.6308      2.00000
     13     -10.6012      2.00000
     14     -10.6011      2.00000
     15     -10.6011      2.00000
     16     -10.4398      2.00000
     17     -10.4398      2.00000
     18     -10.4397      2.00000
     19     -10.2544      2.00000
     20     -10.2543      2.00000
     21     -10.2543      2.00000
     22     -10.1708      2.00000
     23     -10.1707      2.00000
     24     -10.1707      2.00000
     25     -10.1405      2.00000
     26     -10.1404      2.00000
     27     -10.1404      2.00000
     28     -10.1082      2.00000
     29     -10.1081      2.00000
     30     -10.1081      2.00000
     31      -9.2136      2.00000
     32      -9.2052      2.00000
     33      -9.2043      2.00000
     34      -8.7720      2.00000
     35      -8.7701      2.00000
     36      -8.7491      2.00000
     37      -7.8083      2.00000
     38      -7.7746      2.00000
     39      -7.7723      2.00000
     40      -7.1804      2.00000
     41      -7.1790      2.00000
     42      -7.1563      2.00000
     43      -1.9667      2.00000
     44      -1.9650      2.00000
     45      -1.9073      2.00000
     46      -1.5411      2.00000
     47      -1.5409      2.00000
     48      -1.5350      2.00000
     49      -1.4711      2.00000
     50      -1.4710      2.00000
     51      -1.4709      2.00000
     52      -1.3048      2.00000
     53      -1.2034      2.00000
     54      -1.1990      2.00000
     55      -1.1664      2.00000
     56      -1.1202      2.00000
     57      -1.1174      2.00000
     58      -1.1164      2.00000
     59      -1.1157      2.00000
     60      -1.1102      2.00000
     61      -0.3345      2.00000
     62      -0.3081      2.00000
     63      -0.2601      2.00000
     64       0.5113      2.00000
     65       0.5460      2.00000
     66       0.5632      2.00000
     67       0.9915      2.00000
     68       1.1412      2.00000
     69       1.1747      2.00000
     70       1.4130      2.00000
     71       1.4354      2.00000
     72       1.4608      2.00000
     73       1.5932      2.00000
     74       1.6249      2.00000
     75       1.6725      2.00000
     76       1.7490      2.00000
     77       1.7543      2.00000
     78       1.8162      2.00000
     79       2.3586      2.00000
     80       2.3928      2.00000
     81       2.4299      2.00000
     82       2.7778      2.00000
     83       2.8368      2.00000
     84       2.8663      2.00000
     85       3.0048      2.00000
     86       3.0866      2.00000
     87       3.0939      2.00000
     88       3.8377      2.00000
     89       3.8467      2.00000
     90       3.8620      2.00000
     91       3.9729      2.00000
     92       4.0352      2.00000
     93       4.0825      2.00000
     94       6.0592      0.00000
     95       6.0666      0.00000
     96       6.0694      0.00000
     97       6.6315      0.00000
     98       6.6435      0.00000
     99       6.6567      0.00000
    100       7.8942      0.00000
    101       7.9060      0.00000
    102       7.9127      0.00000
    103       8.5252      0.00000
    104       8.5323      0.00000
    105       8.5768      0.00000
    106       8.9710      0.00000
    107       8.9978      0.00000
    108       9.0077      0.00000
    109       9.1408      0.00000
    110       9.1644      0.00000
    111       9.1980      0.00000
    112       9.5096      0.00000

 k-point    10 :       0.2500    0.0833    0.0000
  band No.  band energies     occupation 
      1     -11.1242      2.00000
      2     -11.1242      2.00000
      3     -11.1242      2.00000
      4     -10.8504      2.00000
      5     -10.8503      2.00000
      6     -10.8503      2.00000
      7     -10.7286      2.00000
      8     -10.7285      2.00000
      9     -10.7285      2.00000
     10     -10.6411      2.00000
     11     -10.6411      2.00000
     12     -10.6410      2.00000
     13     -10.5946      2.00000
     14     -10.5946      2.00000
     15     -10.5946      2.00000
     16     -10.5199      2.00000
     17     -10.5198      2.00000
     18     -10.5197      2.00000
     19     -10.2470      2.00000
     20     -10.2469      2.00000
     21     -10.2469      2.00000
     22     -10.1639      2.00000
     23     -10.1639      2.00000
     24     -10.1639      2.00000
     25     -10.1297      2.00000
     26     -10.1297      2.00000
     27     -10.1297      2.00000
     28     -10.0938      2.00000
     29     -10.0938      2.00000
     30     -10.0937      2.00000
     31      -8.8777      2.00000
     32      -8.8708      2.00000
     33      -8.8684      2.00000
     34      -8.5017      2.00000
     35      -8.4967      2.00000
     36      -8.4807      2.00000
     37      -7.5977      2.00000
     38      -7.5754      2.00000
     39      -7.5692      2.00000
     40      -7.0283      2.00000
     41      -7.0245      2.00000
     42      -7.0109      2.00000
     43      -2.0292      2.00000
     44      -2.0252      2.00000
     45      -1.9875      2.00000
     46      -1.5083      2.00000
     47      -1.5043      2.00000
     48      -1.4896      2.00000
     49      -1.4162      2.00000
     50      -1.4160      2.00000
     51      -1.4156      2.00000
     52      -1.3265      2.00000
     53      -1.2791      2.00000
     54      -1.2714      2.00000
     55      -1.1965      2.00000
     56      -1.1740      2.00000
     57      -1.1552      2.00000
     58      -1.1095      2.00000
     59      -1.1094      2.00000
     60      -1.1088      2.00000
     61      -0.8149      2.00000
     62      -0.8133      2.00000
     63      -0.7993      2.00000
     64      -0.0081      2.00000
     65       0.0191      2.00000
     66       0.1080      2.00000
     67       0.6583      2.00000
     68       0.7551      2.00000
     69       0.8211      2.00000
     70       1.0725      2.00000
     71       1.0797      2.00000
     72       1.0909      2.00000
     73       1.2115      2.00000
     74       1.2243      2.00000
     75       1.2343      2.00000
     76       1.4257      2.00000
     77       1.4635      2.00000
     78       1.6275      2.00000
     79       1.9561      2.00000
     80       1.9866      2.00000
     81       2.0423      2.00000
     82       2.5329      2.00000
     83       2.5462      2.00000
     84       2.7584      2.00000
     85       2.8777      2.00000
     86       2.8877      2.00000
     87       2.9129      2.00000
     88       3.5064      2.00000
     89       3.5371      2.00000
     90       3.5392      2.00000
     91       3.9715      2.00000
     92       4.0078      2.00000
     93       4.0470      2.00000
     94       6.0727      0.00000
     95       6.1081      0.00000
     96       6.1486      0.00000
     97       6.3620      0.00000
     98       6.3866      0.00000
     99       6.4216      0.00000
    100       7.6494      0.00000
    101       7.6581      0.00000
    102       7.6875      0.00000
    103       8.6103      0.00000
    104       8.6876      0.00000
    105       8.7138      0.00000
    106       9.2123      0.00000
    107       9.2205      0.00000
    108       9.2546      0.00000
    109       9.4722      0.00000
    110       9.4928      0.00000
    111       9.4947      0.00000
    112       9.8501      0.00000

 k-point    11 :       0.3333    0.0833    0.0000
  band No.  band energies     occupation 
      1     -11.1747      2.00000
      2     -11.1747      2.00000
      3     -11.1746      2.00000
      4     -10.8576      2.00000
      5     -10.8575      2.00000
      6     -10.8575      2.00000
      7     -10.7172      2.00000
      8     -10.7171      2.00000
      9     -10.7171      2.00000
     10     -10.6500      2.00000
     11     -10.6499      2.00000
     12     -10.6499      2.00000
     13     -10.5861      2.00000
     14     -10.5861      2.00000
     15     -10.5861      2.00000
     16     -10.5745      2.00000
     17     -10.5744      2.00000
     18     -10.5743      2.00000
     19     -10.2421      2.00000
     20     -10.2421      2.00000
     21     -10.2421      2.00000
     22     -10.1710      2.00000
     23     -10.1709      2.00000
     24     -10.1709      2.00000
     25     -10.1087      2.00000
     26     -10.1087      2.00000
     27     -10.1087      2.00000
     28     -10.0803      2.00000
     29     -10.0802      2.00000
     30     -10.0802      2.00000
     31      -8.5336      2.00000
     32      -8.5299      2.00000
     33      -8.5256      2.00000
     34      -8.2365      2.00000
     35      -8.2280      2.00000
     36      -8.2205      2.00000
     37      -7.4338      2.00000
     38      -7.4264      2.00000
     39      -7.4177      2.00000
     40      -6.8942      2.00000
     41      -6.8897      2.00000
     42      -6.8863      2.00000
     43      -2.2631      2.00000
     44      -2.2621      2.00000
     45      -2.2537      2.00000
     46      -1.6013      2.00000
     47      -1.5917      2.00000
     48      -1.5658      2.00000
     49      -1.4140      2.00000
     50      -1.3844      2.00000
     51      -1.3837      2.00000
     52      -1.3705      2.00000
     53      -1.3650      2.00000
     54      -1.3553      2.00000
     55      -1.2260      2.00000
     56      -1.2148      2.00000
     57      -1.2146      2.00000
     58      -1.1074      2.00000
     59      -1.1064      2.00000
     60      -1.1041      2.00000
     61      -1.0561      2.00000
     62      -1.0514      2.00000
     63      -1.0371      2.00000
     64      -0.3142      2.00000
     65      -0.2879      2.00000
     66      -0.2362      2.00000
     67       0.3721      2.00000
     68       0.4582      2.00000
     69       0.4961      2.00000
     70       0.6984      2.00000
     71       0.7059      2.00000
     72       0.8322      2.00000
     73       0.9190      2.00000
     74       0.9235      2.00000
     75       0.9237      2.00000
     76       1.3452      2.00000
     77       1.3456      2.00000
     78       1.3593      2.00000
     79       1.5753      2.00000
     80       1.7690      2.00000
     81       1.8681      2.00000
     82       2.3057      2.00000
     83       2.4936      2.00000
     84       2.5916      2.00000
     85       2.8229      2.00000
     86       2.8330      2.00000
     87       2.8392      2.00000
     88       3.2675      2.00000
     89       3.2978      2.00000
     90       3.2991      2.00000
     91       3.9264      2.00000
     92       3.9413      2.00000
     93       3.9425      2.00000
     94       5.8576      0.00000
     95       5.8739      0.00000
     96       5.9381      0.00000
     97       6.2278      0.00000
     98       6.2596      0.00000
     99       6.2646      0.00000
    100       7.4660      0.00000
    101       7.4750      0.00000
    102       7.5091      0.00000
    103       8.5041      0.00000
    104       8.6322      0.00000
    105       8.6469      0.00000
    106       9.1178      0.00000
    107       9.1301      0.00000
    108       9.2215      0.00000
    109       9.4457      0.00000
    110       9.4802      0.00000
    111       9.4814      0.00000
    112       9.8742      0.00000

 k-point    12 :       0.4167    0.0833    0.0000
  band No.  band energies     occupation 
      1     -11.2025      2.00000
      2     -11.2024      2.00000
      3     -11.2024      2.00000
      4     -10.8645      2.00000
      5     -10.8644      2.00000
      6     -10.8644      2.00000
      7     -10.7120      2.00000
      8     -10.7119      2.00000
      9     -10.7119      2.00000
     10     -10.6563      2.00000
     11     -10.6562      2.00000
     12     -10.6562      2.00000
     13     -10.6000      2.00000
     14     -10.6000      2.00000
     15     -10.5999      2.00000
     16     -10.5780      2.00000
     17     -10.5780      2.00000
     18     -10.5780      2.00000
     19     -10.2404      2.00000
     20     -10.2403      2.00000
     21     -10.2403      2.00000
     22     -10.1760      2.00000
     23     -10.1759      2.00000
     24     -10.1759      2.00000
     25     -10.0934      2.00000
     26     -10.0933      2.00000
     27     -10.0933      2.00000
     28     -10.0744      2.00000
     29     -10.0743      2.00000
     30     -10.0743      2.00000
     31      -8.2833      2.00000
     32      -8.2816      2.00000
     33      -8.2775      2.00000
     34      -8.0780      2.00000
     35      -8.0714      2.00000
     36      -8.0684      2.00000
     37      -7.3581      2.00000
     38      -7.3557      2.00000
     39      -7.3515      2.00000
     40      -6.8164      2.00000
     41      -6.8151      2.00000
     42      -6.8140      2.00000
     43      -2.5011      2.00000
     44      -2.5006      2.00000
     45      -2.4912      2.00000
     46      -1.8295      2.00000
     47      -1.8173      2.00000
     48      -1.8087      2.00000
     49      -1.3881      2.00000
     50      -1.3790      2.00000
     51      -1.3621      2.00000
     52      -1.3490      2.00000
     53      -1.3460      2.00000
     54      -1.3409      2.00000
     55      -1.2597      2.00000
     56      -1.2587      2.00000
     57      -1.2522      2.00000
     58      -1.0980      2.00000
     59      -1.0977      2.00000
     60      -1.0971      2.00000
     61      -0.9524      2.00000
     62      -0.9436      2.00000
     63      -0.9369      2.00000
     64      -0.4716      2.00000
     65      -0.4671      2.00000
     66      -0.4656      2.00000
     67      -0.0689      2.00000
     68       0.0924      2.00000
     69       0.1134      2.00000
     70       0.7451      2.00000
     71       0.7570      2.00000
     72       0.7667      2.00000
     73       0.7773      2.00000
     74       0.7903      2.00000
     75       0.8363      2.00000
     76       1.1974      2.00000
     77       1.2428      2.00000
     78       1.2954      2.00000
     79       1.4130      2.00000
     80       1.5465      2.00000
     81       1.7963      2.00000
     82       2.2191      2.00000
     83       2.4929      2.00000
     84       2.5076      2.00000
     85       2.7632      2.00000
     86       2.8213      2.00000
     87       2.8226      2.00000
     88       3.1588      2.00000
     89       3.1718      2.00000
     90       3.1735      2.00000
     91       3.8183      2.00000
     92       3.8879      2.00000
     93       3.9035      2.00000
     94       5.6859      0.00000
     95       5.7072      0.00000
     96       5.8111      0.00000
     97       6.1279      0.00000
     98       6.1529      0.00000
     99       6.2098      0.00000
    100       7.3848      0.00000
    101       7.4091      0.00000
    102       7.4218      0.00000
    103       8.4157      0.00000
    104       8.5346      0.00000
    105       8.5436      0.00000
    106       9.0204      0.00000
    107       9.0425      0.00000
    108       9.1013      0.00000
    109       9.3890      0.00000
    110       9.4139      0.00000
    111       9.4603      0.00000
    112       9.8553      0.00000

 k-point    13 :       0.1667    0.1667    0.0000
  band No.  band energies     occupation 
      1     -11.1133      2.00000
      2     -11.1132      2.00000
      3     -11.1132      2.00000
      4     -10.8488      2.00000
      5     -10.8488      2.00000
      6     -10.8487      2.00000
      7     -10.7330      2.00000
      8     -10.7329      2.00000
      9     -10.7329      2.00000
     10     -10.6369      2.00000
     11     -10.6368      2.00000
     12     -10.6368      2.00000
     13     -10.5988      2.00000
     14     -10.5987      2.00000
     15     -10.5987      2.00000
     16     -10.4955      2.00000
     17     -10.4954      2.00000
     18     -10.4954      2.00000
     19     -10.2733      2.00000
     20     -10.2732      2.00000
     21     -10.2732      2.00000
     22     -10.1476      2.00000
     23     -10.1475      2.00000
     24     -10.1475      2.00000
     25     -10.1467      2.00000
     26     -10.1467      2.00000
     27     -10.1467      2.00000
     28     -10.0949      2.00000
     29     -10.0948      2.00000
     30     -10.0948      2.00000
     31      -8.9208      2.00000
     32      -8.9124      2.00000
     33      -8.9124      2.00000
     34      -8.5324      2.00000
     35      -8.5323      2.00000
     36      -8.5127      2.00000
     37      -7.6299      2.00000
     38      -7.6024      2.00000
     39      -7.6024      2.00000
     40      -7.0477      2.00000
     41      -7.0476      2.00000
     42      -7.0307      2.00000
     43      -1.9909      2.00000
     44      -1.9908      2.00000
     45      -1.9445      2.00000
     46      -1.5090      2.00000
     47      -1.5090      2.00000
     48      -1.4956      2.00000
     49      -1.4226      2.00000
     50      -1.4221      2.00000
     51      -1.4220      2.00000
     52      -1.3106      2.00000
     53      -1.2533      2.00000
     54      -1.2532      2.00000
     55      -1.1916      2.00000
     56      -1.1477      2.00000
     57      -1.1476      2.00000
     58      -1.1111      2.00000
     59      -1.1098      2.00000
     60      -1.1097      2.00000
     61      -0.7173      2.00000
     62      -0.7173      2.00000
     63      -0.7096      2.00000
     64       0.2227      2.00000
     65       0.2422      2.00000
     66       0.2422      2.00000
     67       0.6492      2.00000
     68       0.6539      2.00000
     69       0.6539      2.00000
     70       1.0471      2.00000
     71       1.0759      2.00000
     72       1.0759      2.00000
     73       1.1875      2.00000
     74       1.1972      2.00000
     75       1.1972      2.00000
     76       1.4034      2.00000
     77       1.4035      2.00000
     78       1.6990      2.00000
     79       2.2253      2.00000
     80       2.3297      2.00000
     81       2.3297      2.00000
     82       2.4335      2.00000
     83       2.4479      2.00000
     84       2.4479      2.00000
     85       2.8049      2.00000
     86       2.8927      2.00000
     87       2.8927      2.00000
     88       3.3646      2.00000
     89       3.4096      2.00000
     90       3.4097      2.00000
     91       4.0419      2.00000
     92       4.0420      2.00000
     93       4.0570      2.00000
     94       6.2253      0.00000
     95       6.2253      0.00000
     96       6.3113      0.00000
     97       6.6276      0.00000
     98       6.6768      0.00000
     99       6.6768      0.00000
    100       7.8974      0.00000
    101       7.8975      0.00000
    102       7.9066      0.00000
    103       8.9163      0.00000
    104       8.9349      0.00000
    105       8.9349      0.00000
    106       9.1210      0.00000
    107       9.1249      0.00000
    108       9.1250      0.00000
    109       9.3512      0.00000
    110       9.3513      0.00000
    111       9.4344      0.00000
    112       9.7116      0.00000

 k-point    14 :       0.2500    0.1667    0.0000
  band No.  band energies     occupation 
      1     -11.1607      2.00000
      2     -11.1606      2.00000
      3     -11.1606      2.00000
      4     -10.8517      2.00000
      5     -10.8516      2.00000
      6     -10.8516      2.00000
      7     -10.7242      2.00000
      8     -10.7241      2.00000
      9     -10.7241      2.00000
     10     -10.6412      2.00000
     11     -10.6411      2.00000
     12     -10.6411      2.00000
     13     -10.5948      2.00000
     14     -10.5948      2.00000
     15     -10.5948      2.00000
     16     -10.5438      2.00000
     17     -10.5437      2.00000
     18     -10.5436      2.00000
     19     -10.2875      2.00000
     20     -10.2874      2.00000
     21     -10.2874      2.00000
     22     -10.1542      2.00000
     23     -10.1541      2.00000
     24     -10.1541      2.00000
     25     -10.1283      2.00000
     26     -10.1283      2.00000
     27     -10.1282      2.00000
     28     -10.0828      2.00000
     29     -10.0828      2.00000
     30     -10.0828      2.00000
     31      -8.5810      2.00000
     32      -8.5747      2.00000
     33      -8.5731      2.00000
     34      -8.2617      2.00000
     35      -8.2583      2.00000
     36      -8.2451      2.00000
     37      -7.4740      2.00000
     38      -7.4598      2.00000
     39      -7.4562      2.00000
     40      -6.9151      2.00000
     41      -6.9132      2.00000
     42      -6.9062      2.00000
     43      -2.1307      2.00000
     44      -2.1299      2.00000
     45      -2.1120      2.00000
     46      -1.5168      2.00000
     47      -1.5073      2.00000
     48      -1.4862      2.00000
     49      -1.4046      2.00000
     50      -1.3868      2.00000
     51      -1.3770      2.00000
     52      -1.3687      2.00000
     53      -1.3624      2.00000
     54      -1.3500      2.00000
     55      -1.2047      2.00000
     56      -1.1871      2.00000
     57      -1.1766      2.00000
     58      -1.1024      2.00000
     59      -1.1012      2.00000
     60      -1.1007      2.00000
     61      -1.0352      2.00000
     62      -1.0343      2.00000
     63      -1.0331      2.00000
     64      -0.0931      2.00000
     65      -0.0680      2.00000
     66      -0.0271      2.00000
     67       0.3526      2.00000
     68       0.3692      2.00000
     69       0.3901      2.00000
     70       0.6113      2.00000
     71       0.6327      2.00000
     72       0.6696      2.00000
     73       0.7949      2.00000
     74       0.8081      2.00000
     75       0.8898      2.00000
     76       1.2451      2.00000
     77       1.2998      2.00000
     78       1.4357      2.00000
     79       1.8294      2.00000
     80       1.8881      2.00000
     81       2.0111      2.00000
     82       2.1907      2.00000
     83       2.3541      2.00000
     84       2.3555      2.00000
     85       2.7316      2.00000
     86       2.7461      2.00000
     87       2.7814      2.00000
     88       2.9709      2.00000
     89       3.0214      2.00000
     90       3.0685      2.00000
     91       3.9954      2.00000
     92       3.9983      2.00000
     93       4.0071      2.00000
     94       6.2676      0.00000
     95       6.2842      0.00000
     96       6.2894      0.00000
     97       6.5673      0.00000
     98       6.5714      0.00000
     99       6.5917      0.00000
    100       7.7830      0.00000
    101       7.8098      0.00000
    102       7.8176      0.00000
    103       8.9528      0.00000
    104       8.9781      0.00000
    105       9.0104      0.00000
    106       9.2167      0.00000
    107       9.2320      0.00000
    108       9.2840      0.00000
    109       9.6006      0.00000
    110       9.7043      0.00000
    111       9.7915      0.00000
    112       9.9136      0.00000

 k-point    15 :       0.3333    0.1667    0.0000
  band No.  band energies     occupation 
      1     -11.1935      2.00000
      2     -11.1934      2.00000
      3     -11.1934      2.00000
      4     -10.8545      2.00000
      5     -10.8544      2.00000
      6     -10.8544      2.00000
      7     -10.7197      2.00000
      8     -10.7197      2.00000
      9     -10.7196      2.00000
     10     -10.6442      2.00000
     11     -10.6441      2.00000
     12     -10.6441      2.00000
     13     -10.5906      2.00000
     14     -10.5906      2.00000
     15     -10.5906      2.00000
     16     -10.5744      2.00000
     17     -10.5744      2.00000
     18     -10.5743      2.00000
     19     -10.2957      2.00000
     20     -10.2957      2.00000
     21     -10.2956      2.00000
     22     -10.1599      2.00000
     23     -10.1599      2.00000
     24     -10.1598      2.00000
     25     -10.1084      2.00000
     26     -10.1083      2.00000
     27     -10.1083      2.00000
     28     -10.0809      2.00000
     29     -10.0808      2.00000
     30     -10.0808      2.00000
     31      -8.2683      2.00000
     32      -8.2661      2.00000
     33      -8.2621      2.00000
     34      -8.0472      2.00000
     35      -8.0401      2.00000
     36      -8.0363      2.00000
     37      -7.3904      2.00000
     38      -7.3882      2.00000
     39      -7.3832      2.00000
     40      -6.8180      2.00000
     41      -6.8163      2.00000
     42      -6.8158      2.00000
     43      -2.3460      2.00000
     44      -2.3454      2.00000
     45      -2.3401      2.00000
     46      -1.7465      2.00000
     47      -1.7422      2.00000
     48      -1.7263      2.00000
     49      -1.3770      2.00000
     50      -1.3732      2.00000
     51      -1.3691      2.00000
     52      -1.3502      2.00000
     53      -1.3429      2.00000
     54      -1.3384      2.00000
     55      -1.2262      2.00000
     56      -1.2220      2.00000
     57      -1.2196      2.00000
     58      -1.1247      2.00000
     59      -1.1239      2.00000
     60      -1.1214      2.00000
     61      -0.9806      2.00000
     62      -0.9747      2.00000
     63      -0.9671      2.00000
     64      -0.3296      2.00000
     65      -0.3158      2.00000
     66      -0.3051      2.00000
     67       0.0811      2.00000
     68       0.1621      2.00000
     69       0.1732      2.00000
     70       0.3369      2.00000
     71       0.3444      2.00000
     72       0.3608      2.00000
     73       0.6143      2.00000
     74       0.6295      2.00000
     75       0.6947      2.00000
     76       1.1463      2.00000
     77       1.2326      2.00000
     78       1.2980      2.00000
     79       1.4693      2.00000
     80       1.6704      2.00000
     81       1.7643      2.00000
     82       2.0796      2.00000
     83       2.2029      2.00000
     84       2.2213      2.00000
     85       2.6544      2.00000
     86       2.6734      2.00000
     87       2.7080      2.00000
     88       2.7849      2.00000
     89       2.8569      2.00000
     90       2.9249      2.00000
     91       3.9039      2.00000
     92       3.9385      2.00000
     93       3.9436      2.00000
     94       6.1313      0.00000
     95       6.1773      0.00000
     96       6.2274      0.00000
     97       6.4802      0.00000
     98       6.5194      0.00000
     99       6.5485      0.00000
    100       7.6574      0.00000
    101       7.7126      0.00000
    102       7.7168      0.00000
    103       8.8556      0.00000
    104       8.8749      0.00000
    105       8.9466      0.00000
    106       9.2146      0.00000
    107       9.2181      0.00000
    108       9.2384      0.00000
    109       9.5749      0.00000
    110       9.7225      0.00000
    111       9.8828      0.00000
    112      10.0080      0.00000

 k-point    16 :       0.4167    0.1667   -0.0000
  band No.  band energies     occupation 
      1     -11.2051      2.00000
      2     -11.2050      2.00000
      3     -11.2050      2.00000
      4     -10.8560      2.00000
      5     -10.8560      2.00000
      6     -10.8559      2.00000
      7     -10.7184      2.00000
      8     -10.7183      2.00000
      9     -10.7183      2.00000
     10     -10.6456      2.00000
     11     -10.6455      2.00000
     12     -10.6455      2.00000
     13     -10.5886      2.00000
     14     -10.5885      2.00000
     15     -10.5885      2.00000
     16     -10.5845      2.00000
     17     -10.5845      2.00000
     18     -10.5844      2.00000
     19     -10.2985      2.00000
     20     -10.2984      2.00000
     21     -10.2984      2.00000
     22     -10.1621      2.00000
     23     -10.1620      2.00000
     24     -10.1620      2.00000
     25     -10.0934      2.00000
     26     -10.0934      2.00000
     27     -10.0934      2.00000
     28     -10.0878      2.00000
     29     -10.0877      2.00000
     30     -10.0877      2.00000
     31      -8.1199      2.00000
     32      -8.1157      2.00000
     33      -8.1156      2.00000
     34      -7.9742      2.00000
     35      -7.9741      2.00000
     36      -7.9677      2.00000
     37      -7.3750      2.00000
     38      -7.3720      2.00000
     39      -7.3719      2.00000
     40      -6.7827      2.00000
     41      -6.7827      2.00000
     42      -6.7821      2.00000
     43      -2.4535      2.00000
     44      -2.4535      2.00000
     45      -2.4410      2.00000
     46      -1.8686      2.00000
     47      -1.8507      2.00000
     48      -1.8507      2.00000
     49      -1.3676      2.00000
     50      -1.3676      2.00000
     51      -1.3612      2.00000
     52      -1.3403      2.00000
     53      -1.3402      2.00000
     54      -1.3320      2.00000
     55      -1.2370      2.00000
     56      -1.2370      2.00000
     57      -1.2365      2.00000
     58      -1.1132      2.00000
     59      -1.1131      2.00000
     60      -1.1124      2.00000
     61      -0.8713      2.00000
     62      -0.8712      2.00000
     63      -0.8578      2.00000
     64      -0.4452      2.00000
     65      -0.4452      2.00000
     66      -0.4256      2.00000
     67      -0.1317      2.00000
     68       0.0032      2.00000
     69       0.0033      2.00000
     70       0.2646      2.00000
     71       0.2902      2.00000
     72       0.2902      2.00000
     73       0.6133      2.00000
     74       0.6133      2.00000
     75       0.6303      2.00000
     76       1.1237      2.00000
     77       1.1237      2.00000
     78       1.2523      2.00000
     79       1.5164      2.00000
     80       1.5164      2.00000
     81       1.6782      2.00000
     82       2.0449      2.00000
     83       2.1319      2.00000
     84       2.1319      2.00000
     85       2.6236      2.00000
     86       2.6236      2.00000
     87       2.6841      2.00000
     88       2.7103      2.00000
     89       2.8861      2.00000
     90       2.8861      2.00000
     91       3.8448      2.00000
     92       3.9179      2.00000
     93       3.9180      2.00000
     94       6.0833      0.00000
     95       6.0833      0.00000
     96       6.1872      0.00000
     97       6.4809      0.00000
     98       6.4809      0.00000
     99       6.5429      0.00000
    100       7.6079      0.00000
    101       7.6753      0.00000
    102       7.6753      0.00000
    103       8.8177      0.00000
    104       8.8653      0.00000
    105       8.8653      0.00000
    106       9.1893      0.00000
    107       9.2105      0.00000
    108       9.2106      0.00000
    109       9.6001      0.00000
    110       9.6002      0.00000
    111       9.9210      0.00000
    112       9.9434      0.00000

 k-point    17 :       0.2500    0.2500    0.0000
  band No.  band energies     occupation 
      1     -11.1888      2.00000
      2     -11.1888      2.00000
      3     -11.1888      2.00000
      4     -10.8498      2.00000
      5     -10.8498      2.00000
      6     -10.8497      2.00000
      7     -10.7236      2.00000
      8     -10.7235      2.00000
      9     -10.7235      2.00000
     10     -10.6370      2.00000
     11     -10.6370      2.00000
     12     -10.6369      2.00000
     13     -10.5976      2.00000
     14     -10.5975      2.00000
     15     -10.5975      2.00000
     16     -10.5560      2.00000
     17     -10.5559      2.00000
     18     -10.5559      2.00000
     19     -10.3297      2.00000
     20     -10.3296      2.00000
     21     -10.3296      2.00000
     22     -10.1444      2.00000
     23     -10.1444      2.00000
     24     -10.1443      2.00000
     25     -10.1247      2.00000
     26     -10.1247      2.00000
     27     -10.1246      2.00000
     28     -10.0821      2.00000
     29     -10.0821      2.00000
     30     -10.0820      2.00000
     31      -8.2636      2.00000
     32      -8.2584      2.00000
     33      -8.2583      2.00000
     34      -8.0253      2.00000
     35      -8.0253      2.00000
     36      -8.0155      2.00000
     37      -7.4093      2.00000
     38      -7.4027      2.00000
     39      -7.4026      2.00000
     40      -6.8182      2.00000
     41      -6.8181      2.00000
     42      -6.8163      2.00000
     43      -2.2540      2.00000
     44      -2.2534      2.00000
     45      -2.2534      2.00000
     46      -1.7030      2.00000
     47      -1.7030      2.00000
     48      -1.6868      2.00000
     49      -1.3737      2.00000
     50      -1.3707      2.00000
     51      -1.3706      2.00000
     52      -1.3459      2.00000
     53      -1.3458      2.00000
     54      -1.3432      2.00000
     55      -1.2051      2.00000
     56      -1.1875      2.00000
     57      -1.1874      2.00000
     58      -1.1471      2.00000
     59      -1.1471      2.00000
     60      -1.1427      2.00000
     61      -0.9854      2.00000
     62      -0.9843      2.00000
     63      -0.9842      2.00000
     64      -0.1165      2.00000
     65      -0.1165      2.00000
     66      -0.0950      2.00000
     67      -0.0550      2.00000
     68      -0.0549      2.00000
     69      -0.0543      2.00000
     70       0.1735      2.00000
     71       0.1964      2.00000
     72       0.1964      2.00000
     73       0.6513      2.00000
     74       0.6519      2.00000
     75       0.6519      2.00000
     76       1.2012      2.00000
     77       1.2831      2.00000
     78       1.2832      2.00000
     79       1.5933      2.00000
     80       1.5934      2.00000
     81       1.6177      2.00000
     82       2.0269      2.00000
     83       2.0270      2.00000
     84       2.1183      2.00000
     85       2.5059      2.00000
     86       2.5059      2.00000
     87       2.5192      2.00000
     88       2.7903      2.00000
     89       2.8266      2.00000
     90       2.8266      2.00000
     91       3.9471      2.00000
     92       3.9471      2.00000
     93       3.9601      2.00000
     94       6.3916      0.00000
     95       6.4610      0.00000
     96       6.4610      0.00000
     97       6.6588      0.00000
     98       6.6588      0.00000
     99       6.6798      0.00000
    100       7.7216      0.00000
    101       7.7217      0.00000
    102       7.7288      0.00000
    103       9.1545      0.00000
    104       9.1545      0.00000
    105       9.1750      0.00000
    106       9.4389      0.00000
    107       9.4389      0.00000
    108       9.4938      0.00000
    109       9.6558      0.00000
    110       9.8673      0.00000
    111       9.8674      0.00000
    112      10.3791      0.00000

 k-point    18 :       0.3333    0.2500   -0.0000
  band No.  band energies     occupation 
      1     -11.2040      2.00000
      2     -11.2039      2.00000
      3     -11.2039      2.00000
      4     -10.8475      2.00000
      5     -10.8475      2.00000
      6     -10.8474      2.00000
      7     -10.7241      2.00000
      8     -10.7241      2.00000
      9     -10.7240      2.00000
     10     -10.6321      2.00000
     11     -10.6321      2.00000
     12     -10.6321      2.00000
     13     -10.6012      2.00000
     14     -10.6011      2.00000
     15     -10.6011      2.00000
     16     -10.5604      2.00000
     17     -10.5604      2.00000
     18     -10.5604      2.00000
     19     -10.3564      2.00000
     20     -10.3564      2.00000
     21     -10.3563      2.00000
     22     -10.1417      2.00000
     23     -10.1417      2.00000
     24     -10.1416      2.00000
     25     -10.1105      2.00000
     26     -10.1104      2.00000
     27     -10.1104      2.00000
     28     -10.0920      2.00000
     29     -10.0920      2.00000
     30     -10.0919      2.00000
     31      -8.0209      2.00000
     32      -8.0202      2.00000
     33      -8.0178      2.00000
     34      -7.8828      2.00000
     35      -7.8790      2.00000
     36      -7.8781      2.00000
     37      -7.4160      2.00000
     38      -7.4158      2.00000
     39      -7.4142      2.00000
     40      -6.7641      2.00000
     41      -6.7640      2.00000
     42      -6.7639      2.00000
     43      -2.3443      2.00000
     44      -2.3402      2.00000
     45      -2.3329      2.00000
     46      -1.8771      2.00000
     47      -1.8684      2.00000
     48      -1.8595      2.00000
     49      -1.3587      2.00000
     50      -1.3578      2.00000
     51      -1.3565      2.00000
     52      -1.3421      2.00000
     53      -1.3404      2.00000
     54      -1.3394      2.00000
     55      -1.2072      2.00000
     56      -1.2039      2.00000
     57      -1.2006      2.00000
     58      -1.1354      2.00000
     59      -1.1348      2.00000
     60      -1.1345      2.00000
     61      -0.8444      2.00000
     62      -0.8438      2.00000
     63      -0.8360      2.00000
     64      -0.3739      2.00000
     65      -0.3731      2.00000
     66      -0.3583      2.00000
     67      -0.1344      2.00000
     68      -0.1169      2.00000
     69      -0.1101      2.00000
     70      -0.0956      2.00000
     71      -0.0645      2.00000
     72      -0.0638      2.00000
     73       0.5461      2.00000
     74       0.5828      2.00000
     75       0.6567      2.00000
     76       0.9640      2.00000
     77       1.1048      2.00000
     78       1.2109      2.00000
     79       1.5033      2.00000
     80       1.5247      2.00000
     81       1.5506      2.00000
     82       1.8198      2.00000
     83       1.8620      2.00000
     84       1.8662      2.00000
     85       2.3221      2.00000
     86       2.3237      2.00000
     87       2.3245      2.00000
     88       2.7703      2.00000
     89       2.8359      2.00000
     90       2.8362      2.00000
     91       3.8824      2.00000
     92       3.9132      2.00000
     93       3.9247      2.00000
     94       6.4213      0.00000
     95       6.4688      0.00000
     96       6.5376      0.00000
     97       6.7064      0.00000
     98       6.7163      0.00000
     99       6.7344      0.00000
    100       7.5654      0.00000
    101       7.5785      0.00000
    102       7.5851      0.00000
    103       9.1681      0.00000
    104       9.1923      0.00000
    105       9.2209      0.00000
    106       9.5410      0.00000
    107       9.5432      0.00000
    108       9.5809      0.00000
    109       9.7624      0.00000
    110       9.8103      0.00000
    111       9.9722      0.00000
    112      10.5230      0.00000

 k-point    19 :       0.3333    0.3333    0.0000
  band No.  band energies     occupation 
      1     -11.2072      2.00000
      2     -11.2072      2.00000
      3     -11.2072      2.00000
      4     -10.8438      2.00000
      5     -10.8438      2.00000
      6     -10.8437      2.00000
      7     -10.7262      2.00000
      8     -10.7261      2.00000
      9     -10.7261      2.00000
     10     -10.6178      2.00000
     11     -10.6178      2.00000
     12     -10.6177      2.00000
     13     -10.6156      2.00000
     14     -10.6155      2.00000
     15     -10.6155      2.00000
     16     -10.5483      2.00000
     17     -10.5482      2.00000
     18     -10.5482      2.00000
     19     -10.3866      2.00000
     20     -10.3866      2.00000
     21     -10.3866      2.00000
     22     -10.1237      2.00000
     23     -10.1237      2.00000
     24     -10.1237      2.00000
     25     -10.1186      2.00000
     26     -10.1185      2.00000
     27     -10.1185      2.00000
     28     -10.1004      2.00000
     29     -10.1003      2.00000
     30     -10.1003      2.00000
     31      -7.9158      2.00000
     32      -7.9157      2.00000
     33      -7.9157      2.00000
     34      -7.7962      2.00000
     35      -7.7962      2.00000
     36      -7.7962      2.00000
     37      -7.4601      2.00000
     38      -7.4600      2.00000
     39      -7.4599      2.00000
     40      -6.7450      2.00000
     41      -6.7449      2.00000
     42      -6.7448      2.00000
     43      -2.3081      2.00000
     44      -2.3081      2.00000
     45      -2.3080      2.00000
     46      -1.9294      2.00000
     47      -1.9293      2.00000
     48      -1.9293      2.00000
     49      -1.3533      2.00000
     50      -1.3532      2.00000
     51      -1.3531      2.00000
     52      -1.3444      2.00000
     53      -1.3443      2.00000
     54      -1.3443      2.00000
     55      -1.1914      2.00000
     56      -1.1913      2.00000
     57      -1.1913      2.00000
     58      -1.1381      2.00000
     59      -1.1380      2.00000
     60      -1.1380      2.00000
     61      -0.7617      2.00000
     62      -0.7616      2.00000
     63      -0.7616      2.00000
     64      -0.4763      2.00000
     65      -0.4762      2.00000
     66      -0.4762      2.00000
     67      -0.2250      2.00000
     68      -0.2250      2.00000
     69      -0.2249      2.00000
     70      -0.1577      2.00000
     71      -0.1577      2.00000
     72      -0.1576      2.00000
     73       0.6461      2.00000
     74       0.6462      2.00000
     75       0.6462      2.00000
     76       0.9133      2.00000
     77       0.9133      2.00000
     78       0.9134      2.00000
     79       1.5304      2.00000
     80       1.5304      2.00000
     81       1.5304      2.00000
     82       1.7356      2.00000
     83       1.7357      2.00000
     84       1.7357      2.00000
     85       2.1695      2.00000
     86       2.1695      2.00000
     87       2.1696      2.00000
     88       2.8203      2.00000
     89       2.8203      2.00000
     90       2.8203      2.00000
     91       3.8961      2.00000
     92       3.8962      2.00000
     93       3.8962      2.00000
     94       6.6054      0.00000
     95       6.6055      0.00000
     96       6.6055      0.00000
     97       6.7979      0.00000
     98       6.7980      0.00000
     99       6.7980      0.00000
    100       7.4290      0.00000
    101       7.4291      0.00000
    102       7.4291      0.00000
    103       9.2867      0.00000
    104       9.2867      0.00000
    105       9.2867      0.00000
    106       9.7949      0.00000
    107       9.7949      0.00000
    108       9.7949      0.00000
    109       9.9097      0.00000
    110       9.9097      0.00000
    111       9.9097      0.00000
    112      10.7065      0.00000

 k-point    20 :       0.0000    0.0000    0.2500
  band No.  band energies     occupation 
      1     -10.9836      2.00000
      2     -10.9836      2.00000
      3     -10.9835      2.00000
      4     -10.7813      2.00000
      5     -10.7813      2.00000
      6     -10.7812      2.00000
      7     -10.7812      2.00000
      8     -10.7812      2.00000
      9     -10.7812      2.00000
     10     -10.6054      2.00000
     11     -10.6054      2.00000
     12     -10.6054      2.00000
     13     -10.6054      2.00000
     14     -10.6054      2.00000
     15     -10.6054      2.00000
     16     -10.2644      2.00000
     17     -10.2644      2.00000
     18     -10.2643      2.00000
     19     -10.2643      2.00000
     20     -10.2643      2.00000
     21     -10.2643      2.00000
     22     -10.2520      2.00000
     23     -10.2519      2.00000
     24     -10.2518      2.00000
     25     -10.1191      2.00000
     26     -10.1191      2.00000
     27     -10.1190      2.00000
     28     -10.1190      2.00000
     29     -10.1190      2.00000
     30     -10.1190      2.00000
     31      -9.7177      2.00000
     32      -9.7137      2.00000
     33      -9.7097      2.00000
     34      -9.1424      2.00000
     35      -9.1294      2.00000
     36      -9.1161      2.00000
     37      -8.1809      2.00000
     38      -8.1573      2.00000
     39      -8.1331      2.00000
     40      -7.4274      2.00000
     41      -7.4101      2.00000
     42      -7.3937      2.00000
     43      -2.0664      2.00000
     44      -2.0473      2.00000
     45      -2.0251      2.00000
     46      -1.5616      2.00000
     47      -1.5616      2.00000
     48      -1.5616      2.00000
     49      -1.5616      2.00000
     50      -1.5615      2.00000
     51      -1.5615      2.00000
     52      -1.3315      2.00000
     53      -1.2254      2.00000
     54      -1.1173      2.00000
     55      -1.1173      2.00000
     56      -1.1173      2.00000
     57      -1.1173      2.00000
     58      -1.1172      2.00000
     59      -1.1172      2.00000
     60      -1.0986      2.00000
     61      -0.0897      2.00000
     62       0.1430      2.00000
     63       0.4064      2.00000
     64       1.4592      2.00000
     65       1.7778      2.00000
     66       2.0779      2.00000
     67       2.0779      2.00000
     68       2.0788      2.00000
     69       2.0788      2.00000
     70       2.0797      2.00000
     71       2.0797      2.00000
     72       2.1066      2.00000
     73       2.7089      2.00000
     74       2.7089      2.00000
     75       2.7133      2.00000
     76       2.7133      2.00000
     77       2.7178      2.00000
     78       2.7178      2.00000
     79       2.9894      2.00000
     80       2.9894      2.00000
     81       2.9933      2.00000
     82       2.9933      2.00000
     83       2.9970      2.00000
     84       2.9970      2.00000
     85       3.1789      2.00000
     86       3.5142      2.00000
     87       3.8482      2.00000
     88       4.5079      2.00000
     89       4.5079      2.00000
     90       4.5081      2.00000
     91       4.5081      2.00000
     92       4.5083      2.00000
     93       4.5083      2.00000
     94       4.8723      0.00000
     95       5.1764      0.00000
     96       5.4656      0.00000
     97       6.1051      0.00000
     98       6.2404      0.00000
     99       6.3262      0.00000
    100       7.2066      0.00000
    101       7.2276      0.00000
    102       7.2612      0.00000
    103       7.7108      0.00000
    104       7.8014      0.00000
    105       7.8802      0.00000
    106       8.9533      0.00000
    107       8.9545      0.00000
    108       8.9635      0.00000
    109       8.9689      0.00000
    110       8.9728      0.00000
    111       8.9905      0.00000
    112       9.0420      0.00000

 k-point    21 :       0.0833    0.0000    0.2500
  band No.  band energies     occupation 
      1     -10.9922      2.00000
      2     -10.9921      2.00000
      3     -10.9921      2.00000
      4     -10.8003      2.00000
      5     -10.8003      2.00000
      6     -10.8002      2.00000
      7     -10.7748      2.00000
      8     -10.7748      2.00000
      9     -10.7748      2.00000
     10     -10.6116      2.00000
     11     -10.6116      2.00000
     12     -10.6116      2.00000
     13     -10.6050      2.00000
     14     -10.6049      2.00000
     15     -10.6049      2.00000
     16     -10.3046      2.00000
     17     -10.3045      2.00000
     18     -10.3045      2.00000
     19     -10.2588      2.00000
     20     -10.2588      2.00000
     21     -10.2587      2.00000
     22     -10.2304      2.00000
     23     -10.2304      2.00000
     24     -10.2303      2.00000
     25     -10.1252      2.00000
     26     -10.1251      2.00000
     27     -10.1251      2.00000
     28     -10.1182      2.00000
     29     -10.1181      2.00000
     30     -10.1181      2.00000
     31      -9.6335      2.00000
     32      -9.6293      2.00000
     33      -9.6248      2.00000
     34      -9.0888      2.00000
     35      -9.0755      2.00000
     36      -9.0624      2.00000
     37      -8.1160      2.00000
     38      -8.0930      2.00000
     39      -8.0688      2.00000
     40      -7.3890      2.00000
     41      -7.3718      2.00000
     42      -7.3557      2.00000
     43      -2.0446      2.00000
     44      -2.0229      2.00000
     45      -1.9969      2.00000
     46      -1.5612      2.00000
     47      -1.5611      2.00000
     48      -1.5608      2.00000
     49      -1.5470      2.00000
     50      -1.5470      2.00000
     51      -1.5469      2.00000
     52      -1.3238      2.00000
     53      -1.2189      2.00000
     54      -1.1355      2.00000
     55      -1.1252      2.00000
     56      -1.1232      2.00000
     57      -1.1175      2.00000
     58      -1.1174      2.00000
     59      -1.1174      2.00000
     60      -1.0841      2.00000
     61      -0.0853      2.00000
     62       0.1169      2.00000
     63       0.3444      2.00000
     64       1.4084      2.00000
     65       1.5874      2.00000
     66       1.6440      2.00000
     67       1.7595      2.00000
     68       1.8570      2.00000
     69       1.9888      2.00000
     70       1.9897      2.00000
     71       1.9921      2.00000
     72       2.0015      2.00000
     73       2.2971      2.00000
     74       2.3046      2.00000
     75       2.3396      2.00000
     76       2.5403      2.00000
     77       2.5476      2.00000
     78       2.5509      2.00000
     79       2.7706      2.00000
     80       2.7755      2.00000
     81       2.8078      2.00000
     82       3.0514      2.00000
     83       3.0545      2.00000
     84       3.0605      2.00000
     85       3.5070      2.00000
     86       3.7061      2.00000
     87       3.8906      2.00000
     88       4.0835      2.00000
     89       4.1348      2.00000
     90       4.1375      2.00000
     91       4.4104      2.00000
     92       4.4112      2.00000
     93       4.4120      2.00000
     94       5.2610      0.00000
     95       5.4349      0.00000
     96       5.6549      0.00000
     97       6.3204      0.00000
     98       6.4367      0.00000
     99       6.5193      0.00000
    100       7.5270      0.00000
    101       7.5569      0.00000
    102       7.5825      0.00000
    103       8.0134      0.00000
    104       8.0522      0.00000
    105       8.1379      0.00000
    106       8.5810      0.00000
    107       8.6005      0.00000
    108       8.6360      0.00000
    109       9.0786      0.00000
    110       9.1002      0.00000
    111       9.1211      0.00000
    112       9.1281      0.00000

 k-point    22 :       0.1667   -0.0000    0.2500
  band No.  band energies     occupation 
      1     -11.0269      2.00000
      2     -11.0269      2.00000
      3     -11.0268      2.00000
      4     -10.8312      2.00000
      5     -10.8312      2.00000
      6     -10.8311      2.00000
      7     -10.7581      2.00000
      8     -10.7580      2.00000
      9     -10.7580      2.00000
     10     -10.6239      2.00000
     11     -10.6239      2.00000
     12     -10.6238      2.00000
     13     -10.6029      2.00000
     14     -10.6029      2.00000
     15     -10.6028      2.00000
     16     -10.3874      2.00000
     17     -10.3873      2.00000
     18     -10.3873      2.00000
     19     -10.2451      2.00000
     20     -10.2451      2.00000
     21     -10.2450      2.00000
     22     -10.1978      2.00000
     23     -10.1978      2.00000
     24     -10.1978      2.00000
     25     -10.1355      2.00000
     26     -10.1354      2.00000
     27     -10.1354      2.00000
     28     -10.1142      2.00000
     29     -10.1141      2.00000
     30     -10.1141      2.00000
     31      -9.4102      2.00000
     32      -9.4060      2.00000
     33      -9.4002      2.00000
     34      -8.9309      2.00000
     35      -8.9163      2.00000
     36      -8.9047      2.00000
     37      -7.9449      2.00000
     38      -7.9247      2.00000
     39      -7.9003      2.00000
     40      -7.2818      2.00000
     41      -7.2648      2.00000
     42      -7.2507      2.00000
     43      -1.9975      2.00000
     44      -1.9708      2.00000
     45      -1.9362      2.00000
     46      -1.5547      2.00000
     47      -1.5541      2.00000
     48      -1.5522      2.00000
     49      -1.5067      2.00000
     50      -1.5066      2.00000
     51      -1.5066      2.00000
     52      -1.3057      2.00000
     53      -1.2087      2.00000
     54      -1.1683      2.00000
     55      -1.1466      2.00000
     56      -1.1351      2.00000
     57      -1.1172      2.00000
     58      -1.1172      2.00000
     59      -1.1171      2.00000
     60      -1.0746      2.00000
     61      -0.1453      2.00000
     62      -0.0626      2.00000
     63       0.0688      2.00000
     64       0.8998      2.00000
     65       0.9040      2.00000
     66       0.9295      2.00000
     67       1.3374      2.00000
     68       1.3442      2.00000
     69       1.5469      2.00000
     70       1.7598      2.00000
     71       1.7624      2.00000
     72       1.7663      2.00000
     73       1.8109      2.00000
     74       1.8700      2.00000
     75       1.9858      2.00000
     76       2.2215      2.00000
     77       2.2281      2.00000
     78       2.2368      2.00000
     79       2.2433      2.00000
     80       2.3140      2.00000
     81       2.3286      2.00000
     82       3.0827      2.00000
     83       3.0894      2.00000
     84       3.0972      2.00000
     85       3.2708      2.00000
     86       3.3270      2.00000
     87       3.4447      2.00000
     88       3.8031      2.00000
     89       4.0121      2.00000
     90       4.0264      2.00000
     91       4.1607      2.00000
     92       4.1638      2.00000
     93       4.1668      2.00000
     94       5.7897      0.00000
     95       5.8226      0.00000
     96       5.9306      0.00000
     97       6.5915      0.00000
     98       6.6227      0.00000
     99       6.6744      0.00000
    100       7.8484      0.00000
    101       7.8930      0.00000
    102       7.9093      0.00000
    103       8.2396      0.00000
    104       8.2655      0.00000
    105       8.3505      0.00000
    106       8.7297      0.00000
    107       8.7581      0.00000
    108       8.7688      0.00000
    109       9.1033      0.00000
    110       9.2278      0.00000
    111       9.2832      0.00000
    112       9.3766      0.00000

 k-point    23 :       0.2500   -0.0000    0.2500
  band No.  band energies     occupation 
      1     -11.0877      2.00000
      2     -11.0876      2.00000
      3     -11.0876      2.00000
      4     -10.8463      2.00000
      5     -10.8462      2.00000
      6     -10.8462      2.00000
      7     -10.7374      2.00000
      8     -10.7374      2.00000
      9     -10.7374      2.00000
     10     -10.6365      2.00000
     11     -10.6365      2.00000
     12     -10.6364      2.00000
     13     -10.5974      2.00000
     14     -10.5973      2.00000
     15     -10.5973      2.00000
     16     -10.4814      2.00000
     17     -10.4814      2.00000
     18     -10.4813      2.00000
     19     -10.2305      2.00000
     20     -10.2304      2.00000
     21     -10.2304      2.00000
     22     -10.1732      2.00000
     23     -10.1731      2.00000
     24     -10.1731      2.00000
     25     -10.1356      2.00000
     26     -10.1356      2.00000
     27     -10.1356      2.00000
     28     -10.1043      2.00000
     29     -10.1042      2.00000
     30     -10.1042      2.00000
     31      -9.0970      2.00000
     32      -9.0939      2.00000
     33      -9.0868      2.00000
     34      -8.6859      2.00000
     35      -8.6699      2.00000
     36      -8.6618      2.00000
     37      -7.7224      2.00000
     38      -7.7090      2.00000
     39      -7.6853      2.00000
     40      -7.1302      2.00000
     41      -7.1145      2.00000
     42      -7.1056      2.00000
     43      -1.9882      2.00000
     44      -1.9639      2.00000
     45      -1.9278      2.00000
     46      -1.5315      2.00000
     47      -1.5280      2.00000
     48      -1.5223      2.00000
     49      -1.4512      2.00000
     50      -1.4511      2.00000
     51      -1.4510      2.00000
     52      -1.3007      2.00000
     53      -1.2294      2.00000
     54      -1.2158      2.00000
     55      -1.1795      2.00000
     56      -1.1516      2.00000
     57      -1.1206      2.00000
     58      -1.1141      2.00000
     59      -1.1140      2.00000
     60      -1.1140      2.00000
     61      -0.5277      2.00000
     62      -0.5043      2.00000
     63      -0.4894      2.00000
     64       0.2054      2.00000
     65       0.2792      2.00000
     66       0.2974      2.00000
     67       0.8263      2.00000
     68       0.9450      2.00000
     69       1.1004      2.00000
     70       1.4521      2.00000
     71       1.4758      2.00000
     72       1.4803      2.00000
     73       1.4859      2.00000
     74       1.4883      2.00000
     75       1.5459      2.00000
     76       1.7898      2.00000
     77       1.8871      2.00000
     78       1.8936      2.00000
     79       1.9000      2.00000
     80       1.9110      2.00000
     81       1.9204      2.00000
     82       2.7379      2.00000
     83       2.7397      2.00000
     84       2.9351      2.00000
     85       3.0449      2.00000
     86       3.0567      2.00000
     87       3.0695      2.00000
     88       3.8523      2.00000
     89       3.8605      2.00000
     90       3.8682      2.00000
     91       3.9317      2.00000
     92       3.9662      2.00000
     93       4.0682      2.00000
     94       6.0136      0.00000
     95       6.0411      0.00000
     96       6.0602      0.00000
     97       6.3471      0.00000
     98       6.3697      0.00000
     99       6.4151      0.00000
    100       7.6168      0.00000
    101       7.6504      0.00000
    102       7.6765      0.00000
    103       8.4067      0.00000
    104       8.4878      0.00000
    105       8.5743      0.00000
    106       9.0278      0.00000
    107       9.0598      0.00000
    108       9.1113      0.00000
    109       9.6394      0.00000
    110       9.6408      0.00000
    111       9.6674      0.00000
    112       9.6845      0.00000

 k-point    24 :       0.3333   -0.0000    0.2500
  band No.  band energies     occupation 
      1     -11.1492      2.00000
      2     -11.1491      2.00000
      3     -11.1491      2.00000
      4     -10.8548      2.00000
      5     -10.8547      2.00000
      6     -10.8546      2.00000
      7     -10.7206      2.00000
      8     -10.7205      2.00000
      9     -10.7205      2.00000
     10     -10.6480      2.00000
     11     -10.6479      2.00000
     12     -10.6479      2.00000
     13     -10.5878      2.00000
     14     -10.5877      2.00000
     15     -10.5877      2.00000
     16     -10.5563      2.00000
     17     -10.5562      2.00000
     18     -10.5561      2.00000
     19     -10.2211      2.00000
     20     -10.2211      2.00000
     21     -10.2210      2.00000
     22     -10.1738      2.00000
     23     -10.1738      2.00000
     24     -10.1737      2.00000
     25     -10.1151      2.00000
     26     -10.1150      2.00000
     27     -10.1150      2.00000
     28     -10.0887      2.00000
     29     -10.0886      2.00000
     30     -10.0886      2.00000
     31      -8.7453      2.00000
     32      -8.7445      2.00000
     33      -8.7368      2.00000
     34      -8.4026      2.00000
     35      -8.3866      2.00000
     36      -8.3844      2.00000
     37      -7.5141      2.00000
     38      -7.5109      2.00000
     39      -7.4913      2.00000
     40      -6.9734      2.00000
     41      -6.9619      2.00000
     42      -6.9602      2.00000
     43      -2.1367      2.00000
     44      -2.1262      2.00000
     45      -2.1088      2.00000
     46      -1.5213      2.00000
     47      -1.4942      2.00000
     48      -1.4893      2.00000
     49      -1.3966      2.00000
     50      -1.3966      2.00000
     51      -1.3965      2.00000
     52      -1.3825      2.00000
     53      -1.3551      2.00000
     54      -1.3288      2.00000
     55      -1.2040      2.00000
     56      -1.1989      2.00000
     57      -1.1872      2.00000
     58      -1.1056      2.00000
     59      -1.1056      2.00000
     60      -1.1055      2.00000
     61      -0.9926      2.00000
     62      -0.9777      2.00000
     63      -0.9729      2.00000
     64      -0.2379      2.00000
     65      -0.1587      2.00000
     66      -0.1219      2.00000
     67       0.6469      2.00000
     68       0.6742      2.00000
     69       0.6743      2.00000
     70       0.8882      2.00000
     71       0.9575      2.00000
     72       0.9623      2.00000
     73       1.2174      2.00000
     74       1.2235      2.00000
     75       1.2306      2.00000
     76       1.5552      2.00000
     77       1.6215      2.00000
     78       1.6345      2.00000
     79       1.6463      2.00000
     80       1.6549      2.00000
     81       1.8117      2.00000
     82       2.3796      2.00000
     83       2.6106      2.00000
     84       2.6748      2.00000
     85       2.9665      2.00000
     86       2.9856      2.00000
     87       3.0062      2.00000
     88       3.5774      2.00000
     89       3.5934      2.00000
     90       3.6081      2.00000
     91       3.8979      2.00000
     92       3.9469      2.00000
     93       3.9824      2.00000
     94       5.8215      0.00000
     95       5.8261      0.00000
     96       5.8808      0.00000
     97       6.1549      0.00000
     98       6.1745      0.00000
     99       6.1789      0.00000
    100       7.3558      0.00000
    101       7.4090      0.00000
    102       7.4132      0.00000
    103       8.3608      0.00000
    104       8.4745      0.00000
    105       8.5999      0.00000
    106       8.9216      0.00000
    107       9.0268      0.00000
    108       9.0941      0.00000
    109       9.7364      0.00000
    110       9.7535      0.00000
    111       9.8012      0.00000
    112       9.8338      0.00000

 k-point    25 :       0.4167   -0.0000    0.2500
  band No.  band energies     occupation 
      1     -11.1918      2.00000
      2     -11.1917      2.00000
      3     -11.1917      2.00000
      4     -10.8646      2.00000
      5     -10.8646      2.00000
      6     -10.8645      2.00000
      7     -10.7110      2.00000
      8     -10.7110      2.00000
      9     -10.7109      2.00000
     10     -10.6576      2.00000
     11     -10.6575      2.00000
     12     -10.6575      2.00000
     13     -10.5970      2.00000
     14     -10.5969      2.00000
     15     -10.5968      2.00000
     16     -10.5777      2.00000
     17     -10.5776      2.00000
     18     -10.5776      2.00000
     19     -10.2174      2.00000
     20     -10.2173      2.00000
     21     -10.2173      2.00000
     22     -10.1798      2.00000
     23     -10.1797      2.00000
     24     -10.1797      2.00000
     25     -10.0968      2.00000
     26     -10.0967      2.00000
     27     -10.0967      2.00000
     28     -10.0739      2.00000
     29     -10.0738      2.00000
     30     -10.0738      2.00000
     31      -8.4340      2.00000
     32      -8.4315      2.00000
     33      -8.4271      2.00000
     34      -8.1718      2.00000
     35      -8.1638      2.00000
     36      -8.1589      2.00000
     37      -7.3842      2.00000
     38      -7.3795      2.00000
     39      -7.3729      2.00000
     40      -6.8571      2.00000
     41      -6.8543      2.00000
     42      -6.8519      2.00000
     43      -2.4231      2.00000
     44      -2.4223      2.00000
     45      -2.4178      2.00000
     46      -1.7302      2.00000
     47      -1.7217      2.00000
     48      -1.7061      2.00000
     49      -1.4091      2.00000
     50      -1.3791      2.00000
     51      -1.3687      2.00000
     52      -1.3592      2.00000
     53      -1.3591      2.00000
     54      -1.3590      2.00000
     55      -1.2600      2.00000
     56      -1.2487      2.00000
     57      -1.2454      2.00000
     58      -1.0938      2.00000
     59      -1.0937      2.00000
     60      -1.0937      2.00000
     61      -1.0327      2.00000
     62      -1.0305      2.00000
     63      -1.0103      2.00000
     64      -0.4394      2.00000
     65      -0.4014      2.00000
     66      -0.3960      2.00000
     67       0.1264      2.00000
     68       0.2323      2.00000
     69       0.2979      2.00000
     70       0.7332      2.00000
     71       0.8379      2.00000
     72       0.8634      2.00000
     73       1.0410      2.00000
     74       1.0483      2.00000
     75       1.0563      2.00000
     76       1.3899      2.00000
     77       1.4166      2.00000
     78       1.4368      2.00000
     79       1.4512      2.00000
     80       1.4647      2.00000
     81       1.8247      2.00000
     82       2.2401      2.00000
     83       2.5495      2.00000
     84       2.6390      2.00000
     85       2.8872      2.00000
     86       2.9128      2.00000
     87       2.9408      2.00000
     88       3.3993      2.00000
     89       3.4228      2.00000
     90       3.4438      2.00000
     91       3.8331      2.00000
     92       3.8732      2.00000
     93       3.8870      2.00000
     94       5.5394      0.00000
     95       5.6130      0.00000
     96       5.6606      0.00000
     97       6.0191      0.00000
     98       6.0206      0.00000
     99       6.0662      0.00000
    100       7.2376      0.00000
    101       7.2690      0.00000
    102       7.2756      0.00000
    103       8.2413      0.00000
    104       8.3350      0.00000
    105       8.4865      0.00000
    106       8.7455      0.00000
    107       8.9189      0.00000
    108       8.9393      0.00000
    109       9.7233      0.00000
    110       9.7333      0.00000
    111       9.7769      0.00000
    112       9.8108      0.00000

 k-point    26 :       0.5000   -0.0000    0.2500
  band No.  band energies     occupation 
      1     -11.2068      2.00000
      2     -11.2068      2.00000
      3     -11.2067      2.00000
      4     -10.8697      2.00000
      5     -10.8697      2.00000
      6     -10.8696      2.00000
      7     -10.7081      2.00000
      8     -10.7081      2.00000
      9     -10.7081      2.00000
     10     -10.6619      2.00000
     11     -10.6619      2.00000
     12     -10.6618      2.00000
     13     -10.6082      2.00000
     14     -10.6081      2.00000
     15     -10.6081      2.00000
     16     -10.5733      2.00000
     17     -10.5732      2.00000
     18     -10.5732      2.00000
     19     -10.2165      2.00000
     20     -10.2165      2.00000
     21     -10.2164      2.00000
     22     -10.1822      2.00000
     23     -10.1821      2.00000
     24     -10.1821      2.00000
     25     -10.0902      2.00000
     26     -10.0901      2.00000
     27     -10.0901      2.00000
     28     -10.0679      2.00000
     29     -10.0678      2.00000
     30     -10.0678      2.00000
     31      -8.2935      2.00000
     32      -8.2909      2.00000
     33      -8.2882      2.00000
     34      -8.0893      2.00000
     35      -8.0848      2.00000
     36      -8.0804      2.00000
     37      -7.3434      2.00000
     38      -7.3403      2.00000
     39      -7.3371      2.00000
     40      -6.8156      2.00000
     41      -6.8144      2.00000
     42      -6.8132      2.00000
     43      -2.5715      2.00000
     44      -2.5653      2.00000
     45      -2.5589      2.00000
     46      -1.8668      2.00000
     47      -1.8568      2.00000
     48      -1.8470      2.00000
     49      -1.3968      2.00000
     50      -1.3789      2.00000
     51      -1.3577      2.00000
     52      -1.3464      2.00000
     53      -1.3463      2.00000
     54      -1.3463      2.00000
     55      -1.2742      2.00000
     56      -1.2699      2.00000
     57      -1.2683      2.00000
     58      -1.0878      2.00000
     59      -1.0877      2.00000
     60      -1.0877      2.00000
     61      -0.9244      2.00000
     62      -0.9207      2.00000
     63      -0.9173      2.00000
     64      -0.5407      2.00000
     65      -0.5360      2.00000
     66      -0.5236      2.00000
     67      -0.1365      2.00000
     68      -0.0265      2.00000
     69       0.0900      2.00000
     70       0.8744      2.00000
     71       0.8841      2.00000
     72       0.8888      2.00000
     73       0.9787      2.00000
     74       0.9865      2.00000
     75       0.9948      2.00000
     76       1.1768      2.00000
     77       1.3724      2.00000
     78       1.3871      2.00000
     79       1.4014      2.00000
     80       1.4213      2.00000
     81       1.6978      2.00000
     82       2.2827      2.00000
     83       2.5061      2.00000
     84       2.6623      2.00000
     85       2.8530      2.00000
     86       2.8811      2.00000
     87       2.9118      2.00000
     88       3.3402      2.00000
     89       3.3664      2.00000
     90       3.3899      2.00000
     91       3.7630      2.00000
     92       3.8251      2.00000
     93       3.8872      2.00000
     94       5.4479      0.00000
     95       5.5172      0.00000
     96       5.5969      0.00000
     97       5.9312      0.00000
     98       5.9805      0.00000
     99       6.0146      0.00000
    100       7.2167      0.00000
    101       7.2232      0.00000
    102       7.2287      0.00000
    103       8.1887      0.00000
    104       8.2732      0.00000
    105       8.4311      0.00000
    106       8.6922      0.00000
    107       8.8377      0.00000
    108       8.8940      0.00000
    109       9.6853      0.00000
    110       9.7015      0.00000
    111       9.7335      0.00000
    112       9.7902      0.00000

 k-point    27 :      -0.4167    0.0000    0.2500
  band No.  band energies     occupation 
      1     -11.1918      2.00000
      2     -11.1917      2.00000
      3     -11.1917      2.00000
      4     -10.8646      2.00000
      5     -10.8645      2.00000
      6     -10.8645      2.00000
      7     -10.7110      2.00000
      8     -10.7110      2.00000
      9     -10.7109      2.00000
     10     -10.6576      2.00000
     11     -10.6575      2.00000
     12     -10.6575      2.00000
     13     -10.5970      2.00000
     14     -10.5969      2.00000
     15     -10.5968      2.00000
     16     -10.5777      2.00000
     17     -10.5776      2.00000
     18     -10.5776      2.00000
     19     -10.2174      2.00000
     20     -10.2173      2.00000
     21     -10.2173      2.00000
     22     -10.1798      2.00000
     23     -10.1797      2.00000
     24     -10.1797      2.00000
     25     -10.0968      2.00000
     26     -10.0967      2.00000
     27     -10.0967      2.00000
     28     -10.0739      2.00000
     29     -10.0738      2.00000
     30     -10.0738      2.00000
     31      -8.4346      2.00000
     32      -8.4303      2.00000
     33      -8.4277      2.00000
     34      -8.1707      2.00000
     35      -8.1658      2.00000
     36      -8.1579      2.00000
     37      -7.3849      2.00000
     38      -7.3782      2.00000
     39      -7.3735      2.00000
     40      -6.8570      2.00000
     41      -6.8545      2.00000
     42      -6.8518      2.00000
     43      -2.4243      2.00000
     44      -2.4198      2.00000
     45      -2.4191      2.00000
     46      -1.7323      2.00000
     47      -1.7179      2.00000
     48      -1.7078      2.00000
     49      -1.4027      2.00000
     50      -1.3927      2.00000
     51      -1.3612      2.00000
     52      -1.3592      2.00000
     53      -1.3591      2.00000
     54      -1.3590      2.00000
     55      -1.2586      2.00000
     56      -1.2521      2.00000
     57      -1.2437      2.00000
     58      -1.0938      2.00000
     59      -1.0937      2.00000
     60      -1.0937      2.00000
     61      -1.0383      2.00000
     62      -1.0194      2.00000
     63      -1.0159      2.00000
     64      -0.4297      2.00000
     65      -0.4207      2.00000
     66      -0.3862      2.00000
     67       0.1410      2.00000
     68       0.1962      2.00000
     69       0.3199      2.00000
     70       0.7711      2.00000
     71       0.7858      2.00000
     72       0.8785      2.00000
     73       1.0409      2.00000
     74       1.0485      2.00000
     75       1.0562      2.00000
     76       1.2942      2.00000
     77       1.4370      2.00000
     78       1.4508      2.00000
     79       1.4648      2.00000
     80       1.6468      2.00000
     81       1.6513      2.00000
     82       2.3489      2.00000
     83       2.4439      2.00000
     84       2.6729      2.00000
     85       2.8870      2.00000
     86       2.9130      2.00000
     87       2.9406      2.00000
     88       3.3994      2.00000
     89       3.4226      2.00000
     90       3.4439      2.00000
     91       3.8472      2.00000
     92       3.8516      2.00000
     93       3.8948      2.00000
     94       5.5535      0.00000
     95       5.5855      0.00000
     96       5.6754      0.00000
     97       5.9975      0.00000
     98       6.0470      0.00000
     99       6.0601      0.00000
    100       7.2461      0.00000
    101       7.2523      0.00000
    102       7.2841      0.00000
    103       8.2366      0.00000
    104       8.3304      0.00000
    105       8.5028      0.00000
    106       8.7526      0.00000
    107       8.8689      0.00000
    108       8.9746      0.00000
    109       9.7043      0.00000
    110       9.7225      0.00000
    111       9.7572      0.00000
    112       9.8111      0.00000

 k-point    28 :      -0.3333    0.0000    0.2500
  band No.  band energies     occupation 
      1     -11.1492      2.00000
      2     -11.1491      2.00000
      3     -11.1491      2.00000
      4     -10.8548      2.00000
      5     -10.8547      2.00000
      6     -10.8546      2.00000
      7     -10.7205      2.00000
      8     -10.7205      2.00000
      9     -10.7205      2.00000
     10     -10.6480      2.00000
     11     -10.6479      2.00000
     12     -10.6479      2.00000
     13     -10.5878      2.00000
     14     -10.5877      2.00000
     15     -10.5877      2.00000
     16     -10.5563      2.00000
     17     -10.5562      2.00000
     18     -10.5562      2.00000
     19     -10.2211      2.00000
     20     -10.2211      2.00000
     21     -10.2210      2.00000
     22     -10.1738      2.00000
     23     -10.1738      2.00000
     24     -10.1737      2.00000
     25     -10.1151      2.00000
     26     -10.1150      2.00000
     27     -10.1150      2.00000
     28     -10.0887      2.00000
     29     -10.0886      2.00000
     30     -10.0886      2.00000
     31      -8.7475      2.00000
     32      -8.7400      2.00000
     33      -8.7391      2.00000
     34      -8.3980      2.00000
     35      -8.3958      2.00000
     36      -8.3799      2.00000
     37      -7.5195      2.00000
     38      -7.5000      2.00000
     39      -7.4968      2.00000
     40      -6.9701      2.00000
     41      -6.9683      2.00000
     42      -6.9571      2.00000
     43      -2.1386      2.00000
     44      -2.1219      2.00000
     45      -2.1112      2.00000
     46      -1.5138      2.00000
     47      -1.5134      2.00000
     48      -1.4751      2.00000
     49      -1.3966      2.00000
     50      -1.3966      2.00000
     51      -1.3965      2.00000
     52      -1.3872      2.00000
     53      -1.3509      2.00000
     54      -1.3310      2.00000
     55      -1.2043      2.00000
     56      -1.1977      2.00000
     57      -1.1881      2.00000
     58      -1.1056      2.00000
     59      -1.1056      2.00000
     60      -1.1055      2.00000
     61      -0.9884      2.00000
     62      -0.9856      2.00000
     63      -0.9689      2.00000
     64      -0.2227      2.00000
     65      -0.1905      2.00000
     66      -0.1045      2.00000
     67       0.6359      2.00000
     68       0.6742      2.00000
     69       0.6769      2.00000
     70       0.9325      2.00000
     71       0.9346      2.00000
     72       0.9510      2.00000
     73       1.2172      2.00000
     74       1.2239      2.00000
     75       1.2304      2.00000
     76       1.5435      2.00000
     77       1.6218      2.00000
     78       1.6338      2.00000
     79       1.6466      2.00000
     80       1.6544      2.00000
     81       1.8223      2.00000
     82       2.4116      2.00000
     83       2.5313      2.00000
     84       2.7218      2.00000
     85       2.9663      2.00000
     86       2.9861      2.00000
     87       3.0059      2.00000
     88       3.5775      2.00000
     89       3.5931      2.00000
     90       3.6082      2.00000
     91       3.8957      2.00000
     92       3.9455      2.00000
     93       3.9851      2.00000
     94       5.8148      0.00000
     95       5.8456      0.00000
     96       5.8668      0.00000
     97       6.1628      0.00000
     98       6.1724      0.00000
     99       6.1743      0.00000
    100       7.3726      0.00000
    101       7.3763      0.00000
    102       7.4293      0.00000
    103       8.3644      0.00000
    104       8.4515      0.00000
    105       8.6370      0.00000
    106       8.8852      0.00000
    107       9.0398      0.00000
    108       9.1004      0.00000
    109       9.7482      0.00000
    110       9.7651      0.00000
    111       9.7747      0.00000
    112       9.8557      0.00000

 k-point    29 :      -0.2500    0.0000    0.2500
  band No.  band energies     occupation 
      1     -11.0877      2.00000
      2     -11.0876      2.00000
      3     -11.0876      2.00000
      4     -10.8463      2.00000
      5     -10.8462      2.00000
      6     -10.8462      2.00000
      7     -10.7374      2.00000
      8     -10.7374      2.00000
      9     -10.7374      2.00000
     10     -10.6365      2.00000
     11     -10.6365      2.00000
     12     -10.6364      2.00000
     13     -10.5974      2.00000
     14     -10.5973      2.00000
     15     -10.5973      2.00000
     16     -10.4814      2.00000
     17     -10.4814      2.00000
     18     -10.4813      2.00000
     19     -10.2305      2.00000
     20     -10.2304      2.00000
     21     -10.2304      2.00000
     22     -10.1732      2.00000
     23     -10.1731      2.00000
     24     -10.1731      2.00000
     25     -10.1356      2.00000
     26     -10.1356      2.00000
     27     -10.1356      2.00000
     28     -10.1043      2.00000
     29     -10.1042      2.00000
     30     -10.1042      2.00000
     31      -9.0983      2.00000
     32      -9.0914      2.00000
     33      -9.0882      2.00000
     34      -8.6832      2.00000
     35      -8.6751      2.00000
     36      -8.6592      2.00000
     37      -7.7256      2.00000
     38      -7.7025      2.00000
     39      -7.6887      2.00000
     40      -7.1281      2.00000
     41      -7.1186      2.00000
     42      -7.1037      2.00000
     43      -1.9904      2.00000
     44      -1.9587      2.00000
     45      -1.9309      2.00000
     46      -1.5313      2.00000
     47      -1.5282      2.00000
     48      -1.5224      2.00000
     49      -1.4512      2.00000
     50      -1.4511      2.00000
     51      -1.4510      2.00000
     52      -1.2864      2.00000
     53      -1.2495      2.00000
     54      -1.2119      2.00000
     55      -1.1784      2.00000
     56      -1.1649      2.00000
     57      -1.1141      2.00000
     58      -1.1140      2.00000
     59      -1.1140      2.00000
     60      -1.1055      2.00000
     61      -0.5282      2.00000
     62      -0.5075      2.00000
     63      -0.4865      2.00000
     64       0.2256      2.00000
     65       0.2314      2.00000
     66       0.3278      2.00000
     67       0.8116      2.00000
     68       0.9701      2.00000
     69       1.0854      2.00000
     70       1.4455      2.00000
     71       1.4755      2.00000
     72       1.4809      2.00000
     73       1.4856      2.00000
     74       1.5029      2.00000
     75       1.5337      2.00000
     76       1.8348      2.00000
     77       1.8374      2.00000
     78       1.9005      2.00000
     79       1.9063      2.00000
     80       1.9100      2.00000
     81       1.9209      2.00000
     82       2.6654      2.00000
     83       2.8632      2.00000
     84       2.8825      2.00000
     85       3.0446      2.00000
     86       3.0573      2.00000
     87       3.0692      2.00000
     88       3.8524      2.00000
     89       3.8603      2.00000
     90       3.8683      2.00000
     91       3.9044      2.00000
     92       4.0173      2.00000
     93       4.0440      2.00000
     94       6.0147      0.00000
     95       6.0370      0.00000
     96       6.0632      0.00000
     97       6.3394      0.00000
     98       6.3861      0.00000
     99       6.4063      0.00000
    100       7.6191      0.00000
    101       7.6464      0.00000
    102       7.6782      0.00000
    103       8.4038      0.00000
    104       8.4812      0.00000
    105       8.5901      0.00000
    106       8.9951      0.00000
    107       9.0777      0.00000
    108       9.1192      0.00000
    109       9.6395      0.00000
    110       9.6436      0.00000
    111       9.6530      0.00000
    112       9.6973      0.00000

 k-point    30 :      -0.1667    0.0000    0.2500
  band No.  band energies     occupation 
      1     -11.0269      2.00000
      2     -11.0269      2.00000
      3     -11.0268      2.00000
      4     -10.8312      2.00000
      5     -10.8312      2.00000
      6     -10.8311      2.00000
      7     -10.7581      2.00000
      8     -10.7580      2.00000
      9     -10.7580      2.00000
     10     -10.6239      2.00000
     11     -10.6239      2.00000
     12     -10.6238      2.00000
     13     -10.6029      2.00000
     14     -10.6029      2.00000
     15     -10.6028      2.00000
     16     -10.3874      2.00000
     17     -10.3873      2.00000
     18     -10.3873      2.00000
     19     -10.2451      2.00000
     20     -10.2451      2.00000
     21     -10.2450      2.00000
     22     -10.1978      2.00000
     23     -10.1978      2.00000
     24     -10.1978      2.00000
     25     -10.1355      2.00000
     26     -10.1354      2.00000
     27     -10.1354      2.00000
     28     -10.1142      2.00000
     29     -10.1141      2.00000
     30     -10.1141      2.00000
     31      -9.4107      2.00000
     32      -9.4050      2.00000
     33      -9.4007      2.00000
     34      -8.9299      2.00000
     35      -8.9184      2.00000
     36      -8.9037      2.00000
     37      -7.9460      2.00000
     38      -7.9223      2.00000
     39      -7.9015      2.00000
     40      -7.2810      2.00000
     41      -7.2662      2.00000
     42      -7.2501      2.00000
     43      -1.9982      2.00000
     44      -1.9691      2.00000
     45      -1.9373      2.00000
     46      -1.5548      2.00000
     47      -1.5537      2.00000
     48      -1.5525      2.00000
     49      -1.5067      2.00000
     50      -1.5066      2.00000
     51      -1.5066      2.00000
     52      -1.3010      2.00000
     53      -1.2179      2.00000
     54      -1.1668      2.00000
     55      -1.1468      2.00000
     56      -1.1362      2.00000
     57      -1.1172      2.00000
     58      -1.1172      2.00000
     59      -1.1171      2.00000
     60      -1.0696      2.00000
     61      -0.1659      2.00000
     62      -0.0213      2.00000
     63       0.0473      2.00000
     64       0.8961      2.00000
     65       0.9129      2.00000
     66       0.9236      2.00000
     67       1.2858      2.00000
     68       1.4337      2.00000
     69       1.5192      2.00000
     70       1.7484      2.00000
     71       1.7594      2.00000
     72       1.7632      2.00000
     73       1.7659      2.00000
     74       1.9534      2.00000
     75       1.9625      2.00000
     76       2.2279      2.00000
     77       2.2288      2.00000
     78       2.2353      2.00000
     79       2.2441      2.00000
     80       2.2752      2.00000
     81       2.3538      2.00000
     82       3.0823      2.00000
     83       3.0902      2.00000
     84       3.0968      2.00000
     85       3.2663      2.00000
     86       3.3514      2.00000
     87       3.4142      2.00000
     88       3.8836      2.00000
     89       3.8920      2.00000
     90       4.0767      2.00000
     91       4.1607      2.00000
     92       4.1638      2.00000
     93       4.1668      2.00000
     94       5.7657      0.00000
     95       5.8680      0.00000
     96       5.9088      0.00000
     97       6.5822      0.00000
     98       6.6420      0.00000
     99       6.6645      0.00000
    100       7.8544      0.00000
    101       7.8717      0.00000
    102       7.9283      0.00000
    103       8.2065      0.00000
    104       8.3068      0.00000
    105       8.3405      0.00000
    106       8.7302      0.00000
    107       8.7544      0.00000
    108       8.7709      0.00000
    109       9.1263      0.00000
    110       9.1603      0.00000
    111       9.3376      0.00000
    112       9.3695      0.00000

 k-point    31 :      -0.0833    0.0000    0.2500
  band No.  band energies     occupation 
      1     -10.9922      2.00000
      2     -10.9921      2.00000
      3     -10.9921      2.00000
      4     -10.8003      2.00000
      5     -10.8003      2.00000
      6     -10.8002      2.00000
      7     -10.7748      2.00000
      8     -10.7748      2.00000
      9     -10.7748      2.00000
     10     -10.6116      2.00000
     11     -10.6116      2.00000
     12     -10.6116      2.00000
     13     -10.6050      2.00000
     14     -10.6049      2.00000
     15     -10.6049      2.00000
     16     -10.3046      2.00000
     17     -10.3046      2.00000
     18     -10.3045      2.00000
     19     -10.2588      2.00000
     20     -10.2588      2.00000
     21     -10.2587      2.00000
     22     -10.2304      2.00000
     23     -10.2303      2.00000
     24     -10.2303      2.00000
     25     -10.1252      2.00000
     26     -10.1251      2.00000
     27     -10.1251      2.00000
     28     -10.1182      2.00000
     29     -10.1181      2.00000
     30     -10.1181      2.00000
     31      -9.6336      2.00000
     32      -9.6292      2.00000
     33      -9.6249      2.00000
     34      -9.0887      2.00000
     35      -9.0758      2.00000
     36      -9.0622      2.00000
     37      -8.1162      2.00000
     38      -8.0926      2.00000
     39      -8.0690      2.00000
     40      -7.3889      2.00000
     41      -7.3719      2.00000
     42      -7.3556      2.00000
     43      -2.0447      2.00000
     44      -2.0227      2.00000
     45      -1.9970      2.00000
     46      -1.5612      2.00000
     47      -1.5610      2.00000
     48      -1.5608      2.00000
     49      -1.5470      2.00000
     50      -1.5470      2.00000
     51      -1.5469      2.00000
     52      -1.3232      2.00000
     53      -1.2202      2.00000
     54      -1.1352      2.00000
     55      -1.1252      2.00000
     56      -1.1231      2.00000
     57      -1.1175      2.00000
     58      -1.1174      2.00000
     59      -1.1174      2.00000
     60      -1.0836      2.00000
     61      -0.0881      2.00000
     62       0.1234      2.00000
     63       0.3396      2.00000
     64       1.4211      2.00000
     65       1.5723      2.00000
     66       1.6471      2.00000
     67       1.7666      2.00000
     68       1.8226      2.00000
     69       1.9883      2.00000
     70       1.9907      2.00000
     71       1.9916      2.00000
     72       2.0466      2.00000
     73       2.2600      2.00000
     74       2.3222      2.00000
     75       2.3423      2.00000
     76       2.5417      2.00000
     77       2.5448      2.00000
     78       2.5523      2.00000
     79       2.7511      2.00000
     80       2.7965      2.00000
     81       2.8030      2.00000
     82       3.0504      2.00000
     83       3.0565      2.00000
     84       3.0595      2.00000
     85       3.5301      2.00000
     86       3.6761      2.00000
     87       3.8922      2.00000
     88       4.1063      2.00000
     89       4.1164      2.00000
     90       4.1417      2.00000
     91       4.4104      2.00000
     92       4.4112      2.00000
     93       4.4120      2.00000
     94       5.2491      0.00000
     95       5.4539      0.00000
     96       5.6461      0.00000
     97       6.3210      0.00000
     98       6.4374      0.00000
     99       6.5186      0.00000
    100       7.5307      0.00000
    101       7.5482      0.00000
    102       7.5881      0.00000
    103       7.9941      0.00000
    104       8.0915      0.00000
    105       8.1175      0.00000
    106       8.5754      0.00000
    107       8.6096      0.00000
    108       8.6320      0.00000
    109       9.0822      0.00000
    110       9.0997      0.00000
    111       9.1139      0.00000
    112       9.1351      0.00000

 k-point    32 :       0.0833    0.0833    0.2500
  band No.  band energies     occupation 
      1     -11.0141      2.00000
      2     -11.0141      2.00000
      3     -11.0141      2.00000
      4     -10.8242      2.00000
      5     -10.8242      2.00000
      6     -10.8241      2.00000
      7     -10.7635      2.00000
      8     -10.7634      2.00000
      9     -10.7634      2.00000
     10     -10.6201      2.00000
     11     -10.6201      2.00000
     12     -10.6200      2.00000
     13     -10.6041      2.00000
     14     -10.6040      2.00000
     15     -10.6040      2.00000
     16     -10.3583      2.00000
     17     -10.3582      2.00000
     18     -10.3582      2.00000
     19     -10.2586      2.00000
     20     -10.2586      2.00000
     21     -10.2585      2.00000
     22     -10.2023      2.00000
     23     -10.2022      2.00000
     24     -10.2022      2.00000
     25     -10.1330      2.00000
     26     -10.1329      2.00000
     27     -10.1329      2.00000
     28     -10.1159      2.00000
     29     -10.1158      2.00000
     30     -10.1158      2.00000
     31      -9.4805      2.00000
     32      -9.4758      2.00000
     33      -9.4708      2.00000
     34      -8.9821      2.00000
     35      -8.9689      2.00000
     36      -8.9556      2.00000
     37      -7.9989      2.00000
     38      -7.9764      2.00000
     39      -7.9533      2.00000
     40      -7.3159      2.00000
     41      -7.2995      2.00000
     42      -7.2839      2.00000
     43      -2.0100      2.00000
     44      -1.9836      2.00000
     45      -1.9522      2.00000
     46      -1.5577      2.00000
     47      -1.5572      2.00000
     48      -1.5562      2.00000
     49      -1.5194      2.00000
     50      -1.5194      2.00000
     51      -1.5193      2.00000
     52      -1.3092      2.00000
     53      -1.2133      2.00000
     54      -1.1578      2.00000
     55      -1.1395      2.00000
     56      -1.1317      2.00000
     57      -1.1178      2.00000
     58      -1.1177      2.00000
     59      -1.1177      2.00000
     60      -1.0723      2.00000
     61      -0.1170      2.00000
     62       0.0299      2.00000
     63       0.1687      2.00000
     64       1.1224      2.00000
     65       1.1234      2.00000
     66       1.1239      2.00000
     67       1.5203      2.00000
     68       1.5843      2.00000
     69       1.6382      2.00000
     70       1.7710      2.00000
     71       1.7754      2.00000
     72       1.7767      2.00000
     73       1.9749      2.00000
     74       1.9978      2.00000
     75       2.0284      2.00000
     76       2.1037      2.00000
     77       2.1104      2.00000
     78       2.1131      2.00000
     79       2.7714      2.00000
     80       2.7829      2.00000
     81       2.8027      2.00000
     82       2.8707      2.00000
     83       2.8916      2.00000
     84       2.9083      2.00000
     85       3.4937      2.00000
     86       3.5415      2.00000
     87       3.6257      2.00000
     88       3.8077      2.00000
     89       3.9442      2.00000
     90       4.0429      2.00000
     91       4.2085      2.00000
     92       4.2087      2.00000
     93       4.2112      2.00000
     94       5.6629      0.00000
     95       5.7604      0.00000
     96       5.8677      0.00000
     97       6.5872      0.00000
     98       6.6582      0.00000
     99       6.7158      0.00000
    100       7.9204      0.00000
    101       7.9611      0.00000
    102       8.0228      0.00000
    103       8.1666      0.00000
    104       8.2200      0.00000
    105       8.2550      0.00000
    106       8.6109      0.00000
    107       8.6478      0.00000
    108       8.6706      0.00000
    109       8.9293      0.00000
    110       8.9723      0.00000
    111       9.0289      0.00000
    112       9.3132      0.00000

 k-point    33 :       0.1667    0.0833    0.2500
  band No.  band energies     occupation 
      1     -11.0634      2.00000
      2     -11.0633      2.00000
      3     -11.0633      2.00000
      4     -10.8426      2.00000
      5     -10.8426      2.00000
      6     -10.8425      2.00000
      7     -10.7457      2.00000
      8     -10.7457      2.00000
      9     -10.7456      2.00000
     10     -10.6309      2.00000
     11     -10.6308      2.00000
     12     -10.6308      2.00000
     13     -10.6012      2.00000
     14     -10.6011      2.00000
     15     -10.6011      2.00000
     16     -10.4398      2.00000
     17     -10.4398      2.00000
     18     -10.4397      2.00000
     19     -10.2544      2.00000
     20     -10.2543      2.00000
     21     -10.2543      2.00000
     22     -10.1708      2.00000
     23     -10.1707      2.00000
     24     -10.1707      2.00000
     25     -10.1405      2.00000
     26     -10.1404      2.00000
     27     -10.1404      2.00000
     28     -10.1082      2.00000
     29     -10.1081      2.00000
     30     -10.1081      2.00000
     31      -9.2125      2.00000
     32      -9.2083      2.00000
     33      -9.2023      2.00000
     34      -8.7769      2.00000
     35      -8.7627      2.00000
     36      -8.7516      2.00000
     37      -7.8046      2.00000
     38      -7.7866      2.00000
     39      -7.7641      2.00000
     40      -7.1862      2.00000
     41      -7.1708      2.00000
     42      -7.1586      2.00000
     43      -1.9774      2.00000
     44      -1.9492      2.00000
     45      -1.9127      2.00000
     46      -1.5417      2.00000
     47      -1.5398      2.00000
     48      -1.5358      2.00000
     49      -1.4711      2.00000
     50      -1.4710      2.00000
     51      -1.4709      2.00000
     52      -1.2949      2.00000
     53      -1.2181      2.00000
     54      -1.1943      2.00000
     55      -1.1652      2.00000
     56      -1.1434      2.00000
     57      -1.1165      2.00000
     58      -1.1164      2.00000
     59      -1.1162      2.00000
     60      -1.0876      2.00000
     61      -0.3320      2.00000
     62      -0.3126      2.00000
     63      -0.2584      2.00000
     64       0.5125      2.00000
     65       0.5459      2.00000
     66       0.5610      2.00000
     67       1.0142      2.00000
     68       1.0826      2.00000
     69       1.2160      2.00000
     70       1.4264      2.00000
     71       1.4273      2.00000
     72       1.4558      2.00000
     73       1.5698      2.00000
     74       1.6562      2.00000
     75       1.6575      2.00000
     76       1.7424      2.00000
     77       1.7727      2.00000
     78       1.8054      2.00000
     79       2.3743      2.00000
     80       2.3778      2.00000
     81       2.4308      2.00000
     82       2.7960      2.00000
     83       2.8167      2.00000
     84       2.8681      2.00000
     85       3.0076      2.00000
     86       3.0531      2.00000
     87       3.1250      2.00000
     88       3.8348      2.00000
     89       3.8564      2.00000
     90       3.8567      2.00000
     91       3.9614      2.00000
     92       4.0602      2.00000
     93       4.0669      2.00000
     94       6.0593      0.00000
     95       6.0663      0.00000
     96       6.0696      0.00000
     97       6.6294      0.00000
     98       6.6507      0.00000
     99       6.6516      0.00000
    100       7.8980      0.00000
    101       7.9004      0.00000
    102       7.9145      0.00000
    103       8.5140      0.00000
    104       8.5503      0.00000
    105       8.5702      0.00000
    106       8.9797      0.00000
    107       8.9856      0.00000
    108       9.0106      0.00000
    109       9.1310      0.00000
    110       9.1854      0.00000
    111       9.1871      0.00000
    112       9.5772      0.00000

 k-point    34 :       0.2500    0.0833    0.2500
  band No.  band energies     occupation 
      1     -11.1242      2.00000
      2     -11.1242      2.00000
      3     -11.1242      2.00000
      4     -10.8504      2.00000
      5     -10.8503      2.00000
      6     -10.8503      2.00000
      7     -10.7286      2.00000
      8     -10.7285      2.00000
      9     -10.7285      2.00000
     10     -10.6411      2.00000
     11     -10.6411      2.00000
     12     -10.6410      2.00000
     13     -10.5946      2.00000
     14     -10.5946      2.00000
     15     -10.5945      2.00000
     16     -10.5199      2.00000
     17     -10.5198      2.00000
     18     -10.5197      2.00000
     19     -10.2470      2.00000
     20     -10.2469      2.00000
     21     -10.2469      2.00000
     22     -10.1639      2.00000
     23     -10.1639      2.00000
     24     -10.1639      2.00000
     25     -10.1297      2.00000
     26     -10.1297      2.00000
     27     -10.1297      2.00000
     28     -10.0938      2.00000
     29     -10.0938      2.00000
     30     -10.0937      2.00000
     31      -8.8764      2.00000
     32      -8.8738      2.00000
     33      -8.8668      2.00000
     34      -8.5052      2.00000
     35      -8.4901      2.00000
     36      -8.4837      2.00000
     37      -7.5937      2.00000
     38      -7.5844      2.00000
     39      -7.5642      2.00000
     40      -7.0315      2.00000
     41      -7.0190      2.00000
     42      -7.0133      2.00000
     43      -2.0350      2.00000
     44      -2.0170      2.00000
     45      -1.9898      2.00000
     46      -1.5098      2.00000
     47      -1.4998      2.00000
     48      -1.4932      2.00000
     49      -1.4164      2.00000
     50      -1.4159      2.00000
     51      -1.4156      2.00000
     52      -1.3245      2.00000
     53      -1.2821      2.00000
     54      -1.2693      2.00000
     55      -1.1965      2.00000
     56      -1.1684      2.00000
     57      -1.1614      2.00000
     58      -1.1096      2.00000
     59      -1.1092      2.00000
     60      -1.1090      2.00000
     61      -0.8183      2.00000
     62      -0.8092      2.00000
     63      -0.7999      2.00000
     64      -0.0218      2.00000
     65       0.0520      2.00000
     66       0.0870      2.00000
     67       0.6947      2.00000
     68       0.7094      2.00000
     69       0.8328      2.00000
     70       1.0695      2.00000
     71       1.0781      2.00000
     72       1.0979      2.00000
     73       1.1876      2.00000
     74       1.2324      2.00000
     75       1.2392      2.00000
     76       1.4299      2.00000
     77       1.4821      2.00000
     78       1.6161      2.00000
     79       1.9422      2.00000
     80       1.9785      2.00000
     81       2.0612      2.00000
     82       2.4870      2.00000
     83       2.6259      2.00000
     84       2.7150      2.00000
     85       2.8738      2.00000
     86       2.9057      2.00000
     87       2.9080      2.00000
     88       3.5076      2.00000
     89       3.5308      2.00000
     90       3.5439      2.00000
     91       3.9858      2.00000
     92       3.9910      2.00000
     93       4.0500      2.00000
     94       6.0637      0.00000
     95       6.1327      0.00000
     96       6.1338      0.00000
     97       6.3674      0.00000
     98       6.3757      0.00000
     99       6.4264      0.00000
    100       7.6431      0.00000
    101       7.6701      0.00000
    102       7.6819      0.00000
    103       8.6254      0.00000
    104       8.6518      0.00000
    105       8.7354      0.00000
    106       9.2065      0.00000
    107       9.2239      0.00000
    108       9.2563      0.00000
    109       9.4809      0.00000
    110       9.4869      0.00000
    111       9.4905      0.00000
    112       9.8355      0.00000

 k-point    35 :       0.3333    0.0833    0.2500
  band No.  band energies     occupation 
      1     -11.1747      2.00000
      2     -11.1747      2.00000
      3     -11.1746      2.00000
      4     -10.8576      2.00000
      5     -10.8576      2.00000
      6     -10.8575      2.00000
      7     -10.7172      2.00000
      8     -10.7171      2.00000
      9     -10.7171      2.00000
     10     -10.6500      2.00000
     11     -10.6499      2.00000
     12     -10.6499      2.00000
     13     -10.5861      2.00000
     14     -10.5861      2.00000
     15     -10.5861      2.00000
     16     -10.5745      2.00000
     17     -10.5744      2.00000
     18     -10.5743      2.00000
     19     -10.2421      2.00000
     20     -10.2421      2.00000
     21     -10.2421      2.00000
     22     -10.1710      2.00000
     23     -10.1709      2.00000
     24     -10.1709      2.00000
     25     -10.1087      2.00000
     26     -10.1087      2.00000
     27     -10.1087      2.00000
     28     -10.0803      2.00000
     29     -10.0802      2.00000
     30     -10.0802      2.00000
     31      -8.5322      2.00000
     32      -8.5319      2.00000
     33      -8.5250      2.00000
     34      -8.2376      2.00000
     35      -8.2240      2.00000
     36      -8.2235      2.00000
     37      -7.4309      2.00000
     38      -7.4303      2.00000
     39      -7.4167      2.00000
     40      -6.8947      2.00000
     41      -6.8881      2.00000
     42      -6.8875      2.00000
     43      -2.2651      2.00000
     44      -2.2591      2.00000
     45      -2.2547      2.00000
     46      -1.6048      2.00000
     47      -1.5815      2.00000
     48      -1.5732      2.00000
     49      -1.4084      2.00000
     50      -1.3920      2.00000
     51      -1.3815      2.00000
     52      -1.3697      2.00000
     53      -1.3688      2.00000
     54      -1.3517      2.00000
     55      -1.2263      2.00000
     56      -1.2171      2.00000
     57      -1.2122      2.00000
     58      -1.1083      2.00000
     59      -1.1051      2.00000
     60      -1.1046      2.00000
     61      -1.0566      2.00000
     62      -1.0509      2.00000
     63      -1.0369      2.00000
     64      -0.3250      2.00000
     65      -0.2633      2.00000
     66      -0.2498      2.00000
     67       0.3755      2.00000
     68       0.4514      2.00000
     69       0.5002      2.00000
     70       0.6568      2.00000
     71       0.7702      2.00000
     72       0.8129      2.00000
     73       0.9119      2.00000
     74       0.9226      2.00000
     75       0.9269      2.00000
     76       1.3361      2.00000
     77       1.3526      2.00000
     78       1.3605      2.00000
     79       1.6163      2.00000
     80       1.6752      2.00000
     81       1.9474      2.00000
     82       2.2562      2.00000
     83       2.5293      2.00000
     84       2.5833      2.00000
     85       2.8213      2.00000
     86       2.8273      2.00000
     87       2.8433      2.00000
     88       3.2726      2.00000
     89       3.2891      2.00000
     90       3.3030      2.00000
     91       3.9242      2.00000
     92       3.9371      2.00000
     93       3.9487      2.00000
     94       5.8497      0.00000
     95       5.8939      0.00000
     96       5.9250      0.00000
     97       6.2377      0.00000
     98       6.2426      0.00000
     99       6.2728      0.00000
    100       7.4639      0.00000
    101       7.4785      0.00000
    102       7.5076      0.00000
    103       8.5205      0.00000
    104       8.5744      0.00000
    105       8.6940      0.00000
    106       9.0733      0.00000
    107       9.1819      0.00000
    108       9.2109      0.00000
    109       9.4552      0.00000
    110       9.4593      0.00000
    111       9.4921      0.00000
    112       9.8731      0.00000

 k-point    36 :       0.4167    0.0833    0.2500
  band No.  band energies     occupation 
      1     -11.2025      2.00000
      2     -11.2024      2.00000
      3     -11.2024      2.00000
      4     -10.8645      2.00000
      5     -10.8644      2.00000
      6     -10.8644      2.00000
      7     -10.7120      2.00000
      8     -10.7119      2.00000
      9     -10.7119      2.00000
     10     -10.6563      2.00000
     11     -10.6562      2.00000
     12     -10.6562      2.00000
     13     -10.6001      2.00000
     14     -10.6000      2.00000
     15     -10.5999      2.00000
     16     -10.5780      2.00000
     17     -10.5780      2.00000
     18     -10.5780      2.00000
     19     -10.2404      2.00000
     20     -10.2403      2.00000
     21     -10.2403      2.00000
     22     -10.1760      2.00000
     23     -10.1759      2.00000
     24     -10.1759      2.00000
     25     -10.0934      2.00000
     26     -10.0933      2.00000
     27     -10.0933      2.00000
     28     -10.0744      2.00000
     29     -10.0743      2.00000
     30     -10.0743      2.00000
     31      -8.2841      2.00000
     32      -8.2798      2.00000
     33      -8.2785      2.00000
     34      -8.0764      2.00000
     35      -8.0743      2.00000
     36      -8.0671      2.00000
     37      -7.3589      2.00000
     38      -7.3537      2.00000
     39      -7.3527      2.00000
     40      -6.8159      2.00000
     41      -6.8158      2.00000
     42      -6.8138      2.00000
     43      -2.5030      2.00000
     44      -2.4979      2.00000
     45      -2.4920      2.00000
     46      -1.8256      2.00000
     47      -1.8233      2.00000
     48      -1.8066      2.00000
     49      -1.3918      2.00000
     50      -1.3712      2.00000
     51      -1.3653      2.00000
     52      -1.3488      2.00000
     53      -1.3446      2.00000
     54      -1.3438      2.00000
     55      -1.2607      2.00000
     56      -1.2565      2.00000
     57      -1.2531      2.00000
     58      -1.0980      2.00000
     59      -1.0977      2.00000
     60      -1.0971      2.00000
     61      -0.9496      2.00000
     62      -0.9482      2.00000
     63      -0.9350      2.00000
     64      -0.4700      2.00000
     65      -0.4689      2.00000
     66      -0.4659      2.00000
     67      -0.0599      2.00000
     68       0.0538      2.00000
     69       0.1451      2.00000
     70       0.7299      2.00000
     71       0.7581      2.00000
     72       0.7661      2.00000
     73       0.7807      2.00000
     74       0.8119      2.00000
     75       0.8235      2.00000
     76       1.1761      2.00000
     77       1.2785      2.00000
     78       1.2830      2.00000
     79       1.4719      2.00000
     80       1.4750      2.00000
     81       1.8053      2.00000
     82       2.2355      2.00000
     83       2.4391      2.00000
     84       2.5487      2.00000
     85       2.7679      2.00000
     86       2.8082      2.00000
     87       2.8283      2.00000
     88       3.1635      2.00000
     89       3.1690      2.00000
     90       3.1730      2.00000
     91       3.8215      2.00000
     92       3.8782      2.00000
     93       3.9099      2.00000
     94       5.6654      0.00000
     95       5.7447      0.00000
     96       5.7937      0.00000
     97       6.1270      0.00000
     98       6.1525      0.00000
     99       6.2116      0.00000
    100       7.3916      0.00000
    101       7.3989      0.00000
    102       7.4253      0.00000
    103       8.4275      0.00000
    104       8.4791      0.00000
    105       8.5944      0.00000
    106       8.9710      0.00000
    107       9.0952      0.00000
    108       9.0968      0.00000
    109       9.4085      0.00000
    110       9.4196      0.00000
    111       9.4265      0.00000
    112       9.8334      0.00000

 k-point    37 :       0.5000    0.0833    0.2500
  band No.  band energies     occupation 
      1     -11.2025      2.00000
      2     -11.2024      2.00000
      3     -11.2024      2.00000
      4     -10.8645      2.00000
      5     -10.8644      2.00000
      6     -10.8644      2.00000
      7     -10.7120      2.00000
      8     -10.7119      2.00000
      9     -10.7119      2.00000
     10     -10.6563      2.00000
     11     -10.6562      2.00000
     12     -10.6562      2.00000
     13     -10.6000      2.00000
     14     -10.6000      2.00000
     15     -10.5999      2.00000
     16     -10.5780      2.00000
     17     -10.5780      2.00000
     18     -10.5780      2.00000
     19     -10.2404      2.00000
     20     -10.2403      2.00000
     21     -10.2403      2.00000
     22     -10.1760      2.00000
     23     -10.1759      2.00000
     24     -10.1759      2.00000
     25     -10.0934      2.00000
     26     -10.0933      2.00000
     27     -10.0933      2.00000
     28     -10.0744      2.00000
     29     -10.0743      2.00000
     30     -10.0743      2.00000
     31      -8.2831      2.00000
     32      -8.2818      2.00000
     33      -8.2775      2.00000
     34      -8.0782      2.00000
     35      -8.0708      2.00000
     36      -8.0688      2.00000
     37      -7.3575      2.00000
     38      -7.3565      2.00000
     39      -7.3513      2.00000
     40      -6.8166      2.00000
     41      -6.8146      2.00000
     42      -6.8144      2.00000
     43      -2.5033      2.00000
     44      -2.4974      2.00000
     45      -2.4922      2.00000
     46      -1.8304      2.00000
     47      -1.8135      2.00000
     48      -1.8116      2.00000
     49      -1.3864      2.00000
     50      -1.3809      2.00000
     51      -1.3622      2.00000
     52      -1.3487      2.00000
     53      -1.3474      2.00000
     54      -1.3394      2.00000
     55      -1.2618      2.00000
     56      -1.2566      2.00000
     57      -1.2523      2.00000
     58      -1.0982      2.00000
     59      -1.0974      2.00000
     60      -1.0972      2.00000
     61      -0.9531      2.00000
     62      -0.9407      2.00000
     63      -0.9389      2.00000
     64      -0.4733      2.00000
     65      -0.4658      2.00000
     66      -0.4656      2.00000
     67      -0.0489      2.00000
     68       0.0306      2.00000
     69       0.1576      2.00000
     70       0.7495      2.00000
     71       0.7583      2.00000
     72       0.7616      2.00000
     73       0.7805      2.00000
     74       0.7830      2.00000
     75       0.8385      2.00000
     76       1.1963      2.00000
     77       1.2259      2.00000
     78       1.3033      2.00000
     79       1.4012      2.00000
     80       1.6394      2.00000
     81       1.7040      2.00000
     82       2.2756      2.00000
     83       2.4116      2.00000
     84       2.5547      2.00000
     85       2.7711      2.00000
     86       2.8046      2.00000
     87       2.8284      2.00000
     88       3.1588      2.00000
     89       3.1712      2.00000
     90       3.1754      2.00000
     91       3.8289      2.00000
     92       3.8615      2.00000
     93       3.9193      2.00000
     94       5.6778      0.00000
     95       5.7201      0.00000
     96       5.8062      0.00000
     97       6.1122      0.00000
     98       6.1805      0.00000
     99       6.1980      0.00000
    100       7.3843      0.00000
    101       7.4136      0.00000
    102       7.4180      0.00000
    103       8.4184      0.00000
    104       8.4923      0.00000
    105       8.5902      0.00000
    106       8.9825      0.00000
    107       9.0677      0.00000
    108       9.1118      0.00000
    109       9.3744      0.00000
    110       9.4167      0.00000
    111       9.4651      0.00000
    112       9.8549      0.00000

 k-point    38 :      -0.4167    0.0833    0.2500
  band No.  band energies     occupation 
      1     -11.1747      2.00000
      2     -11.1747      2.00000
      3     -11.1746      2.00000
      4     -10.8576      2.00000
      5     -10.8575      2.00000
      6     -10.8575      2.00000
      7     -10.7172      2.00000
      8     -10.7171      2.00000
      9     -10.7171      2.00000
     10     -10.6500      2.00000
     11     -10.6499      2.00000
     12     -10.6499      2.00000
     13     -10.5861      2.00000
     14     -10.5861      2.00000
     15     -10.5861      2.00000
     16     -10.5745      2.00000
     17     -10.5744      2.00000
     18     -10.5743      2.00000
     19     -10.2421      2.00000
     20     -10.2421      2.00000
     21     -10.2421      2.00000
     22     -10.1710      2.00000
     23     -10.1709      2.00000
     24     -10.1709      2.00000
     25     -10.1087      2.00000
     26     -10.1087      2.00000
     27     -10.1087      2.00000
     28     -10.0803      2.00000
     29     -10.0802      2.00000
     30     -10.0802      2.00000
     31      -8.5343      2.00000
     32      -8.5275      2.00000
     33      -8.5273      2.00000
     34      -8.2332      2.00000
     35      -8.2327      2.00000
     36      -8.2191      2.00000
     37      -7.4352      2.00000
     38      -7.4217      2.00000
     39      -7.4210      2.00000
     40      -6.8926      2.00000
     41      -6.8921      2.00000
     42      -6.8856      2.00000
     43      -2.2645      2.00000
     44      -2.2602      2.00000
     45      -2.2542      2.00000
     46      -1.5997      2.00000
     47      -1.5940      2.00000
     48      -1.5651      2.00000
     49      -1.4122      2.00000
     50      -1.3901      2.00000
     51      -1.3806      2.00000
     52      -1.3713      2.00000
     53      -1.3610      2.00000
     54      -1.3577      2.00000
     55      -1.2234      2.00000
     56      -1.2189      2.00000
     57      -1.2130      2.00000
     58      -1.1078      2.00000
     59      -1.1062      2.00000
     60      -1.1040      2.00000
     61      -1.0592      2.00000
     62      -1.0451      2.00000
     63      -1.0401      2.00000
     64      -0.3100      2.00000
     65      -0.2943      2.00000
     66      -0.2336      2.00000
     67       0.3844      2.00000
     68       0.4215      2.00000
     69       0.5357      2.00000
     70       0.6459      2.00000
     71       0.7417      2.00000
     72       0.8375      2.00000
     73       0.9172      2.00000
     74       0.9208      2.00000
     75       0.9254      2.00000
     76       1.3373      2.00000
     77       1.3564      2.00000
     78       1.3587      2.00000
     79       1.5682      2.00000
     80       1.7699      2.00000
     81       1.8675      2.00000
     82       2.3807      2.00000
     83       2.3857      2.00000
     84       2.6338      2.00000
     85       2.8274      2.00000
     86       2.8298      2.00000
     87       2.8312      2.00000
     88       3.2702      2.00000
     89       3.2924      2.00000
     90       3.3031      2.00000
     91       3.9302      2.00000
     92       3.9334      2.00000
     93       3.9461      2.00000
     94       5.8596      0.00000
     95       5.8757      0.00000
     96       5.9343      0.00000
     97       6.2233      0.00000
     98       6.2562      0.00000
     99       6.2725      0.00000
    100       7.4584      0.00000
    101       7.4881      0.00000
    102       7.5036      0.00000
    103       8.5066      0.00000
    104       8.5958      0.00000
    105       8.6879      0.00000
    106       9.0774      0.00000
    107       9.1618      0.00000
    108       9.2250      0.00000
    109       9.4334      0.00000
    110       9.4733      0.00000
    111       9.4977      0.00000
    112       9.9407      0.00000

 k-point    39 :      -0.3333    0.0833    0.2500
  band No.  band energies     occupation 
      1     -11.1242      2.00000
      2     -11.1242      2.00000
      3     -11.1242      2.00000
      4     -10.8504      2.00000
      5     -10.8503      2.00000
      6     -10.8503      2.00000
      7     -10.7286      2.00000
      8     -10.7285      2.00000
      9     -10.7285      2.00000
     10     -10.6411      2.00000
     11     -10.6411      2.00000
     12     -10.6410      2.00000
     13     -10.5946      2.00000
     14     -10.5946      2.00000
     15     -10.5945      2.00000
     16     -10.5199      2.00000
     17     -10.5198      2.00000
     18     -10.5198      2.00000
     19     -10.2470      2.00000
     20     -10.2469      2.00000
     21     -10.2469      2.00000
     22     -10.1639      2.00000
     23     -10.1639      2.00000
     24     -10.1639      2.00000
     25     -10.1297      2.00000
     26     -10.1297      2.00000
     27     -10.1297      2.00000
     28     -10.0938      2.00000
     29     -10.0938      2.00000
     30     -10.0937      2.00000
     31      -8.8777      2.00000
     32      -8.8710      2.00000
     33      -8.8682      2.00000
     34      -8.5023      2.00000
     35      -8.4959      2.00000
     36      -8.4809      2.00000
     37      -7.5972      2.00000
     38      -7.5773      2.00000
     39      -7.5678      2.00000
     40      -7.0293      2.00000
     41      -7.0233      2.00000
     42      -7.0112      2.00000
     43      -2.0372      2.00000
     44      -2.0120      2.00000
     45      -1.9927      2.00000
     46      -1.5076      2.00000
     47      -1.5048      2.00000
     48      -1.4905      2.00000
     49      -1.4161      2.00000
     50      -1.4159      2.00000
     51      -1.4157      2.00000
     52      -1.3158      2.00000
     53      -1.2943      2.00000
     54      -1.2660      2.00000
     55      -1.1921      2.00000
     56      -1.1852      2.00000
     57      -1.1489      2.00000
     58      -1.1095      2.00000
     59      -1.1094      2.00000
     60      -1.1087      2.00000
     61      -0.8167      2.00000
     62      -0.8092      2.00000
     63      -0.8014      2.00000
     64      -0.0067      2.00000
     65       0.0185      2.00000
     66       0.1069      2.00000
     67       0.6497      2.00000
     68       0.7905      2.00000
     69       0.7963      2.00000
     70       1.0673      2.00000
     71       1.0863      2.00000
     72       1.0932      2.00000
     73       1.1984      2.00000
     74       1.2306      2.00000
     75       1.2314      2.00000
     76       1.4031      2.00000
     77       1.5124      2.00000
     78       1.6020      2.00000
     79       1.9365      2.00000
     80       2.0215      2.00000
     81       2.0394      2.00000
     82       2.4655      2.00000
     83       2.6075      2.00000
     84       2.7763      2.00000
     85       2.8427      2.00000
     86       2.8954      2.00000
     87       2.9197      2.00000
     88       3.5116      2.00000
     89       3.5266      2.00000
     90       3.5446      2.00000
     91       3.9632      2.00000
     92       4.0286      2.00000
     93       4.0345      2.00000
     94       6.0838      0.00000
     95       6.0911      0.00000
     96       6.1549      0.00000
     97       6.3541      0.00000
     98       6.4066      0.00000
     99       6.4090      0.00000
    100       7.6480      0.00000
    101       7.6599      0.00000
    102       7.6871      0.00000
    103       8.6092      0.00000
    104       8.6829      0.00000
    105       8.7206      0.00000
    106       9.2028      0.00000
    107       9.2364      0.00000
    108       9.2466      0.00000
    109       9.4610      0.00000
    110       9.4960      0.00000
    111       9.5016      0.00000
    112       9.8679      0.00000

 k-point    40 :      -0.2500    0.0833    0.2500
  band No.  band energies     occupation 
      1     -11.0634      2.00000
      2     -11.0633      2.00000
      3     -11.0633      2.00000
      4     -10.8426      2.00000
      5     -10.8426      2.00000
      6     -10.8426      2.00000
      7     -10.7457      2.00000
      8     -10.7457      2.00000
      9     -10.7456      2.00000
     10     -10.6309      2.00000
     11     -10.6308      2.00000
     12     -10.6308      2.00000
     13     -10.6012      2.00000
     14     -10.6011      2.00000
     15     -10.6011      2.00000
     16     -10.4398      2.00000
     17     -10.4398      2.00000
     18     -10.4397      2.00000
     19     -10.2544      2.00000
     20     -10.2543      2.00000
     21     -10.2543      2.00000
     22     -10.1708      2.00000
     23     -10.1707      2.00000
     24     -10.1707      2.00000
     25     -10.1405      2.00000
     26     -10.1404      2.00000
     27     -10.1404      2.00000
     28     -10.1082      2.00000
     29     -10.1081      2.00000
     30     -10.1081      2.00000
     31      -9.2131      2.00000
     32      -9.2072      2.00000
     33      -9.2028      2.00000
     34      -8.7759      2.00000
     35      -8.7648      2.00000
     36      -8.7505      2.00000
     37      -7.8059      2.00000
     38      -7.7840      2.00000
     39      -7.7654      2.00000
     40      -7.1853      2.00000
     41      -7.1724      2.00000
     42      -7.1579      2.00000
     43      -1.9783      2.00000
     44      -1.9471      2.00000
     45      -1.9140      2.00000
     46      -1.5418      2.00000
     47      -1.5396      2.00000
     48      -1.5361      2.00000
     49      -1.4711      2.00000
     50      -1.4710      2.00000
     51      -1.4709      2.00000
     52      -1.2890      2.00000
     53      -1.2272      2.00000
     54      -1.1928      2.00000
     55      -1.1651      2.00000
     56      -1.1475      2.00000
     57      -1.1166      2.00000
     58      -1.1164      2.00000
     59      -1.1163      2.00000
     60      -1.0811      2.00000
     61      -0.3482      2.00000
     62      -0.2843      2.00000
     63      -0.2711      2.00000
     64       0.5166      2.00000
     65       0.5313      2.00000
     66       0.5733      2.00000
     67       0.9967      2.00000
     68       1.1159      2.00000
     69       1.1921      2.00000
     70       1.4121      2.00000
     71       1.4436      2.00000
     72       1.4633      2.00000
     73       1.5856      2.00000
     74       1.6174      2.00000
     75       1.6815      2.00000
     76       1.7432      2.00000
     77       1.7625      2.00000
     78       1.8113      2.00000
     79       2.3517      2.00000
     80       2.4101      2.00000
     81       2.4197      2.00000
     82       2.7787      2.00000
     83       2.8522      2.00000
     84       2.8532      2.00000
     85       3.0109      2.00000
     86       3.0536      2.00000
     87       3.1175      2.00000
     88       3.8390      2.00000
     89       3.8431      2.00000
     90       3.8651      2.00000
     91       3.9985      2.00000
     92       3.9993      2.00000
     93       4.0923      2.00000
     94       6.0605      0.00000
     95       6.0634      0.00000
     96       6.0713      0.00000
     97       6.6365      0.00000
     98       6.6370      0.00000
     99       6.6583      0.00000
    100       7.8933      0.00000
    101       7.9088      0.00000
    102       7.9109      0.00000
    103       8.5177      0.00000
    104       8.5411      0.00000
    105       8.5755      0.00000
    106       8.9691      0.00000
    107       9.0019      0.00000
    108       9.0069      0.00000
    109       9.1425      0.00000
    110       9.1551      0.00000
    111       9.2053      0.00000
    112       9.5255      0.00000

 k-point    41 :       0.1667    0.1667    0.2500
  band No.  band energies     occupation 
      1     -11.1133      2.00000
      2     -11.1132      2.00000
      3     -11.1132      2.00000
      4     -10.8488      2.00000
      5     -10.8488      2.00000
      6     -10.8487      2.00000
      7     -10.7330      2.00000
      8     -10.7329      2.00000
      9     -10.7329      2.00000
     10     -10.6369      2.00000
     11     -10.6369      2.00000
     12     -10.6368      2.00000
     13     -10.5988      2.00000
     14     -10.5987      2.00000
     15     -10.5987      2.00000
     16     -10.4955      2.00000
     17     -10.4954      2.00000
     18     -10.4954      2.00000
     19     -10.2733      2.00000
     20     -10.2732      2.00000
     21     -10.2732      2.00000
     22     -10.1476      2.00000
     23     -10.1475      2.00000
     24     -10.1475      2.00000
     25     -10.1467      2.00000
     26     -10.1467      2.00000
     27     -10.1467      2.00000
     28     -10.0949      2.00000
     29     -10.0948      2.00000
     30     -10.0948      2.00000
     31      -8.9201      2.00000
     32      -8.9153      2.00000
     33      -8.9103      2.00000
     34      -8.5372      2.00000
     35      -8.5258      2.00000
     36      -8.5145      2.00000
     37      -7.6275      2.00000
     38      -7.6117      2.00000
     39      -7.5956      2.00000
     40      -7.0520      2.00000
     41      -7.0418      2.00000
     42      -7.0322      2.00000
     43      -2.0010      2.00000
     44      -1.9763      2.00000
     45      -1.9490      2.00000
     46      -1.5109      2.00000
     47      -1.5058      2.00000
     48      -1.4974      2.00000
     49      -1.4225      2.00000
     50      -1.4221      2.00000
     51      -1.4220      2.00000
     52      -1.3030      2.00000
     53      -1.2661      2.00000
     54      -1.2467      2.00000
     55      -1.1892      2.00000
     56      -1.1666      2.00000
     57      -1.1324      2.00000
     58      -1.1110      2.00000
     59      -1.1105      2.00000
     60      -1.1082      2.00000
     61      -0.7195      2.00000
     62      -0.7145      2.00000
     63      -0.7102      2.00000
     64       0.2243      2.00000
     65       0.2355      2.00000
     66       0.2473      2.00000
     67       0.6493      2.00000
     68       0.6513      2.00000
     69       0.6566      2.00000
     70       1.0491      2.00000
     71       1.0637      2.00000
     72       1.0892      2.00000
     73       1.1879      2.00000
     74       1.1924      2.00000
     75       1.2032      2.00000
     76       1.3321      2.00000
     77       1.4957      2.00000
     78       1.6681      2.00000
     79       2.2397      2.00000
     80       2.3038      2.00000
     81       2.3462      2.00000
     82       2.4372      2.00000
     83       2.4448      2.00000
     84       2.4489      2.00000
     85       2.8111      2.00000
     86       2.8601      2.00000
     87       2.9174      2.00000
     88       3.3689      2.00000
     89       3.3953      2.00000
     90       3.4197      2.00000
     91       4.0390      2.00000
     92       4.0464      2.00000
     93       4.0554      2.00000
     94       6.2056      0.00000
     95       6.2528      0.00000
     96       6.3031      0.00000
     97       6.6327      0.00000
     98       6.6618      0.00000
     99       6.6872      0.00000
    100       7.8949      0.00000
    101       7.9007      0.00000
    102       7.9058      0.00000
    103       8.9175      0.00000
    104       8.9273      0.00000
    105       8.9417      0.00000
    106       9.1218      0.00000
    107       9.1222      0.00000
    108       9.1264      0.00000
    109       9.3352      0.00000
    110       9.3758      0.00000
    111       9.4260      0.00000
    112       9.7140      0.00000

 k-point    42 :       0.2500    0.1667    0.2500
  band No.  band energies     occupation 
      1     -11.1607      2.00000
      2     -11.1606      2.00000
      3     -11.1606      2.00000
      4     -10.8517      2.00000
      5     -10.8516      2.00000
      6     -10.8516      2.00000
      7     -10.7242      2.00000
      8     -10.7241      2.00000
      9     -10.7241      2.00000
     10     -10.6412      2.00000
     11     -10.6411      2.00000
     12     -10.6411      2.00000
     13     -10.5948      2.00000
     14     -10.5948      2.00000
     15     -10.5948      2.00000
     16     -10.5438      2.00000
     17     -10.5437      2.00000
     18     -10.5436      2.00000
     19     -10.2875      2.00000
     20     -10.2874      2.00000
     21     -10.2874      2.00000
     22     -10.1542      2.00000
     23     -10.1541      2.00000
     24     -10.1541      2.00000
     25     -10.1283      2.00000
     26     -10.1283      2.00000
     27     -10.1282      2.00000
     28     -10.0828      2.00000
     29     -10.0828      2.00000
     30     -10.0828      2.00000
     31      -8.5799      2.00000
     32      -8.5773      2.00000
     33      -8.5716      2.00000
     34      -8.2647      2.00000
     35      -8.2531      2.00000
     36      -8.2474      2.00000
     37      -7.4715      2.00000
     38      -7.4654      2.00000
     39      -7.4530      2.00000
     40      -6.9167      2.00000
     41      -6.9104      2.00000
     42      -6.9074      2.00000
     43      -2.1344      2.00000
     44      -2.1248      2.00000
     45      -2.1134      2.00000
     46      -1.5190      2.00000
     47      -1.4989      2.00000
     48      -1.4935      2.00000
     49      -1.4019      2.00000
     50      -1.3833      2.00000
     51      -1.3820      2.00000
     52      -1.3718      2.00000
     53      -1.3581      2.00000
     54      -1.3512      2.00000
     55      -1.2050      2.00000
     56      -1.1833      2.00000
     57      -1.1801      2.00000
     58      -1.1025      2.00000
     59      -1.1013      2.00000
     60      -1.1006      2.00000
     61      -1.0358      2.00000
     62      -1.0334      2.00000
     63      -1.0333      2.00000
     64      -0.1000      2.00000
     65      -0.0469      2.00000
     66      -0.0415      2.00000
     67       0.3551      2.00000
     68       0.3639      2.00000
     69       0.3928      2.00000
     70       0.6182      2.00000
     71       0.6208      2.00000
     72       0.6752      2.00000
     73       0.7865      2.00000
     74       0.8391      2.00000
     75       0.8649      2.00000
     76       1.2412      2.00000
     77       1.3022      2.00000
     78       1.4433      2.00000
     79       1.8303      2.00000
     80       1.8704      2.00000
     81       2.0272      2.00000
     82       2.1957      2.00000
     83       2.3041      2.00000
     84       2.4024      2.00000
     85       2.7086      2.00000
     86       2.7669      2.00000
     87       2.7741      2.00000
     88       2.9979      2.00000
     89       2.9995      2.00000
     90       3.0675      2.00000
     91       3.9923      2.00000
     92       4.0034      2.00000
     93       4.0051      2.00000
     94       6.2653      0.00000
     95       6.2861      0.00000
     96       6.2901      0.00000
     97       6.5603      0.00000
     98       6.5817      0.00000
     99       6.5881      0.00000
    100       7.7842      0.00000
    101       7.8076      0.00000
    102       7.8186      0.00000
    103       8.9438      0.00000
    104       8.9947      0.00000
    105       9.0037      0.00000
    106       9.2245      0.00000
    107       9.2251      0.00000
    108       9.2823      0.00000
    109       9.5925      0.00000
    110       9.7440      0.00000
    111       9.7499      0.00000
    112       9.9423      0.00000

 k-point    43 :       0.3333    0.1667    0.2500
  band No.  band energies     occupation 
      1     -11.1935      2.00000
      2     -11.1934      2.00000
      3     -11.1934      2.00000
      4     -10.8545      2.00000
      5     -10.8544      2.00000
      6     -10.8544      2.00000
      7     -10.7197      2.00000
      8     -10.7197      2.00000
      9     -10.7196      2.00000
     10     -10.6442      2.00000
     11     -10.6441      2.00000
     12     -10.6441      2.00000
     13     -10.5906      2.00000
     14     -10.5906      2.00000
     15     -10.5906      2.00000
     16     -10.5744      2.00000
     17     -10.5744      2.00000
     18     -10.5743      2.00000
     19     -10.2957      2.00000
     20     -10.2957      2.00000
     21     -10.2956      2.00000
     22     -10.1599      2.00000
     23     -10.1599      2.00000
     24     -10.1598      2.00000
     25     -10.1084      2.00000
     26     -10.1083      2.00000
     27     -10.1083      2.00000
     28     -10.0809      2.00000
     29     -10.0808      2.00000
     30     -10.0808      2.00000
     31      -8.2678      2.00000
     32      -8.2669      2.00000
     33      -8.2619      2.00000
     34      -8.0475      2.00000
     35      -8.0390      2.00000
     36      -8.0372      2.00000
     37      -7.3901      2.00000
     38      -7.3885      2.00000
     39      -7.3831      2.00000
     40      -6.8180      2.00000
     41      -6.8165      2.00000
     42      -6.8157      2.00000
     43      -2.3468      2.00000
     44      -2.3442      2.00000
     45      -2.3404      2.00000
     46      -1.7472      2.00000
     47      -1.7410      2.00000
     48      -1.7269      2.00000
     49      -1.3777      2.00000
     50      -1.3714      2.00000
     51      -1.3699      2.00000
     52      -1.3480      2.00000
     53      -1.3471      2.00000
     54      -1.3368      2.00000
     55      -1.2254      2.00000
     56      -1.2235      2.00000
     57      -1.2188      2.00000
     58      -1.1250      2.00000
     59      -1.1236      2.00000
     60      -1.1215      2.00000
     61      -0.9786      2.00000
     62      -0.9777      2.00000
     63      -0.9661      2.00000
     64      -0.3317      2.00000
     65      -0.3105      2.00000
     66      -0.3084      2.00000
     67       0.0857      2.00000
     68       0.1418      2.00000
     69       0.1904      2.00000
     70       0.3342      2.00000
     71       0.3482      2.00000
     72       0.3585      2.00000
     73       0.6068      2.00000
     74       0.6380      2.00000
     75       0.6935      2.00000
     76       1.1630      2.00000
     77       1.1982      2.00000
     78       1.3095      2.00000
     79       1.5170      2.00000
     80       1.5977      2.00000
     81       1.7946      2.00000
     82       2.1013      2.00000
     83       2.1537      2.00000
     84       2.2538      2.00000
     85       2.6410      2.00000
     86       2.6823      2.00000
     87       2.7085      2.00000
     88       2.7697      2.00000
     89       2.8899      2.00000
     90       2.9071      2.00000
     91       3.9061      2.00000
     92       3.9319      2.00000
     93       3.9479      2.00000
     94       6.1238      0.00000
     95       6.2043      0.00000
     96       6.2077      0.00000
     97       6.4946      0.00000
     98       6.4987      0.00000
     99       6.5550      0.00000
    100       7.6618      0.00000
    101       7.6978      0.00000
    102       7.7271      0.00000
    103       8.8498      0.00000
    104       8.8728      0.00000
    105       8.9622      0.00000
    106       9.2003      0.00000
    107       9.2135      0.00000
    108       9.2443      0.00000
    109       9.5804      0.00000
    110       9.7822      0.00000
    111       9.7952      0.00000
    112       9.9774      0.00000

 k-point    44 :       0.4167    0.1667    0.2500
  band No.  band energies     occupation 
      1     -11.2051      2.00000
      2     -11.2050      2.00000
      3     -11.2050      2.00000
      4     -10.8560      2.00000
      5     -10.8560      2.00000
      6     -10.8559      2.00000
      7     -10.7184      2.00000
      8     -10.7183      2.00000
      9     -10.7183      2.00000
     10     -10.6456      2.00000
     11     -10.6455      2.00000
     12     -10.6455      2.00000
     13     -10.5886      2.00000
     14     -10.5885      2.00000
     15     -10.5885      2.00000
     16     -10.5845      2.00000
     17     -10.5845      2.00000
     18     -10.5844      2.00000
     19     -10.2984      2.00000
     20     -10.2984      2.00000
     21     -10.2984      2.00000
     22     -10.1621      2.00000
     23     -10.1620      2.00000
     24     -10.1620      2.00000
     25     -10.0934      2.00000
     26     -10.0934      2.00000
     27     -10.0934      2.00000
     28     -10.0878      2.00000
     29     -10.0877      2.00000
     30     -10.0877      2.00000
     31      -8.1196      2.00000
     32      -8.1171      2.00000
     33      -8.1146      2.00000
     34      -7.9758      2.00000
     35      -7.9719      2.00000
     36      -7.9682      2.00000
     37      -7.3747      2.00000
     38      -7.3730      2.00000
     39      -7.3712      2.00000
     40      -6.7828      2.00000
     41      -6.7825      2.00000
     42      -6.7821      2.00000
     43      -2.4564      2.00000
     44      -2.4494      2.00000
     45      -2.4422      2.00000
     46      -1.8669      2.00000
     47      -1.8566      2.00000
     48      -1.8465      2.00000
     49      -1.3696      2.00000
     50      -1.3651      2.00000
     51      -1.3617      2.00000
     52      -1.3415      2.00000
     53      -1.3381      2.00000
     54      -1.3330      2.00000
     55      -1.2372      2.00000
     56      -1.2367      2.00000
     57      -1.2365      2.00000
     58      -1.1134      2.00000
     59      -1.1129      2.00000
     60      -1.1125      2.00000
     61      -0.8745      2.00000
     62      -0.8668      2.00000
     63      -0.8590      2.00000
     64      -0.4474      2.00000
     65      -0.4409      2.00000
     66      -0.4284      2.00000
     67      -0.1191      2.00000
     68      -0.0410      2.00000
     69       0.0360      2.00000
     70       0.2669      2.00000
     71       0.2815      2.00000
     72       0.2966      2.00000
     73       0.6117      2.00000
     74       0.6175      2.00000
     75       0.6284      2.00000
     76       1.0895      2.00000
     77       1.1679      2.00000
     78       1.2410      2.00000
     79       1.4777      2.00000
     80       1.5705      2.00000
     81       1.6644      2.00000
     82       2.0491      2.00000
     83       2.0954      2.00000
     84       2.1627      2.00000
     85       2.6008      2.00000
     86       2.6500      2.00000
     87       2.6837      2.00000
     88       2.7247      2.00000
     89       2.8306      2.00000
     90       2.9245      2.00000
     91       3.8510      2.00000
     92       3.8928      2.00000
     93       3.9368      2.00000
     94       6.0580      0.00000
     95       6.1179      0.00000
     96       6.1779      0.00000
     97       6.4651      0.00000
     98       6.5021      0.00000
     99       6.5376      0.00000
    100       7.6140      0.00000
    101       7.6530      0.00000
    102       7.6915      0.00000
    103       8.8194      0.00000
    104       8.8410      0.00000
    105       8.8927      0.00000
    106       9.1872      0.00000
    107       9.1946      0.00000
    108       9.2172      0.00000
    109       9.5869      0.00000
    110       9.6493      0.00000
    111       9.8293      0.00000
    112       9.8911      0.00000

 k-point    45 :       0.5000    0.1667    0.2500
  band No.  band energies     occupation 
      1     -11.1935      2.00000
      2     -11.1934      2.00000
      3     -11.1934      2.00000
      4     -10.8545      2.00000
      5     -10.8544      2.00000
      6     -10.8544      2.00000
      7     -10.7197      2.00000
      8     -10.7197      2.00000
      9     -10.7196      2.00000
     10     -10.6442      2.00000
     11     -10.6441      2.00000
     12     -10.6441      2.00000
     13     -10.5906      2.00000
     14     -10.5906      2.00000
     15     -10.5906      2.00000
     16     -10.5744      2.00000
     17     -10.5744      2.00000
     18     -10.5743      2.00000
     19     -10.2957      2.00000
     20     -10.2957      2.00000
     21     -10.2956      2.00000
     22     -10.1599      2.00000
     23     -10.1599      2.00000
     24     -10.1598      2.00000
     25     -10.1084      2.00000
     26     -10.1083      2.00000
     27     -10.1083      2.00000
     28     -10.0809      2.00000
     29     -10.0808      2.00000
     30     -10.0808      2.00000
     31      -8.2691      2.00000
     32      -8.2643      2.00000
     33      -8.2633      2.00000
     34      -8.0453      2.00000
     35      -8.0434      2.00000
     36      -8.0350      2.00000
     37      -7.3914      2.00000
     38      -7.3859      2.00000
     39      -7.3843      2.00000
     40      -6.8177      2.00000
     41      -6.8170      2.00000
     42      -6.8155      2.00000
     43      -2.3472      2.00000
     44      -2.3435      2.00000
     45      -2.3408      2.00000
     46      -1.7498      2.00000
     47      -1.7361      2.00000
     48      -1.7292      2.00000
     49      -1.3752      2.00000
     50      -1.3748      2.00000
     51      -1.3692      2.00000
     52      -1.3511      2.00000
     53      -1.3414      2.00000
     54      -1.3392      2.00000
     55      -1.2259      2.00000
     56      -1.2215      2.00000
     57      -1.2204      2.00000
     58      -1.1255      2.00000
     59      -1.1228      2.00000
     60      -1.1218      2.00000
     61      -0.9819      2.00000
     62      -0.9706      2.00000
     63      -0.9700      2.00000
     64      -0.3243      2.00000
     65      -0.3238      2.00000
     66      -0.3024      2.00000
     67       0.0905      2.00000
     68       0.1305      2.00000
     69       0.1975      2.00000
     70       0.3396      2.00000
     71       0.3432      2.00000
     72       0.3572      2.00000
     73       0.5986      2.00000
     74       0.6564      2.00000
     75       0.6837      2.00000
     76       1.1492      2.00000
     77       1.2508      2.00000
     78       1.2657      2.00000
     79       1.4820      2.00000
     80       1.6945      2.00000
     81       1.7365      2.00000
     82       2.0830      2.00000
     83       2.1798      2.00000
     84       2.2448      2.00000
     85       2.6306      2.00000
     86       2.7070      2.00000
     87       2.7127      2.00000
     88       2.7993      2.00000
     89       2.8086      2.00000
     90       2.9428      2.00000
     91       3.9086      2.00000
     92       3.9263      2.00000
     93       3.9510      2.00000
     94       6.1506      0.00000
     95       6.1518      0.00000
     96       6.2335      0.00000
     97       6.4756      0.00000
     98       6.5337      0.00000
     99       6.5387      0.00000
    100       7.6633      0.00000
    101       7.6936      0.00000
    102       7.7297      0.00000
    103       8.8437      0.00000
    104       8.9124      0.00000
    105       8.9199      0.00000
    106       9.2187      0.00000
    107       9.2240      0.00000
    108       9.2255      0.00000
    109       9.6181      0.00000
    110       9.6693      0.00000
    111       9.9023      0.00000
    112       9.9881      0.00000

 k-point    46 :      -0.4167    0.1667    0.2500
  band No.  band energies     occupation 
      1     -11.1607      2.00000
      2     -11.1606      2.00000
      3     -11.1606      2.00000
      4     -10.8517      2.00000
      5     -10.8516      2.00000
      6     -10.8516      2.00000
      7     -10.7242      2.00000
      8     -10.7241      2.00000
      9     -10.7241      2.00000
     10     -10.6412      2.00000
     11     -10.6411      2.00000
     12     -10.6411      2.00000
     13     -10.5948      2.00000
     14     -10.5948      2.00000
     15     -10.5948      2.00000
     16     -10.5438      2.00000
     17     -10.5437      2.00000
     18     -10.5437      2.00000
     19     -10.2875      2.00000
     20     -10.2874      2.00000
     21     -10.2874      2.00000
     22     -10.1542      2.00000
     23     -10.1541      2.00000
     24     -10.1541      2.00000
     25     -10.1283      2.00000
     26     -10.1283      2.00000
     27     -10.1282      2.00000
     28     -10.0828      2.00000
     29     -10.0828      2.00000
     30     -10.0828      2.00000
     31      -8.5808      2.00000
     32      -8.5754      2.00000
     33      -8.5726      2.00000
     34      -8.2627      2.00000
     35      -8.2570      2.00000
     36      -8.2455      2.00000
     37      -7.4736      2.00000
     38      -7.4613      2.00000
     39      -7.4551      2.00000
     40      -6.9156      2.00000
     41      -6.9125      2.00000
     42      -6.9064      2.00000
     43      -2.1349      2.00000
     44      -2.1237      2.00000
     45      -2.1140      2.00000
     46      -1.5139      2.00000
     47      -1.5113      2.00000
     48      -1.4851      2.00000
     49      -1.4015      2.00000
     50      -1.3912      2.00000
     51      -1.3784      2.00000
     52      -1.3664      2.00000
     53      -1.3610      2.00000
     54      -1.3511      2.00000
     55      -1.1999      2.00000
     56      -1.1948      2.00000
     57      -1.1738      2.00000
     58      -1.1022      2.00000
     59      -1.1019      2.00000
     60      -1.1002      2.00000
     61      -1.0354      2.00000
     62      -1.0344      2.00000
     63      -1.0328      2.00000
     64      -0.0864      2.00000
     65      -0.0789      2.00000
     66      -0.0222      2.00000
     67       0.3450      2.00000
     68       0.3823      2.00000
     69       0.3838      2.00000
     70       0.6073      2.00000
     71       0.6506      2.00000
     72       0.6533      2.00000
     73       0.7915      2.00000
     74       0.8116      2.00000
     75       0.8970      2.00000
     76       1.2061      2.00000
     77       1.3653      2.00000
     78       1.4052      2.00000
     79       1.8019      2.00000
     80       1.9518      2.00000
     81       1.9680      2.00000
     82       2.2157      2.00000
     83       2.2942      2.00000
     84       2.4003      2.00000
     85       2.7154      2.00000
     86       2.7477      2.00000
     87       2.7919      2.00000
     88       2.9640      2.00000
     89       3.0408      2.00000
     90       3.0563      2.00000
     91       3.9936      2.00000
     92       3.9991      2.00000
     93       4.0080      2.00000
     94       6.2738      0.00000
     95       6.2760      0.00000
     96       6.2914      0.00000
     97       6.5621      0.00000
     98       6.5756      0.00000
     99       6.5926      0.00000
    100       7.7873      0.00000
    101       7.7996      0.00000
    102       7.8234      0.00000
    103       8.9601      0.00000
    104       8.9706      0.00000
    105       9.0110      0.00000
    106       9.2160      0.00000
    107       9.2448      0.00000
    108       9.2665      0.00000
    109       9.6408      0.00000
    110       9.6599      0.00000
    111       9.7989      0.00000
    112       9.9296      0.00000

 k-point    47 :       0.2500    0.2500    0.2500
  band No.  band energies     occupation 
      1     -11.1888      2.00000
      2     -11.1888      2.00000
      3     -11.1888      2.00000
      4     -10.8498      2.00000
      5     -10.8498      2.00000
      6     -10.8497      2.00000
      7     -10.7236      2.00000
      8     -10.7235      2.00000
      9     -10.7235      2.00000
     10     -10.6370      2.00000
     11     -10.6370      2.00000
     12     -10.6369      2.00000
     13     -10.5976      2.00000
     14     -10.5975      2.00000
     15     -10.5975      2.00000
     16     -10.5560      2.00000
     17     -10.5559      2.00000
     18     -10.5559      2.00000
     19     -10.3297      2.00000
     20     -10.3296      2.00000
     21     -10.3296      2.00000
     22     -10.1444      2.00000
     23     -10.1444      2.00000
     24     -10.1443      2.00000
     25     -10.1247      2.00000
     26     -10.1247      2.00000
     27     -10.1246      2.00000
     28     -10.0821      2.00000
     29     -10.0821      2.00000
     30     -10.0820      2.00000
     31      -8.2632      2.00000
     32      -8.2601      2.00000
     33      -8.2570      2.00000
     34      -8.0277      2.00000
     35      -8.0220      2.00000
     36      -8.0164      2.00000
     37      -7.4087      2.00000
     38      -7.4049      2.00000
     39      -7.4010      2.00000
     40      -6.8186      2.00000
     41      -6.8175      2.00000
     42      -6.8164      2.00000
     43      -2.2539      2.00000
     44      -2.2536      2.00000
     45      -2.2532      2.00000
     46      -1.7068      2.00000
     47      -1.6977      2.00000
     48      -1.6883      2.00000
     49      -1.3734      2.00000
     50      -1.3717      2.00000
     51      -1.3699      2.00000
     52      -1.3464      2.00000
     53      -1.3450      2.00000
     54      -1.3435      2.00000
     55      -1.2034      2.00000
     56      -1.1931      2.00000
     57      -1.1834      2.00000
     58      -1.1482      2.00000
     59      -1.1456      2.00000
     60      -1.1431      2.00000
     61      -0.9853      2.00000
     62      -0.9847      2.00000
     63      -0.9840      2.00000
     64      -0.1240      2.00000
     65      -0.1068      2.00000
     66      -0.0956      2.00000
     67      -0.0572      2.00000
     68      -0.0558      2.00000
     69      -0.0531      2.00000
     70       0.1750      2.00000
     71       0.1870      2.00000
     72       0.2047      2.00000
     73       0.6478      2.00000
     74       0.6524      2.00000
     75       0.6546      2.00000
     76       1.2084      2.00000
     77       1.2558      2.00000
     78       1.3026      2.00000
     79       1.5894      2.00000
     80       1.6080      2.00000
     81       1.6115      2.00000
     82       1.9734      2.00000
     83       2.0811      2.00000
     84       2.1195      2.00000
     85       2.4872      2.00000
     86       2.5075      2.00000
     87       2.5282      2.00000
     88       2.7985      2.00000
     89       2.8226      2.00000
     90       2.8251      2.00000
     91       3.9444      2.00000
     92       3.9510      2.00000
     93       3.9588      2.00000
     94       6.3981      0.00000
     95       6.4387      0.00000
     96       6.4766      0.00000
     97       6.6562      0.00000
     98       6.6641      0.00000
     99       6.6774      0.00000
    100       7.7187      0.00000
    101       7.7249      0.00000
    102       7.7285      0.00000
    103       9.1421      0.00000
    104       9.1671      0.00000
    105       9.1753      0.00000
    106       9.4388      0.00000
    107       9.4465      0.00000
    108       9.4844      0.00000
    109       9.6734      0.00000
    110       9.7899      0.00000
    111       9.9345      0.00000
    112      10.3564      0.00000

 k-point    48 :       0.3333    0.2500    0.2500
  band No.  band energies     occupation 
      1     -11.2040      2.00000
      2     -11.2039      2.00000
      3     -11.2039      2.00000
      4     -10.8475      2.00000
      5     -10.8475      2.00000
      6     -10.8474      2.00000
      7     -10.7241      2.00000
      8     -10.7241      2.00000
      9     -10.7240      2.00000
     10     -10.6321      2.00000
     11     -10.6321      2.00000
     12     -10.6321      2.00000
     13     -10.6012      2.00000
     14     -10.6011      2.00000
     15     -10.6011      2.00000
     16     -10.5604      2.00000
     17     -10.5604      2.00000
     18     -10.5604      2.00000
     19     -10.3564      2.00000
     20     -10.3564      2.00000
     21     -10.3563      2.00000
     22     -10.1417      2.00000
     23     -10.1417      2.00000
     24     -10.1416      2.00000
     25     -10.1105      2.00000
     26     -10.1104      2.00000
     27     -10.1104      2.00000
     28     -10.0920      2.00000
     29     -10.0919      2.00000
     30     -10.0919      2.00000
     31      -8.0210      2.00000
     32      -8.0201      2.00000
     33      -8.0178      2.00000
     34      -7.8827      2.00000
     35      -7.8794      2.00000
     36      -7.8778      2.00000
     37      -7.4162      2.00000
     38      -7.4154      2.00000
     39      -7.4143      2.00000
     40      -6.7641      2.00000
     41      -6.7640      2.00000
     42      -6.7639      2.00000
     43      -2.3457      2.00000
     44      -2.3368      2.00000
     45      -2.3350      2.00000
     46      -1.8734      2.00000
     47      -1.8732      2.00000
     48      -1.8583      2.00000
     49      -1.3590      2.00000
     50      -1.3573      2.00000
     51      -1.3568      2.00000
     52      -1.3416      2.00000
     53      -1.3412      2.00000
     54      -1.3392      2.00000
     55      -1.2077      2.00000
     56      -1.2021      2.00000
     57      -1.2019      2.00000
     58      -1.1353      2.00000
     59      -1.1348      2.00000
     60      -1.1346      2.00000
     61      -0.8460      2.00000
     62      -0.8417      2.00000
     63      -0.8366      2.00000
     64      -0.3759      2.00000
     65      -0.3701      2.00000
     66      -0.3593      2.00000
     67      -0.1323      2.00000
     68      -0.1226      2.00000
     69      -0.1069      2.00000
     70      -0.0951      2.00000
     71      -0.0660      2.00000
     72      -0.0620      2.00000
     73       0.5538      2.00000
     74       0.5647      2.00000
     75       0.6726      2.00000
     76       0.9441      2.00000
     77       1.1584      2.00000
     78       1.1672      2.00000
     79       1.5119      2.00000
     80       1.5342      2.00000
     81       1.5439      2.00000
     82       1.7812      2.00000
     83       1.8755      2.00000
     84       1.8869      2.00000
     85       2.3105      2.00000
     86       2.3176      2.00000
     87       2.3394      2.00000
     88       2.7781      2.00000
     89       2.8099      2.00000
     90       2.8546      2.00000
     91       3.8886      2.00000
     92       3.9003      2.00000
     93       3.9314      2.00000
     94       6.4122      0.00000
     95       6.5005      0.00000
     96       6.5130      0.00000
     97       6.7135      0.00000
     98       6.7156      0.00000
     99       6.7299      0.00000
    100       7.5691      0.00000
    101       7.5694      0.00000
    102       7.5906      0.00000
    103       9.1668      0.00000
    104       9.2023      0.00000
    105       9.2117      0.00000
    106       9.5268      0.00000
    107       9.5624      0.00000
    108       9.5782      0.00000
    109       9.7328      0.00000
    110       9.8839      0.00000
    111       9.9197      0.00000
    112      10.5257      0.00000

 k-point    49 :       0.4167    0.2500    0.2500
  band No.  band energies     occupation 
      1     -11.2040      2.00000
      2     -11.2039      2.00000
      3     -11.2039      2.00000
      4     -10.8475      2.00000
      5     -10.8475      2.00000
      6     -10.8474      2.00000
      7     -10.7241      2.00000
      8     -10.7241      2.00000
      9     -10.7240      2.00000
     10     -10.6321      2.00000
     11     -10.6321      2.00000
     12     -10.6321      2.00000
     13     -10.6012      2.00000
     14     -10.6011      2.00000
     15     -10.6011      2.00000
     16     -10.5604      2.00000
     17     -10.5604      2.00000
     18     -10.5604      2.00000
     19     -10.3564      2.00000
     20     -10.3564      2.00000
     21     -10.3563      2.00000
     22     -10.1417      2.00000
     23     -10.1417      2.00000
     24     -10.1416      2.00000
     25     -10.1105      2.00000
     26     -10.1104      2.00000
     27     -10.1104      2.00000
     28     -10.0920      2.00000
     29     -10.0919      2.00000
     30     -10.0919      2.00000
     31      -8.0214      2.00000
     32      -8.0192      2.00000
     33      -8.0182      2.00000
     34      -7.8821      2.00000
     35      -7.8805      2.00000
     36      -7.8773      2.00000
     37      -7.4163      2.00000
     38      -7.4152      2.00000
     39      -7.4144      2.00000
     40      -6.7641      2.00000
     41      -6.7640      2.00000
     42      -6.7639      2.00000
     43      -2.3433      2.00000
     44      -2.3416      2.00000
     45      -2.3325      2.00000
     46      -1.8785      2.00000
     47      -1.8634      2.00000
     48      -1.8630      2.00000
     49      -1.3584      2.00000
     50      -1.3582      2.00000
     51      -1.3565      2.00000
     52      -1.3422      2.00000
     53      -1.3401      2.00000
     54      -1.3397      2.00000
     55      -1.2058      2.00000
     56      -1.2057      2.00000
     57      -1.2002      2.00000
     58      -1.1353      2.00000
     59      -1.1350      2.00000
     60      -1.1344      2.00000
     61      -0.8463      2.00000
     62      -0.8411      2.00000
     63      -0.8368      2.00000
     64      -0.3762      2.00000
     65      -0.3685      2.00000
     66      -0.3607      2.00000
     67      -0.1358      2.00000
     68      -0.1253      2.00000
     69      -0.0997      2.00000
     70      -0.0858      2.00000
     71      -0.0721      2.00000
     72      -0.0663      2.00000
     73       0.5364      2.00000
     74       0.6205      2.00000
     75       0.6237      2.00000
     76       1.0193      2.00000
     77       1.0348      2.00000
     78       1.2298      2.00000
     79       1.5124      2.00000
     80       1.5185      2.00000
     81       1.5509      2.00000
     82       1.8160      2.00000
     83       1.8595      2.00000
     84       1.8696      2.00000
     85       2.3052      2.00000
     86       2.3282      2.00000
     87       2.3386      2.00000
     88       2.7724      2.00000
     89       2.8136      2.00000
     90       2.8554      2.00000
     91       3.8826      2.00000
     92       3.9131      2.00000
     93       3.9246      2.00000
     94       6.4396      0.00000
     95       6.4452      0.00000
     96       6.5429      0.00000
     97       6.7045      0.00000
     98       6.7189      0.00000
     99       6.7337      0.00000
    100       7.5631      0.00000
    101       7.5786      0.00000
    102       7.5873      0.00000
    103       9.1739      0.00000
    104       9.1779      0.00000
    105       9.2327      0.00000
    106       9.5252      0.00000
    107       9.5572      0.00000
    108       9.5803      0.00000
    109       9.7539      0.00000
    110       9.8059      0.00000
    111       9.9879      0.00000
    112      10.5435      0.00000

 k-point    50 :       0.3333    0.3333    0.2500
  band No.  band energies     occupation 
      1     -11.2072      2.00000
      2     -11.2072      2.00000
      3     -11.2072      2.00000
      4     -10.8438      2.00000
      5     -10.8438      2.00000
      6     -10.8437      2.00000
      7     -10.7262      2.00000
      8     -10.7261      2.00000
      9     -10.7261      2.00000
     10     -10.6178      2.00000
     11     -10.6178      2.00000
     12     -10.6177      2.00000
     13     -10.6156      2.00000
     14     -10.6155      2.00000
     15     -10.6155      2.00000
     16     -10.5483      2.00000
     17     -10.5482      2.00000
     18     -10.5482      2.00000
     19     -10.3866      2.00000
     20     -10.3866      2.00000
     21     -10.3866      2.00000
     22     -10.1237      2.00000
     23     -10.1237      2.00000
     24     -10.1237      2.00000
     25     -10.1186      2.00000
     26     -10.1185      2.00000
     27     -10.1185      2.00000
     28     -10.1004      2.00000
     29     -10.1003      2.00000
     30     -10.1003      2.00000
     31      -7.9158      2.00000
     32      -7.9157      2.00000
     33      -7.9157      2.00000
     34      -7.7962      2.00000
     35      -7.7962      2.00000
     36      -7.7962      2.00000
     37      -7.4601      2.00000
     38      -7.4600      2.00000
     39      -7.4599      2.00000
     40      -6.7450      2.00000
     41      -6.7449      2.00000
     42      -6.7448      2.00000
     43      -2.3081      2.00000
     44      -2.3081      2.00000
     45      -2.3080      2.00000
     46      -1.9294      2.00000
     47      -1.9293      2.00000
     48      -1.9293      2.00000
     49      -1.3533      2.00000
     50      -1.3532      2.00000
     51      -1.3532      2.00000
     52      -1.3444      2.00000
     53      -1.3443      2.00000
     54      -1.3443      2.00000
     55      -1.1914      2.00000
     56      -1.1913      2.00000
     57      -1.1913      2.00000
     58      -1.1381      2.00000
     59      -1.1380      2.00000
     60      -1.1380      2.00000
     61      -0.7617      2.00000
     62      -0.7616      2.00000
     63      -0.7616      2.00000
     64      -0.4762      2.00000
     65      -0.4762      2.00000
     66      -0.4762      2.00000
     67      -0.2253      2.00000
     68      -0.2252      2.00000
     69      -0.2252      2.00000
     70      -0.1574      2.00000
     71      -0.1574      2.00000
     72      -0.1573      2.00000
     73       0.6458      2.00000
     74       0.6458      2.00000
     75       0.6458      2.00000
     76       0.9139      2.00000
     77       0.9139      2.00000
     78       0.9139      2.00000
     79       1.5287      2.00000
     80       1.5288      2.00000
     81       1.5288      2.00000
     82       1.7375      2.00000
     83       1.7375      2.00000
     84       1.7375      2.00000
     85       2.1688      2.00000
     86       2.1689      2.00000
     87       2.1689      2.00000
     88       2.8204      2.00000
     89       2.8205      2.00000
     90       2.8205      2.00000
     91       3.8961      2.00000
     92       3.8961      2.00000
     93       3.8962      2.00000
     94       6.6059      0.00000
     95       6.6059      0.00000
     96       6.6060      0.00000
     97       6.7973      0.00000
     98       6.7973      0.00000
     99       6.7974      0.00000
    100       7.4293      0.00000
    101       7.4293      0.00000
    102       7.4293      0.00000
    103       9.2866      0.00000
    104       9.2867      0.00000
    105       9.2867      0.00000
    106       9.7961      0.00000
    107       9.7961      0.00000
    108       9.7961      0.00000
    109       9.9078      0.00000
    110       9.9078      0.00000
    111       9.9079      0.00000
    112      10.7085      0.00000

 k-point    51 :       0.0000    0.0000    0.5000
  band No.  band energies     occupation 
      1     -10.9836      2.00000
      2     -10.9835      2.00000
      3     -10.9835      2.00000
      4     -10.7813      2.00000
      5     -10.7813      2.00000
      6     -10.7812      2.00000
      7     -10.7812      2.00000
      8     -10.7812      2.00000
      9     -10.7812      2.00000
     10     -10.6054      2.00000
     11     -10.6054      2.00000
     12     -10.6054      2.00000
     13     -10.6054      2.00000
     14     -10.6054      2.00000
     15     -10.6054      2.00000
     16     -10.2644      2.00000
     17     -10.2644      2.00000
     18     -10.2643      2.00000
     19     -10.2643      2.00000
     20     -10.2643      2.00000
     21     -10.2643      2.00000
     22     -10.2520      2.00000
     23     -10.2519      2.00000
     24     -10.2518      2.00000
     25     -10.1191      2.00000
     26     -10.1191      2.00000
     27     -10.1190      2.00000
     28     -10.1190      2.00000
     29     -10.1190      2.00000
     30     -10.1190      2.00000
     31      -9.7160      2.00000
     32      -9.7160      2.00000
     33      -9.7090      2.00000
     34      -9.1444      2.00000
     35      -9.1218      2.00000
     36      -9.1217      2.00000
     37      -8.1710      2.00000
     38      -8.1709      2.00000
     39      -8.1293      2.00000
     40      -7.4302      2.00000
     41      -7.4006      2.00000
     42      -7.4005      2.00000
     43      -2.0691      2.00000
     44      -2.0350      2.00000
     45      -2.0349      2.00000
     46      -1.5616      2.00000
     47      -1.5616      2.00000
     48      -1.5616      2.00000
     49      -1.5616      2.00000
     50      -1.5615      2.00000
     51      -1.5615      2.00000
     52      -1.2883      2.00000
     53      -1.2883      2.00000
     54      -1.1173      2.00000
     55      -1.1173      2.00000
     56      -1.1173      2.00000
     57      -1.1173      2.00000
     58      -1.1172      2.00000
     59      -1.1172      2.00000
     60      -1.0756      2.00000
     61      -0.1266      2.00000
     62       0.2866      2.00000
     63       0.2866      2.00000
     64       1.5997      2.00000
     65       1.5997      2.00000
     66       2.0777      2.00000
     67       2.0777      2.00000
     68       2.0793      2.00000
     69       2.0793      2.00000
     70       2.0794      2.00000
     71       2.0794      2.00000
     72       2.1677      2.00000
     73       2.7107      2.00000
     74       2.7107      2.00000
     75       2.7108      2.00000
     76       2.7108      2.00000
     77       2.7185      2.00000
     78       2.7185      2.00000
     79       2.9888      2.00000
     80       2.9888      2.00000
     81       2.9954      2.00000
     82       2.9954      2.00000
     83       2.9955      2.00000
     84       2.9955      2.00000
     85       3.1170      2.00000
     86       3.6991      2.00000
     87       3.6991      2.00000
     88       4.5080      2.00000
     89       4.5080      2.00000
     90       4.5080      2.00000
     91       4.5080      2.00000
     92       4.5083      2.00000
     93       4.5083      2.00000
     94       5.0100      0.00000
     95       5.0100      0.00000
     96       5.5177      0.00000
     97       6.0737      0.00000
     98       6.2935      0.00000
     99       6.2935      0.00000
    100       7.2143      0.00000
    101       7.2143      0.00000
    102       7.2681      0.00000
    103       7.6952      0.00000
    104       7.8479      0.00000
    105       7.8480      0.00000
    106       8.9569      0.00000
    107       8.9569      0.00000
    108       8.9586      0.00000
    109       8.9640      0.00000
    110       8.9748      0.00000
    111       8.9837      0.00000
    112       9.0423      0.00000

 k-point    52 :       0.0833    0.0000    0.5000
  band No.  band energies     occupation 
      1     -10.9922      2.00000
      2     -10.9921      2.00000
      3     -10.9921      2.00000
      4     -10.8003      2.00000
      5     -10.8003      2.00000
      6     -10.8002      2.00000
      7     -10.7748      2.00000
      8     -10.7748      2.00000
      9     -10.7748      2.00000
     10     -10.6116      2.00000
     11     -10.6116      2.00000
     12     -10.6116      2.00000
     13     -10.6050      2.00000
     14     -10.6049      2.00000
     15     -10.6049      2.00000
     16     -10.3046      2.00000
     17     -10.3046      2.00000
     18     -10.3045      2.00000
     19     -10.2588      2.00000
     20     -10.2588      2.00000
     21     -10.2587      2.00000
     22     -10.2304      2.00000
     23     -10.2304      2.00000
     24     -10.2303      2.00000
     25     -10.1252      2.00000
     26     -10.1251      2.00000
     27     -10.1251      2.00000
     28     -10.1182      2.00000
     29     -10.1181      2.00000
     30     -10.1181      2.00000
     31      -9.6318      2.00000
     32      -9.6317      2.00000
     33      -9.6241      2.00000
     34      -9.0908      2.00000
     35      -9.0681      2.00000
     36      -9.0678      2.00000
     37      -8.1065      2.00000
     38      -8.1062      2.00000
     39      -8.0652      2.00000
     40      -7.3917      2.00000
     41      -7.3625      2.00000
     42      -7.3623      2.00000
     43      -2.0478      2.00000
     44      -2.0086      2.00000
     45      -2.0084      2.00000
     46      -1.5612      2.00000
     47      -1.5610      2.00000
     48      -1.5609      2.00000
     49      -1.5470      2.00000
     50      -1.5470      2.00000
     51      -1.5469      2.00000
     52      -1.2810      2.00000
     53      -1.2800      2.00000
     54      -1.1328      2.00000
     55      -1.1247      2.00000
     56      -1.1246      2.00000
     57      -1.1175      2.00000
     58      -1.1174      2.00000
     59      -1.1174      2.00000
     60      -1.0644      2.00000
     61      -0.1199      2.00000
     62       0.2402      2.00000
     63       0.2469      2.00000
     64       1.4887      2.00000
     65       1.5076      2.00000
     66       1.6504      2.00000
     67       1.7766      2.00000
     68       1.7942      2.00000
     69       1.9888      2.00000
     70       1.9897      2.00000
     71       1.9921      2.00000
     72       2.0653      2.00000
     73       2.2695      2.00000
     74       2.3111      2.00000
     75       2.3440      2.00000
     76       2.5402      2.00000
     77       2.5481      2.00000
     78       2.5505      2.00000
     79       2.7582      2.00000
     80       2.7849      2.00000
     81       2.8076      2.00000
     82       3.0520      2.00000
     83       3.0537      2.00000
     84       3.0607      2.00000
     85       3.4926      2.00000
     86       3.7913      2.00000
     87       3.8078      2.00000
     88       4.1010      2.00000
     89       4.1271      2.00000
     90       4.1395      2.00000
     91       4.4103      2.00000
     92       4.4116      2.00000
     93       4.4117      2.00000
     94       5.3259      0.00000
     95       5.3443      0.00000
     96       5.6874      0.00000
     97       6.2965      0.00000
     98       6.4866      0.00000
     99       6.4875      0.00000
    100       7.5346      0.00000
    101       7.5414      0.00000
    102       7.5916      0.00000
    103       7.9918      0.00000
    104       8.0880      0.00000
    105       8.1228      0.00000
    106       8.5849      0.00000
    107       8.5937      0.00000
    108       8.6387      0.00000
    109       9.0785      0.00000
    110       9.0850      0.00000
    111       9.1116      0.00000
    112       9.1415      0.00000

 k-point    53 :       0.1667   -0.0000    0.5000
  band No.  band energies     occupation 
      1     -11.0269      2.00000
      2     -11.0269      2.00000
      3     -11.0268      2.00000
      4     -10.8312      2.00000
      5     -10.8312      2.00000
      6     -10.8311      2.00000
      7     -10.7581      2.00000
      8     -10.7580      2.00000
      9     -10.7580      2.00000
     10     -10.6239      2.00000
     11     -10.6239      2.00000
     12     -10.6238      2.00000
     13     -10.6029      2.00000
     14     -10.6029      2.00000
     15     -10.6028      2.00000
     16     -10.3874      2.00000
     17     -10.3873      2.00000
     18     -10.3873      2.00000
     19     -10.2451      2.00000
     20     -10.2451      2.00000
     21     -10.2450      2.00000
     22     -10.1978      2.00000
     23     -10.1978      2.00000
     24     -10.1978      2.00000
     25     -10.1355      2.00000
     26     -10.1354      2.00000
     27     -10.1354      2.00000
     28     -10.1142      2.00000
     29     -10.1141      2.00000
     30     -10.1141      2.00000
     31      -9.4088      2.00000
     32      -9.4079      2.00000
     33      -9.3997      2.00000
     34      -8.9324      2.00000
     35      -8.9106      2.00000
     36      -8.9089      2.00000
     37      -7.9372      2.00000
     38      -7.9352      2.00000
     39      -7.8974      2.00000
     40      -7.2840      2.00000
     41      -7.2572      2.00000
     42      -7.2561      2.00000
     43      -2.0018      2.00000
     44      -1.9524      2.00000
     45      -1.9508      2.00000
     46      -1.5549      2.00000
     47      -1.5534      2.00000
     48      -1.5530      2.00000
     49      -1.5067      2.00000
     50      -1.5066      2.00000
     51      -1.5066      2.00000
     52      -1.2678      2.00000
     53      -1.2594      2.00000
     54      -1.1654      2.00000
     55      -1.1442      2.00000
     56      -1.1440      2.00000
     57      -1.1172      2.00000
     58      -1.1172      2.00000
     59      -1.1171      2.00000
     60      -1.0559      2.00000
     61      -0.1750      2.00000
     62      -0.0012      2.00000
     63       0.0354      2.00000
     64       0.8983      2.00000
     65       0.9051      2.00000
     66       0.9305      2.00000
     67       1.2971      2.00000
     68       1.3822      2.00000
     69       1.5790      2.00000
     70       1.7331      2.00000
     71       1.7606      2.00000
     72       1.7613      2.00000
     73       1.7666      2.00000
     74       1.9192      2.00000
     75       1.9855      2.00000
     76       2.2273      2.00000
     77       2.2398      2.00000
     78       2.2411      2.00000
     79       2.2460      2.00000
     80       2.2695      2.00000
     81       2.3469      2.00000
     82       3.0852      2.00000
     83       3.0860      2.00000
     84       3.0981      2.00000
     85       3.2905      2.00000
     86       3.3028      2.00000
     87       3.4455      2.00000
     88       3.8290      2.00000
     89       3.9503      2.00000
     90       4.0661      2.00000
     91       4.1602      2.00000
     92       4.1655      2.00000
     93       4.1656      2.00000
     94       5.7853      0.00000
     95       5.8259      0.00000
     96       5.9321      0.00000
     97       6.5788      0.00000
     98       6.6461      0.00000
     99       6.6631      0.00000
    100       7.8470      0.00000
    101       7.8899      0.00000
    102       7.9155      0.00000
    103       8.2265      0.00000
    104       8.2738      0.00000
    105       8.3543      0.00000
    106       8.7417      0.00000
    107       8.7441      0.00000
    108       8.7710      0.00000
    109       9.1044      0.00000
    110       9.2166      0.00000
    111       9.2933      0.00000
    112       9.3679      0.00000

 k-point    54 :       0.2500   -0.0000    0.5000
  band No.  band energies     occupation 
      1     -11.0877      2.00000
      2     -11.0876      2.00000
      3     -11.0876      2.00000
      4     -10.8463      2.00000
      5     -10.8462      2.00000
      6     -10.8462      2.00000
      7     -10.7374      2.00000
      8     -10.7374      2.00000
      9     -10.7374      2.00000
     10     -10.6365      2.00000
     11     -10.6365      2.00000
     12     -10.6365      2.00000
     13     -10.5974      2.00000
     14     -10.5973      2.00000
     15     -10.5973      2.00000
     16     -10.4814      2.00000
     17     -10.4814      2.00000
     18     -10.4813      2.00000
     19     -10.2305      2.00000
     20     -10.2304      2.00000
     21     -10.2304      2.00000
     22     -10.1732      2.00000
     23     -10.1731      2.00000
     24     -10.1731      2.00000
     25     -10.1356      2.00000
     26     -10.1356      2.00000
     27     -10.1356      2.00000
     28     -10.1043      2.00000
     29     -10.1042      2.00000
     30     -10.1042      2.00000
     31      -9.0966      2.00000
     32      -9.0945      2.00000
     33      -9.0867      2.00000
     34      -8.6864      2.00000
     35      -8.6678      2.00000
     36      -8.6633      2.00000
     37      -7.7191      2.00000
     38      -7.7135      2.00000
     39      -7.6841      2.00000
     40      -7.1311      2.00000
     41      -7.1113      2.00000
     42      -7.1079      2.00000
     43      -1.9933      2.00000
     44      -1.9459      2.00000
     45      -1.9409      2.00000
     46      -1.5318      2.00000
     47      -1.5253      2.00000
     48      -1.5252      2.00000
     49      -1.4512      2.00000
     50      -1.4511      2.00000
     51      -1.4510      2.00000
     52      -1.2788      2.00000
     53      -1.2559      2.00000
     54      -1.2118      2.00000
     55      -1.1752      2.00000
     56      -1.1706      2.00000
     57      -1.1141      2.00000
     58      -1.1140      2.00000
     59      -1.1140      2.00000
     60      -1.1043      2.00000
     61      -0.5185      2.00000
     62      -0.5177      2.00000
     63      -0.4855      2.00000
     64       0.2103      2.00000
     65       0.2619      2.00000
     66       0.3087      2.00000
     67       0.8679      2.00000
     68       0.8905      2.00000
     69       1.1147      2.00000
     70       1.4417      2.00000
     71       1.4774      2.00000
     72       1.4780      2.00000
     73       1.4865      2.00000
     74       1.5135      2.00000
     75       1.5298      2.00000
     76       1.8020      2.00000
     77       1.8698      2.00000
     78       1.8987      2.00000
     79       1.8993      2.00000
     80       1.9159      2.00000
     81       1.9168      2.00000
     82       2.6887      2.00000
     83       2.8129      2.00000
     84       2.9110      2.00000
     85       3.0496      2.00000
     86       3.0502      2.00000
     87       3.0713      2.00000
     88       3.8511      2.00000
     89       3.8649      2.00000
     90       3.8650      2.00000
     91       3.9276      2.00000
     92       3.9735      2.00000
     93       4.0655      2.00000
     94       6.0101      0.00000
     95       6.0502      0.00000
     96       6.0547      0.00000
     97       6.3376      0.00000
     98       6.3896      0.00000
     99       6.4044      0.00000
    100       7.6291      0.00000
    101       7.6329      0.00000
    102       7.6816      0.00000
    103       8.4366      0.00000
    104       8.4378      0.00000
    105       8.5998      0.00000
    106       9.0168      0.00000
    107       9.0546      0.00000
    108       9.1208      0.00000
    109       9.6396      0.00000
    110       9.6447      0.00000
    111       9.6557      0.00000
    112       9.7002      0.00000

 k-point    55 :       0.3333   -0.0000    0.5000
  band No.  band energies     occupation 
      1     -11.1492      2.00000
      2     -11.1491      2.00000
      3     -11.1491      2.00000
      4     -10.8548      2.00000
      5     -10.8547      2.00000
      6     -10.8546      2.00000
      7     -10.7205      2.00000
      8     -10.7205      2.00000
      9     -10.7205      2.00000
     10     -10.6480      2.00000
     11     -10.6479      2.00000
     12     -10.6479      2.00000
     13     -10.5878      2.00000
     14     -10.5877      2.00000
     15     -10.5877      2.00000
     16     -10.5563      2.00000
     17     -10.5562      2.00000
     18     -10.5562      2.00000
     19     -10.2211      2.00000
     20     -10.2211      2.00000
     21     -10.2210      2.00000
     22     -10.1738      2.00000
     23     -10.1738      2.00000
     24     -10.1737      2.00000
     25     -10.1151      2.00000
     26     -10.1150      2.00000
     27     -10.1150      2.00000
     28     -10.0887      2.00000
     29     -10.0886      2.00000
     30     -10.0886      2.00000
     31      -8.7465      2.00000
     32      -8.7428      2.00000
     33      -8.7372      2.00000
     34      -8.4017      2.00000
     35      -8.3899      2.00000
     36      -8.3820      2.00000
     37      -7.5167      2.00000
     38      -7.5073      2.00000
     39      -7.4922      2.00000
     40      -6.9728      2.00000
     41      -6.9640      2.00000
     42      -6.9586      2.00000
     43      -2.1397      2.00000
     44      -2.1180      2.00000
     45      -2.1140      2.00000
     46      -1.5190      2.00000
     47      -1.5032      2.00000
     48      -1.4829      2.00000
     49      -1.3966      2.00000
     50      -1.3966      2.00000
     51      -1.3965      2.00000
     52      -1.3722      2.00000
     53      -1.3671      2.00000
     54      -1.3267      2.00000
     55      -1.2047      2.00000
     56      -1.1934      2.00000
     57      -1.1921      2.00000
     58      -1.1056      2.00000
     59      -1.1056      2.00000
     60      -1.1055      2.00000
     61      -0.9905      2.00000
     62      -0.9835      2.00000
     63      -0.9690      2.00000
     64      -0.2385      2.00000
     65      -0.1543      2.00000
     66      -0.1255      2.00000
     67       0.6340      2.00000
     68       0.6786      2.00000
     69       0.6795      2.00000
     70       0.9035      2.00000
     71       0.9531      2.00000
     72       0.9565      2.00000
     73       1.2198      2.00000
     74       1.2201      2.00000
     75       1.2315      2.00000
     76       1.5834      2.00000
     77       1.5946      2.00000
     78       1.6197      2.00000
     79       1.6410      2.00000
     80       1.6415      2.00000
     81       1.8529      2.00000
     82       2.3585      2.00000
     83       2.6101      2.00000
     84       2.6861      2.00000
     85       2.9743      2.00000
     86       2.9748      2.00000
     87       3.0093      2.00000
     88       3.5749      2.00000
     89       3.6019      2.00000
     90       3.6021      2.00000
     91       3.8879      2.00000
     92       3.9675      2.00000
     93       3.9709      2.00000
     94       5.8170      0.00000
     95       5.8445      0.00000
     96       5.8651      0.00000
     97       6.1638      0.00000
     98       6.1729      0.00000
     99       6.1735      0.00000
    100       7.3618      0.00000
    101       7.3906      0.00000
    102       7.4257      0.00000
    103       8.3962      0.00000
    104       8.4072      0.00000
    105       8.6587      0.00000
    106       8.8664      0.00000
    107       9.0738      0.00000
    108       9.0763      0.00000
    109       9.7389      0.00000
    110       9.7417      0.00000
    111       9.7735      0.00000
    112       9.8373      0.00000

 k-point    56 :       0.4167   -0.0000    0.5000
  band No.  band energies     occupation 
      1     -11.1918      2.00000
      2     -11.1917      2.00000
      3     -11.1917      2.00000
      4     -10.8646      2.00000
      5     -10.8646      2.00000
      6     -10.8645      2.00000
      7     -10.7110      2.00000
      8     -10.7110      2.00000
      9     -10.7109      2.00000
     10     -10.6576      2.00000
     11     -10.6575      2.00000
     12     -10.6575      2.00000
     13     -10.5970      2.00000
     14     -10.5969      2.00000
     15     -10.5968      2.00000
     16     -10.5777      2.00000
     17     -10.5776      2.00000
     18     -10.5776      2.00000
     19     -10.2174      2.00000
     20     -10.2173      2.00000
     21     -10.2173      2.00000
     22     -10.1798      2.00000
     23     -10.1797      2.00000
     24     -10.1797      2.00000
     25     -10.0968      2.00000
     26     -10.0967      2.00000
     27     -10.0967      2.00000
     28     -10.0739      2.00000
     29     -10.0738      2.00000
     30     -10.0738      2.00000
     31      -8.4348      2.00000
     32      -8.4294      2.00000
     33      -8.4284      2.00000
     34      -8.1694      2.00000
     35      -8.1676      2.00000
     36      -8.1574      2.00000
     37      -7.3854      2.00000
     38      -7.3761      2.00000
     39      -7.3751      2.00000
     40      -6.8560      2.00000
     41      -6.8558      2.00000
     42      -6.8515      2.00000
     43      -2.4236      2.00000
     44      -2.4215      2.00000
     45      -2.4180      2.00000
     46      -1.7329      2.00000
     47      -1.7142      2.00000
     48      -1.7110      2.00000
     49      -1.4031      2.00000
     50      -1.3918      2.00000
     51      -1.3615      2.00000
     52      -1.3592      2.00000
     53      -1.3591      2.00000
     54      -1.3590      2.00000
     55      -1.2610      2.00000
     56      -1.2482      2.00000
     57      -1.2453      2.00000
     58      -1.0938      2.00000
     59      -1.0937      2.00000
     60      -1.0937      2.00000
     61      -1.0360      2.00000
     62      -1.0264      2.00000
     63      -1.0112      2.00000
     64      -0.4385      2.00000
     65      -0.4075      2.00000
     66      -0.3907      2.00000
     67       0.1527      2.00000
     68       0.1804      2.00000
     69       0.3258      2.00000
     70       0.7475      2.00000
     71       0.8049      2.00000
     72       0.8789      2.00000
     73       1.0439      2.00000
     74       1.0441      2.00000
     75       1.0576      2.00000
     76       1.3331      2.00000
     77       1.4347      2.00000
     78       1.4588      2.00000
     79       1.4591      2.00000
     80       1.5089      2.00000
     81       1.7648      2.00000
     82       2.3224      2.00000
     83       2.4528      2.00000
     84       2.6787      2.00000
     85       2.8977      2.00000
     86       2.8979      2.00000
     87       2.9453      2.00000
     88       3.3955      2.00000
     89       3.4351      2.00000
     90       3.4352      2.00000
     91       3.8372      2.00000
     92       3.8701      2.00000
     93       3.8858      2.00000
     94       5.5396      0.00000
     95       5.6245      0.00000
     96       5.6491      0.00000
     97       6.0021      0.00000
     98       6.0352      0.00000
     99       6.0686      0.00000
    100       7.2425      0.00000
    101       7.2570      0.00000
    102       7.2829      0.00000
    103       8.2727      0.00000
    104       8.2760      0.00000
    105       8.5456      0.00000
    106       8.7004      0.00000
    107       8.9101      0.00000
    108       8.9642      0.00000
    109       9.7362      0.00000
    110       9.7386      0.00000
    111       9.7569      0.00000
    112       9.7920      0.00000

 k-point    57 :       0.5000   -0.0000    0.5000
  band No.  band energies     occupation 
      1     -11.2068      2.00000
      2     -11.2068      2.00000
      3     -11.2067      2.00000
      4     -10.8697      2.00000
      5     -10.8696      2.00000
      6     -10.8696      2.00000
      7     -10.7081      2.00000
      8     -10.7081      2.00000
      9     -10.7081      2.00000
     10     -10.6619      2.00000
     11     -10.6619      2.00000
     12     -10.6618      2.00000
     13     -10.6082      2.00000
     14     -10.6081      2.00000
     15     -10.6081      2.00000
     16     -10.5733      2.00000
     17     -10.5732      2.00000
     18     -10.5732      2.00000
     19     -10.2165      2.00000
     20     -10.2165      2.00000
     21     -10.2164      2.00000
     22     -10.1822      2.00000
     23     -10.1821      2.00000
     24     -10.1821      2.00000
     25     -10.0902      2.00000
     26     -10.0901      2.00000
     27     -10.0901      2.00000
     28     -10.0679      2.00000
     29     -10.0678      2.00000
     30     -10.0678      2.00000
     31      -8.2925      2.00000
     32      -8.2924      2.00000
     33      -8.2878      2.00000
     34      -8.0900      2.00000
     35      -8.0823      2.00000
     36      -8.0823      2.00000
     37      -7.3421      2.00000
     38      -7.3420      2.00000
     39      -7.3366      2.00000
     40      -6.8158      2.00000
     41      -6.8138      2.00000
     42      -6.8137      2.00000
     43      -2.5725      2.00000
     44      -2.5616      2.00000
     45      -2.5616      2.00000
     46      -1.8625      2.00000
     47      -1.8625      2.00000
     48      -1.8455      2.00000
     49      -1.3993      2.00000
     50      -1.3672      2.00000
     51      -1.3672      2.00000
     52      -1.3464      2.00000
     53      -1.3463      2.00000
     54      -1.3463      2.00000
     55      -1.2719      2.00000
     56      -1.2719      2.00000
     57      -1.2682      2.00000
     58      -1.0878      2.00000
     59      -1.0877      2.00000
     60      -1.0877      2.00000
     61      -0.9250      2.00000
     62      -0.9187      2.00000
     63      -0.9187      2.00000
     64      -0.5409      2.00000
     65      -0.5302      2.00000
     66      -0.5301      2.00000
     67      -0.0901      2.00000
     68      -0.0901      2.00000
     69       0.1093      2.00000
     70       0.8814      2.00000
     71       0.8814      2.00000
     72       0.8927      2.00000
     73       0.9819      2.00000
     74       0.9820      2.00000
     75       0.9962      2.00000
     76       1.1330      2.00000
     77       1.3701      2.00000
     78       1.3953      2.00000
     79       1.3954      2.00000
     80       1.5680      2.00000
     81       1.5680      2.00000
     82       2.3924      2.00000
     83       2.3924      2.00000
     84       2.6838      2.00000
     85       2.8645      2.00000
     86       2.8646      2.00000
     87       2.9169      2.00000
     88       3.3358      2.00000
     89       3.3802      2.00000
     90       3.3803      2.00000
     91       3.7892      2.00000
     92       3.7893      2.00000
     93       3.8968      2.00000
     94       5.4381      0.00000
     95       5.5618      0.00000
     96       5.5618      0.00000
     97       5.9223      0.00000
     98       6.0022      0.00000
     99       6.0022      0.00000
    100       7.2157      0.00000
    101       7.2266      0.00000
    102       7.2266      0.00000
    103       8.2192      0.00000
    104       8.2193      0.00000
    105       8.4811      0.00000
    106       8.6440      0.00000
    107       8.8785      0.00000
    108       8.8785      0.00000
    109       9.7103      0.00000
    110       9.7178      0.00000
    111       9.7183      0.00000
    112       9.7251      0.00000

 k-point    58 :       0.0833    0.0833    0.5000
  band No.  band energies     occupation 
      1     -11.0141      2.00000
      2     -11.0141      2.00000
      3     -11.0141      2.00000
      4     -10.8242      2.00000
      5     -10.8242      2.00000
      6     -10.8241      2.00000
      7     -10.7635      2.00000
      8     -10.7634      2.00000
      9     -10.7634      2.00000
     10     -10.6201      2.00000
     11     -10.6201      2.00000
     12     -10.6200      2.00000
     13     -10.6041      2.00000
     14     -10.6040      2.00000
     15     -10.6040      2.00000
     16     -10.3583      2.00000
     17     -10.3582      2.00000
     18     -10.3582      2.00000
     19     -10.2586      2.00000
     20     -10.2586      2.00000
     21     -10.2585      2.00000
     22     -10.2023      2.00000
     23     -10.2022      2.00000
     24     -10.2022      2.00000
     25     -10.1330      2.00000
     26     -10.1329      2.00000
     27     -10.1329      2.00000
     28     -10.1159      2.00000
     29     -10.1158      2.00000
     30     -10.1158      2.00000
     31      -9.4785      2.00000
     32      -9.4785      2.00000
     33      -9.4701      2.00000
     34      -8.9841      2.00000
     35      -8.9613      2.00000
     36      -8.9613      2.00000
     37      -7.9895      2.00000
     38      -7.9894      2.00000
     39      -7.9497      2.00000
     40      -7.3185      2.00000
     41      -7.2904      2.00000
     42      -7.2904      2.00000
     43      -2.0138      2.00000
     44      -1.9663      2.00000
     45      -1.9662      2.00000
     46      -1.5578      2.00000
     47      -1.5568      2.00000
     48      -1.5567      2.00000
     49      -1.5195      2.00000
     50      -1.5194      2.00000
     51      -1.5193      2.00000
     52      -1.2680      2.00000
     53      -1.2679      2.00000
     54      -1.1554      2.00000
     55      -1.1377      2.00000
     56      -1.1376      2.00000
     57      -1.1178      2.00000
     58      -1.1177      2.00000
     59      -1.1177      2.00000
     60      -1.0549      2.00000
     61      -0.1415      2.00000
     62       0.1102      2.00000
     63       0.1103      2.00000
     64       1.1223      2.00000
     65       1.1238      2.00000
     66       1.1238      2.00000
     67       1.5488      2.00000
     68       1.5489      2.00000
     69       1.6459      2.00000
     70       1.7700      2.00000
     71       1.7765      2.00000
     72       1.7765      2.00000
     73       1.9837      2.00000
     74       1.9837      2.00000
     75       2.0339      2.00000
     76       2.1069      2.00000
     77       2.1070      2.00000
     78       2.1131      2.00000
     79       2.7755      2.00000
     80       2.7755      2.00000
     81       2.8071      2.00000
     82       2.8665      2.00000
     83       2.9015      2.00000
     84       2.9016      2.00000
     85       3.5119      2.00000
     86       3.5120      2.00000
     87       3.6532      2.00000
     88       3.7719      2.00000
     89       4.0034      2.00000
     90       4.0034      2.00000
     91       4.2086      2.00000
     92       4.2097      2.00000
     93       4.2097      2.00000
     94       5.7034      0.00000
     95       5.7034      0.00000
     96       5.8859      0.00000
     97       6.5744      0.00000
     98       6.6927      0.00000
     99       6.6927      0.00000
    100       7.9362      0.00000
    101       7.9363      0.00000
    102       8.0379      0.00000
    103       8.1529      0.00000
    104       8.2412      0.00000
    105       8.2413      0.00000
    106       8.6040      0.00000
    107       8.6626      0.00000
    108       8.6627      0.00000
    109       8.9240      0.00000
    110       9.0038      0.00000
    111       9.0038      0.00000
    112       9.3110      0.00000

 k-point    59 :       0.1667    0.0833    0.5000
  band No.  band energies     occupation 
      1     -11.0634      2.00000
      2     -11.0633      2.00000
      3     -11.0633      2.00000
      4     -10.8426      2.00000
      5     -10.8426      2.00000
      6     -10.8425      2.00000
      7     -10.7457      2.00000
      8     -10.7456      2.00000
      9     -10.7456      2.00000
     10     -10.6309      2.00000
     11     -10.6308      2.00000
     12     -10.6308      2.00000
     13     -10.6012      2.00000
     14     -10.6011      2.00000
     15     -10.6011      2.00000
     16     -10.4398      2.00000
     17     -10.4398      2.00000
     18     -10.4397      2.00000
     19     -10.2544      2.00000
     20     -10.2543      2.00000
     21     -10.2543      2.00000
     22     -10.1708      2.00000
     23     -10.1707      2.00000
     24     -10.1707      2.00000
     25     -10.1405      2.00000
     26     -10.1404      2.00000
     27     -10.1404      2.00000
     28     -10.1082      2.00000
     29     -10.1081      2.00000
     30     -10.1081      2.00000
     31      -9.2111      2.00000
     32      -9.2103      2.00000
     33      -9.2017      2.00000
     34      -8.7784      2.00000
     35      -8.7574      2.00000
     36      -8.7555      2.00000
     37      -7.7980      2.00000
     38      -7.7958      2.00000
     39      -7.7615      2.00000
     40      -7.1880      2.00000
     41      -7.1645      2.00000
     42      -7.1632      2.00000
     43      -1.9821      2.00000
     44      -1.9298      2.00000
     45      -1.9278      2.00000
     46      -1.5420      2.00000
     47      -1.5380      2.00000
     48      -1.5377      2.00000
     49      -1.4711      2.00000
     50      -1.4710      2.00000
     51      -1.4710      2.00000
     52      -1.2640      2.00000
     53      -1.2541      2.00000
     54      -1.1917      2.00000
     55      -1.1605      2.00000
     56      -1.1596      2.00000
     57      -1.1165      2.00000
     58      -1.1164      2.00000
     59      -1.1163      2.00000
     60      -1.0718      2.00000
     61      -0.3475      2.00000
     62      -0.2897      2.00000
     63      -0.2667      2.00000
     64       0.5196      2.00000
     65       0.5287      2.00000
     66       0.5718      2.00000
     67       1.0300      2.00000
     68       1.0585      2.00000
     69       1.2214      2.00000
     70       1.4179      2.00000
     71       1.4503      2.00000
     72       1.4523      2.00000
     73       1.5616      2.00000
     74       1.6380      2.00000
     75       1.6769      2.00000
     76       1.7400      2.00000
     77       1.7840      2.00000
     78       1.7941      2.00000
     79       2.3586      2.00000
     80       2.4010      2.00000
     81       2.4236      2.00000
     82       2.7947      2.00000
     83       2.8265      2.00000
     84       2.8627      2.00000
     85       3.0225      2.00000
     86       3.0267      2.00000
     87       3.1332      2.00000
     88       3.8351      2.00000
     89       3.8498      2.00000
     90       3.8639      2.00000
     91       3.9708      2.00000
     92       4.0301      2.00000
     93       4.0871      2.00000
     94       6.0608      0.00000
     95       6.0631      0.00000
     96       6.0714      0.00000
     97       6.6313      0.00000
     98       6.6444      0.00000
     99       6.6561      0.00000
    100       7.8957      0.00000
    101       7.9035      0.00000
    102       7.9139      0.00000
    103       8.5110      0.00000
    104       8.5574      0.00000
    105       8.5660      0.00000
    106       8.9747      0.00000
    107       8.9919      0.00000
    108       9.0109      0.00000
    109       9.1303      0.00000
    110       9.1705      0.00000
    111       9.2022      0.00000
    112       9.5505      0.00000

 k-point    60 :       0.2500    0.0833    0.5000
  band No.  band energies     occupation 
      1     -11.1242      2.00000
      2     -11.1242      2.00000
      3     -11.1242      2.00000
      4     -10.8504      2.00000
      5     -10.8503      2.00000
      6     -10.8503      2.00000
      7     -10.7286      2.00000
      8     -10.7285      2.00000
      9     -10.7285      2.00000
     10     -10.6411      2.00000
     11     -10.6411      2.00000
     12     -10.6410      2.00000
     13     -10.5946      2.00000
     14     -10.5946      2.00000
     15     -10.5945      2.00000
     16     -10.5199      2.00000
     17     -10.5198      2.00000
     18     -10.5198      2.00000
     19     -10.2470      2.00000
     20     -10.2469      2.00000
     21     -10.2469      2.00000
     22     -10.1639      2.00000
     23     -10.1639      2.00000
     24     -10.1639      2.00000
     25     -10.1297      2.00000
     26     -10.1297      2.00000
     27     -10.1297      2.00000
     28     -10.0938      2.00000
     29     -10.0938      2.00000
     30     -10.0937      2.00000
     31      -8.8763      2.00000
     32      -8.8739      2.00000
     33      -8.8667      2.00000
     34      -8.5055      2.00000
     35      -8.4893      2.00000
     36      -8.4843      2.00000
     37      -7.5924      2.00000
     38      -7.5863      2.00000
     39      -7.5637      2.00000
     40      -7.0318      2.00000
     41      -7.0178      2.00000
     42      -7.0142      2.00000
     43      -2.0393      2.00000
     44      -2.0037      2.00000
     45      -1.9990      2.00000
     46      -1.5095      2.00000
     47      -1.4993      2.00000
     48      -1.4947      2.00000
     49      -1.4163      2.00000
     50      -1.4158      2.00000
     51      -1.4157      2.00000
     52      -1.3117      2.00000
     53      -1.2983      2.00000
     54      -1.2652      2.00000
     55      -1.1927      2.00000
     56      -1.1823      2.00000
     57      -1.1516      2.00000
     58      -1.1096      2.00000
     59      -1.1092      2.00000
     60      -1.1090      2.00000
     61      -0.8187      2.00000
     62      -0.8050      2.00000
     63      -0.8035      2.00000
     64      -0.0211      2.00000
     65       0.0531      2.00000
     66       0.0848      2.00000
     67       0.6701      2.00000
     68       0.7447      2.00000
     69       0.8241      2.00000
     70       1.0654      2.00000
     71       1.0826      2.00000
     72       1.1021      2.00000
     73       1.1782      2.00000
     74       1.2308      2.00000
     75       1.2400      2.00000
     76       1.4091      2.00000
     77       1.5489      2.00000
     78       1.5703      2.00000
     79       1.9275      2.00000
     80       2.0004      2.00000
     81       2.0667      2.00000
     82       2.4505      2.00000
     83       2.6642      2.00000
     84       2.7180      2.00000
     85       2.8532      2.00000
     86       2.9002      2.00000
     87       2.9204      2.00000
     88       3.5153      2.00000
     89       3.5207      2.00000
     90       3.5463      2.00000
     91       3.9689      2.00000
     92       4.0144      2.00000
     93       4.0436      2.00000
     94       6.0675      0.00000
     95       6.1132      0.00000
     96       6.1498      0.00000
     97       6.3554      0.00000
     98       6.3924      0.00000
     99       6.4212      0.00000
    100       7.6425      0.00000
    101       7.6718      0.00000
    102       7.6807      0.00000
    103       8.6237      0.00000
    104       8.6513      0.00000
    105       8.7388      0.00000
    106       9.1998      0.00000
    107       9.2356      0.00000
    108       9.2497      0.00000
    109       9.4651      0.00000
    110       9.4896      0.00000
    111       9.5026      0.00000
    112       9.8769      0.00000

 k-point    61 :       0.3333    0.0833    0.5000
  band No.  band energies     occupation 
      1     -11.1747      2.00000
      2     -11.1747      2.00000
      3     -11.1746      2.00000
      4     -10.8576      2.00000
      5     -10.8576      2.00000
      6     -10.8575      2.00000
      7     -10.7172      2.00000
      8     -10.7171      2.00000
      9     -10.7171      2.00000
     10     -10.6500      2.00000
     11     -10.6499      2.00000
     12     -10.6499      2.00000
     13     -10.5861      2.00000
     14     -10.5861      2.00000
     15     -10.5861      2.00000
     16     -10.5745      2.00000
     17     -10.5744      2.00000
     18     -10.5743      2.00000
     19     -10.2421      2.00000
     20     -10.2421      2.00000
     21     -10.2421      2.00000
     22     -10.1710      2.00000
     23     -10.1709      2.00000
     24     -10.1709      2.00000
     25     -10.1087      2.00000
     26     -10.1087      2.00000
     27     -10.1087      2.00000
     28     -10.0803      2.00000
     29     -10.0802      2.00000
     30     -10.0802      2.00000
     31      -8.5338      2.00000
     32      -8.5296      2.00000
     33      -8.5257      2.00000
     34      -8.2362      2.00000
     35      -8.2286      2.00000
     36      -8.2202      2.00000
     37      -7.4342      2.00000
     38      -7.4256      2.00000
     39      -7.4181      2.00000
     40      -6.8939      2.00000
     41      -6.8904      2.00000
     42      -6.8860      2.00000
     43      -2.2656      2.00000
     44      -2.2571      2.00000
     45      -2.2562      2.00000
     46      -1.6043      2.00000
     47      -1.5839      2.00000
     48      -1.5715      2.00000
     49      -1.4034      2.00000
     50      -1.3989      2.00000
     51      -1.3803      2.00000
     52      -1.3713      2.00000
     53      -1.3658      2.00000
     54      -1.3524      2.00000
     55      -1.2235      2.00000
     56      -1.2201      2.00000
     57      -1.2119      2.00000
     58      -1.1086      2.00000
     59      -1.1053      2.00000
     60      -1.1042      2.00000
     61      -1.0595      2.00000
     62      -1.0451      2.00000
     63      -1.0398      2.00000
     64      -0.3236      2.00000
     65      -0.2709      2.00000
     66      -0.2434      2.00000
     67       0.3930      2.00000
     68       0.4120      2.00000
     69       0.5393      2.00000
     70       0.6264      2.00000
     71       0.7817      2.00000
     72       0.8189      2.00000
     73       0.9098      2.00000
     74       0.9203      2.00000
     75       0.9281      2.00000
     76       1.3332      2.00000
     77       1.3570      2.00000
     78       1.3610      2.00000
     79       1.6032      2.00000
     80       1.6829      2.00000
     81       1.9447      2.00000
     82       2.2875      2.00000
     83       2.4573      2.00000
     84       2.6349      2.00000
     85       2.8210      2.00000
     86       2.8253      2.00000
     87       2.8385      2.00000
     88       3.2788      2.00000
     89       3.2827      2.00000
     90       3.3046      2.00000
     91       3.9263      2.00000
     92       3.9337      2.00000
     93       3.9495      2.00000
     94       5.8512      0.00000
     95       5.9009      0.00000
     96       5.9166      0.00000
     97       6.2285      0.00000
     98       6.2478      0.00000
     99       6.2768      0.00000
    100       7.4577      0.00000
    101       7.4924      0.00000
    102       7.4999      0.00000
    103       8.5302      0.00000
    104       8.5521      0.00000
    105       8.7141      0.00000
    106       9.0530      0.00000
    107       9.1930      0.00000
    108       9.2144      0.00000
    109       9.4357      0.00000
    110       9.4673      0.00000
    111       9.5006      0.00000
    112       9.9390      0.00000

 k-point    62 :       0.4167    0.0833    0.5000
  band No.  band energies     occupation 
      1     -11.2025      2.00000
      2     -11.2024      2.00000
      3     -11.2024      2.00000
      4     -10.8645      2.00000
      5     -10.8644      2.00000
      6     -10.8644      2.00000
      7     -10.7120      2.00000
      8     -10.7119      2.00000
      9     -10.7119      2.00000
     10     -10.6563      2.00000
     11     -10.6562      2.00000
     12     -10.6562      2.00000
     13     -10.6001      2.00000
     14     -10.6000      2.00000
     15     -10.5999      2.00000
     16     -10.5780      2.00000
     17     -10.5780      2.00000
     18     -10.5780      2.00000
     19     -10.2404      2.00000
     20     -10.2403      2.00000
     21     -10.2403      2.00000
     22     -10.1760      2.00000
     23     -10.1759      2.00000
     24     -10.1759      2.00000
     25     -10.0934      2.00000
     26     -10.0933      2.00000
     27     -10.0933      2.00000
     28     -10.0744      2.00000
     29     -10.0743      2.00000
     30     -10.0743      2.00000
     31      -8.2840      2.00000
     32      -8.2801      2.00000
     33      -8.2783      2.00000
     34      -8.0768      2.00000
     35      -8.0737      2.00000
     36      -8.0672      2.00000
     37      -7.3587      2.00000
     38      -7.3545      2.00000
     39      -7.3521      2.00000
     40      -6.8163      2.00000
     41      -6.8153      2.00000
     42      -6.8139      2.00000
     43      -2.5040      2.00000
     44      -2.4947      2.00000
     45      -2.4943      2.00000
     46      -1.8281      2.00000
     47      -1.8197      2.00000
     48      -1.8077      2.00000
     49      -1.3911      2.00000
     50      -1.3722      2.00000
     51      -1.3652      2.00000
     52      -1.3483      2.00000
     53      -1.3475      2.00000
     54      -1.3410      2.00000
     55      -1.2620      2.00000
     56      -1.2547      2.00000
     57      -1.2538      2.00000
     58      -1.0981      2.00000
     59      -1.0974      2.00000
     60      -1.0972      2.00000
     61      -0.9517      2.00000
     62      -0.9454      2.00000
     63      -0.9357      2.00000
     64      -0.4727      2.00000
     65      -0.4666      2.00000
     66      -0.4658      2.00000
     67      -0.0241      2.00000
     68      -0.0047      2.00000
     69       0.1703      2.00000
     70       0.7312      2.00000
     71       0.7611      2.00000
     72       0.7618      2.00000
     73       0.7827      2.00000
     74       0.8024      2.00000
     75       0.8298      2.00000
     76       1.1725      2.00000
     77       1.2544      2.00000
     78       1.3006      2.00000
     79       1.4227      2.00000
     80       1.5830      2.00000
     81       1.7357      2.00000
     82       2.3169      2.00000
     83       2.3579      2.00000
     84       2.5704      2.00000
     85       2.7838      2.00000
     86       2.7884      2.00000
     87       2.8292      2.00000
     88       3.1632      2.00000
     89       3.1688      2.00000
     90       3.1748      2.00000
     91       3.8373      2.00000
     92       3.8507      2.00000
     93       3.9214      2.00000
     94       5.6627      0.00000
     95       5.7598      0.00000
     96       5.7812      0.00000
     97       6.1116      0.00000
     98       6.1779      0.00000
     99       6.2016      0.00000
    100       7.3897      0.00000
    101       7.4024      0.00000
    102       7.4238      0.00000
    103       8.4389      0.00000
    104       8.4528      0.00000
    105       8.6171      0.00000
    106       8.9513      0.00000
    107       9.0920      0.00000
    108       9.1168      0.00000
    109       9.3879      0.00000
    110       9.4172      0.00000
    111       9.4425      0.00000
    112       9.8274      0.00000

 k-point    63 :       0.1667    0.1667    0.5000
  band No.  band energies     occupation 
      1     -11.1133      2.00000
      2     -11.1132      2.00000
      3     -11.1132      2.00000
      4     -10.8488      2.00000
      5     -10.8488      2.00000
      6     -10.8487      2.00000
      7     -10.7330      2.00000
      8     -10.7329      2.00000
      9     -10.7329      2.00000
     10     -10.6369      2.00000
     11     -10.6369      2.00000
     12     -10.6368      2.00000
     13     -10.5988      2.00000
     14     -10.5987      2.00000
     15     -10.5987      2.00000
     16     -10.4955      2.00000
     17     -10.4954      2.00000
     18     -10.4954      2.00000
     19     -10.2733      2.00000
     20     -10.2732      2.00000
     21     -10.2732      2.00000
     22     -10.1476      2.00000
     23     -10.1475      2.00000
     24     -10.1475      2.00000
     25     -10.1467      2.00000
     26     -10.1467      2.00000
     27     -10.1467      2.00000
     28     -10.0949      2.00000
     29     -10.0948      2.00000
     30     -10.0948      2.00000
     31      -8.9181      2.00000
     32      -8.9181      2.00000
     33      -8.9094      2.00000
     34      -8.5389      2.00000
     35      -8.5193      2.00000
     36      -8.5192      2.00000
     37      -7.6209      2.00000
     38      -7.6208      2.00000
     39      -7.5930      2.00000
     40      -7.0536      2.00000
     41      -7.0362      2.00000
     42      -7.0362      2.00000
     43      -2.0046      2.00000
     44      -1.9609      2.00000
     45      -1.9609      2.00000
     46      -1.5115      2.00000
     47      -1.5016      2.00000
     48      -1.5015      2.00000
     49      -1.4223      2.00000
     50      -1.4223      2.00000
     51      -1.4220      2.00000
     52      -1.2850      2.00000
     53      -1.2849      2.00000
     54      -1.2448      2.00000
     55      -1.1813      2.00000
     56      -1.1813      2.00000
     57      -1.1271      2.00000
     58      -1.1109      2.00000
     59      -1.1108      2.00000
     60      -1.1070      2.00000
     61      -0.7204      2.00000
     62      -0.7120      2.00000
     63      -0.7119      2.00000
     64       0.2289      2.00000
     65       0.2290      2.00000
     66       0.2492      2.00000
     67       0.6498      2.00000
     68       0.6498      2.00000
     69       0.6578      2.00000
     70       1.0547      2.00000
     71       1.0548      2.00000
     72       1.0960      2.00000
     73       1.1893      2.00000
     74       1.1893      2.00000
     75       1.2070      2.00000
     76       1.3029      2.00000
     77       1.5912      2.00000
     78       1.5912      2.00000
     79       2.2713      2.00000
     80       2.2714      2.00000
     81       2.3519      2.00000
     82       2.4432      2.00000
     83       2.4445      2.00000
     84       2.4446      2.00000
     85       2.8302      2.00000
     86       2.8302      2.00000
     87       2.9265      2.00000
     88       3.3803      2.00000
     89       3.3803      2.00000
     90       3.4234      2.00000
     91       4.0380      2.00000
     92       4.0514      2.00000
     93       4.0515      2.00000
     94       6.1985      0.00000
     95       6.2813      0.00000
     96       6.2813      0.00000
     97       6.6456      0.00000
     98       6.6456      0.00000
     99       6.6909      0.00000
    100       7.8940      0.00000
    101       7.9037      0.00000
    102       7.9037      0.00000
    103       8.9211      0.00000
    104       8.9212      0.00000
    105       8.9445      0.00000
    106       9.1201      0.00000
    107       9.1248      0.00000
    108       9.1249      0.00000
    109       9.3297      0.00000
    110       9.4034      0.00000
    111       9.4035      0.00000
    112       9.6892      0.00000

 k-point    64 :       0.2500    0.1667    0.5000
  band No.  band energies     occupation 
      1     -11.1607      2.00000
      2     -11.1606      2.00000
      3     -11.1606      2.00000
      4     -10.8517      2.00000
      5     -10.8516      2.00000
      6     -10.8516      2.00000
      7     -10.7242      2.00000
      8     -10.7241      2.00000
      9     -10.7241      2.00000
     10     -10.6412      2.00000
     11     -10.6411      2.00000
     12     -10.6411      2.00000
     13     -10.5948      2.00000
     14     -10.5948      2.00000
     15     -10.5948      2.00000
     16     -10.5438      2.00000
     17     -10.5437      2.00000
     18     -10.5436      2.00000
     19     -10.2875      2.00000
     20     -10.2874      2.00000
     21     -10.2874      2.00000
     22     -10.1542      2.00000
     23     -10.1541      2.00000
     24     -10.1541      2.00000
     25     -10.1283      2.00000
     26     -10.1283      2.00000
     27     -10.1282      2.00000
     28     -10.0828      2.00000
     29     -10.0828      2.00000
     30     -10.0828      2.00000
     31      -8.5795      2.00000
     32      -8.5779      2.00000
     33      -8.5714      2.00000
     34      -8.2651      2.00000
     35      -8.2517      2.00000
     36      -8.2484      2.00000
     37      -7.4705      2.00000
     38      -7.4669      2.00000
     39      -7.4526      2.00000
     40      -6.9169      2.00000
     41      -6.9097      2.00000
     42      -6.9079      2.00000
     43      -2.1362      2.00000
     44      -2.1187      2.00000
     45      -2.1177      2.00000
     46      -1.5179      2.00000
     47      -1.5031      2.00000
     48      -1.4905      2.00000
     49      -1.3965      2.00000
     50      -1.3926      2.00000
     51      -1.3806      2.00000
     52      -1.3697      2.00000
     53      -1.3549      2.00000
     54      -1.3540      2.00000
     55      -1.2013      2.00000
     56      -1.1920      2.00000
     57      -1.1752      2.00000
     58      -1.1023      2.00000
     59      -1.1018      2.00000
     60      -1.1001      2.00000
     61      -1.0360      2.00000
     62      -1.0338      2.00000
     63      -1.0328      2.00000
     64      -0.0978      2.00000
     65      -0.0604      2.00000
     66      -0.0295      2.00000
     67       0.3456      2.00000
     68       0.3749      2.00000
     69       0.3905      2.00000
     70       0.6096      2.00000
     71       0.6353      2.00000
     72       0.6670      2.00000
     73       0.7853      2.00000
     74       0.8362      2.00000
     75       0.8761      2.00000
     76       1.2051      2.00000
     77       1.3589      2.00000
     78       1.4191      2.00000
     79       1.7990      2.00000
     80       1.9182      2.00000
     81       2.0032      2.00000
     82       2.2363      2.00000
     83       2.2557      2.00000
     84       2.4209      2.00000
     85       2.6988      2.00000
     86       2.7560      2.00000
     87       2.7904      2.00000
     88       2.9776      2.00000
     89       3.0307      2.00000
     90       3.0569      2.00000
     91       3.9914      2.00000
     92       4.0024      2.00000
     93       4.0069      2.00000
     94       6.2685      0.00000
     95       6.2809      0.00000
     96       6.2922      0.00000
     97       6.5579      0.00000
     98       6.5827      0.00000
     99       6.5894      0.00000
    100       7.7903      0.00000
    101       7.7964      0.00000
    102       7.8237      0.00000
    103       8.9469      0.00000
    104       8.9898      0.00000
    105       9.0059      0.00000
    106       9.2194      0.00000
    107       9.2431      0.00000
    108       9.2640      0.00000
    109       9.6178      0.00000
    110       9.6956      0.00000
    111       9.7765      0.00000
    112       9.9962      0.00000

 k-point    65 :       0.3333    0.1667    0.5000
  band No.  band energies     occupation 
      1     -11.1935      2.00000
      2     -11.1934      2.00000
      3     -11.1934      2.00000
      4     -10.8545      2.00000
      5     -10.8544      2.00000
      6     -10.8544      2.00000
      7     -10.7197      2.00000
      8     -10.7197      2.00000
      9     -10.7196      2.00000
     10     -10.6442      2.00000
     11     -10.6441      2.00000
     12     -10.6441      2.00000
     13     -10.5906      2.00000
     14     -10.5906      2.00000
     15     -10.5906      2.00000
     16     -10.5744      2.00000
     17     -10.5744      2.00000
     18     -10.5743      2.00000
     19     -10.2957      2.00000
     20     -10.2957      2.00000
     21     -10.2956      2.00000
     22     -10.1599      2.00000
     23     -10.1599      2.00000
     24     -10.1598      2.00000
     25     -10.1084      2.00000
     26     -10.1083      2.00000
     27     -10.1083      2.00000
     28     -10.0809      2.00000
     29     -10.0808      2.00000
     30     -10.0808      2.00000
     31      -8.2689      2.00000
     32      -8.2650      2.00000
     33      -8.2627      2.00000
     34      -8.0461      2.00000
     35      -8.0422      2.00000
     36      -8.0353      2.00000
     37      -7.3913      2.00000
     38      -7.3863      2.00000
     39      -7.3841      2.00000
     40      -6.8176      2.00000
     41      -6.8171      2.00000
     42      -6.8154      2.00000
     43      -2.3475      2.00000
     44      -2.3423      2.00000
     45      -2.3417      2.00000
     46      -1.7500      2.00000
     47      -1.7346      2.00000
     48      -1.7305      2.00000
     49      -1.3769      2.00000
     50      -1.3720      2.00000
     51      -1.3700      2.00000
     52      -1.3501      2.00000
     53      -1.3448      2.00000
     54      -1.3369      2.00000
     55      -1.2249      2.00000
     56      -1.2237      2.00000
     57      -1.2192      2.00000
     58      -1.1256      2.00000
     59      -1.1225      2.00000
     60      -1.1219      2.00000
     61      -0.9812      2.00000
     62      -0.9738      2.00000
     63      -0.9674      2.00000
     64      -0.3296      2.00000
     65      -0.3174      2.00000
     66      -0.3035      2.00000
     67       0.1032      2.00000
     68       0.1121      2.00000
     69       0.2046      2.00000
     70       0.3355      2.00000
     71       0.3515      2.00000
     72       0.3519      2.00000
     73       0.5955      2.00000
     74       0.6631      2.00000
     75       0.6797      2.00000
     76       1.1682      2.00000
     77       1.1994      2.00000
     78       1.2931      2.00000
     79       1.5310      2.00000
     80       1.6037      2.00000
     81       1.7823      2.00000
     82       2.1104      2.00000
     83       2.1380      2.00000
     84       2.2644      2.00000
     85       2.6239      2.00000
     86       2.7042      2.00000
     87       2.7229      2.00000
     88       2.7617      2.00000
     89       2.8469      2.00000
     90       2.9374      2.00000
     91       3.9144      2.00000
     92       3.9190      2.00000
     93       3.9525      2.00000
     94       6.1310      0.00000
     95       6.1799      0.00000
     96       6.2249      0.00000
     97       6.4825      0.00000
     98       6.5142      0.00000
     99       6.5516      0.00000
    100       7.6751      0.00000
    101       7.6782      0.00000
    102       7.7334      0.00000
    103       8.8403      0.00000
    104       8.8942      0.00000
    105       8.9490      0.00000
    106       9.1989      0.00000
    107       9.2197      0.00000
    108       9.2368      0.00000
    109       9.6191      0.00000
    110       9.6993      0.00000
    111       9.8475      0.00000
    112       9.9724      0.00000

 k-point    66 :       0.4167    0.1667    0.5000
  band No.  band energies     occupation 
      1     -11.2051      2.00000
      2     -11.2050      2.00000
      3     -11.2050      2.00000
      4     -10.8560      2.00000
      5     -10.8560      2.00000
      6     -10.8559      2.00000
      7     -10.7184      2.00000
      8     -10.7183      2.00000
      9     -10.7183      2.00000
     10     -10.6456      2.00000
     11     -10.6455      2.00000
     12     -10.6455      2.00000
     13     -10.5886      2.00000
     14     -10.5885      2.00000
     15     -10.5885      2.00000
     16     -10.5845      2.00000
     17     -10.5845      2.00000
     18     -10.5844      2.00000
     19     -10.2984      2.00000
     20     -10.2984      2.00000
     21     -10.2984      2.00000
     22     -10.1621      2.00000
     23     -10.1620      2.00000
     24     -10.1620      2.00000
     25     -10.0934      2.00000
     26     -10.0934      2.00000
     27     -10.0934      2.00000
     28     -10.0878      2.00000
     29     -10.0877      2.00000
     30     -10.0877      2.00000
     31      -8.1186      2.00000
     32      -8.1185      2.00000
     33      -8.1142      2.00000
     34      -7.9764      2.00000
     35      -7.9698      2.00000
     36      -7.9698      2.00000
     37      -7.3740      2.00000
     38      -7.3740      2.00000
     39      -7.3709      2.00000
     40      -6.7829      2.00000
     41      -6.7823      2.00000
     42      -6.7822      2.00000
     43      -2.4575      2.00000
     44      -2.4453      2.00000
     45      -2.4452      2.00000
     46      -1.8625      2.00000
     47      -1.8625      2.00000
     48      -1.8450      2.00000
     49      -1.3703      2.00000
     50      -1.3630      2.00000
     51      -1.3630      2.00000
     52      -1.3420      2.00000
     53      -1.3354      2.00000
     54      -1.3353      2.00000
     55      -1.2373      2.00000
     56      -1.2366      2.00000
     57      -1.2366      2.00000
     58      -1.1135      2.00000
     59      -1.1127      2.00000
     60      -1.1126      2.00000
     61      -0.8757      2.00000
     62      -0.8623      2.00000
     63      -0.8623      2.00000
     64      -0.4481      2.00000
     65      -0.4347      2.00000
     66      -0.4347      2.00000
     67      -0.0856      2.00000
     68      -0.0856      2.00000
     69       0.0481      2.00000
     70       0.2730      2.00000
     71       0.2730      2.00000
     72       0.2989      2.00000
     73       0.6115      2.00000
     74       0.6234      2.00000
     75       0.6234      2.00000
     76       1.0764      2.00000
     77       1.2103      2.00000
     78       1.2104      2.00000
     79       1.4637      2.00000
     80       1.6251      2.00000
     81       1.6252      2.00000
     82       2.0654      2.00000
     83       2.0654      2.00000
     84       2.1750      2.00000
     85       2.5915      2.00000
     86       2.6718      2.00000
     87       2.6718      2.00000
     88       2.7707      2.00000
     89       2.7708      2.00000
     90       2.9381      2.00000
     91       3.8684      2.00000
     92       3.8684      2.00000
     93       3.9438      2.00000
     94       6.0487      0.00000
     95       6.1525      0.00000
     96       6.1525      0.00000
     97       6.4592      0.00000
     98       6.5227      0.00000
     99       6.5228      0.00000
    100       7.6305      0.00000
    101       7.6306      0.00000
    102       7.6974      0.00000
    103       8.8261      0.00000
    104       8.8261      0.00000
    105       8.9062      0.00000
    106       9.1728      0.00000
    107       9.2073      0.00000
    108       9.2073      0.00000
    109       9.5880      0.00000
    110       9.7315      0.00000
    111       9.7315      0.00000
    112       9.8674      0.00000

 k-point    67 :       0.2500    0.2500    0.5000
  band No.  band energies     occupation 
      1     -11.1888      2.00000
      2     -11.1888      2.00000
      3     -11.1888      2.00000
      4     -10.8498      2.00000
      5     -10.8498      2.00000
      6     -10.8497      2.00000
      7     -10.7236      2.00000
      8     -10.7235      2.00000
      9     -10.7235      2.00000
     10     -10.6370      2.00000
     11     -10.6370      2.00000
     12     -10.6369      2.00000
     13     -10.5976      2.00000
     14     -10.5975      2.00000
     15     -10.5975      2.00000
     16     -10.5560      2.00000
     17     -10.5559      2.00000
     18     -10.5559      2.00000
     19     -10.3297      2.00000
     20     -10.3296      2.00000
     21     -10.3296      2.00000
     22     -10.1444      2.00000
     23     -10.1444      2.00000
     24     -10.1443      2.00000
     25     -10.1247      2.00000
     26     -10.1247      2.00000
     27     -10.1246      2.00000
     28     -10.0821      2.00000
     29     -10.0821      2.00000
     30     -10.0820      2.00000
     31      -8.2619      2.00000
     32      -8.2619      2.00000
     33      -8.2565      2.00000
     34      -8.0286      2.00000
     35      -8.0188      2.00000
     36      -8.0188      2.00000
     37      -7.4071      2.00000
     38      -7.4071      2.00000
     39      -7.4004      2.00000
     40      -6.8188      2.00000
     41      -6.8169      2.00000
     42      -6.8169      2.00000
     43      -2.2538      2.00000
     44      -2.2537      2.00000
     45      -2.2532      2.00000
     46      -1.7081      2.00000
     47      -1.6923      2.00000
     48      -1.6923      2.00000
     49      -1.3727      2.00000
     50      -1.3726      2.00000
     51      -1.3696      2.00000
     52      -1.3466      2.00000
     53      -1.3442      2.00000
     54      -1.3441      2.00000
     55      -1.1991      2.00000
     56      -1.1990      2.00000
     57      -1.1819      2.00000
     58      -1.1486      2.00000
     59      -1.1442      2.00000
     60      -1.1441      2.00000
     61      -0.9851      2.00000
     62      -0.9850      2.00000
     63      -0.9839      2.00000
     64      -0.1268      2.00000
     65      -0.0989      2.00000
     66      -0.0989      2.00000
     67      -0.0578      2.00000
     68      -0.0577      2.00000
     69      -0.0524      2.00000
     70       0.1795      2.00000
     71       0.1795      2.00000
     72       0.2080      2.00000
     73       0.6458      2.00000
     74       0.6543      2.00000
     75       0.6543      2.00000
     76       1.2283      2.00000
     77       1.2283      2.00000
     78       1.3095      2.00000
     79       1.5983      2.00000
     80       1.5983      2.00000
     81       1.6171      2.00000
     82       1.9501      2.00000
     83       2.1127      2.00000
     84       2.1128      2.00000
     85       2.4885      2.00000
     86       2.4885      2.00000
     87       2.5379      2.00000
     88       2.8143      2.00000
     89       2.8144      2.00000
     90       2.8200      2.00000
     91       3.9435      2.00000
     92       3.9553      2.00000
     93       3.9554      2.00000
     94       6.4155      0.00000
     95       6.4155      0.00000
     96       6.4821      0.00000
     97       6.6555      0.00000
     98       6.6712      0.00000
     99       6.6712      0.00000
    100       7.7175      0.00000
    101       7.7273      0.00000
    102       7.7273      0.00000
    103       9.1370      0.00000
    104       9.1739      0.00000
    105       9.1739      0.00000
    106       9.4398      0.00000
    107       9.4640      0.00000
    108       9.4641      0.00000
    109       9.7212      0.00000
    110       9.7212      0.00000
    111       9.9630      0.00000
    112      10.3079      0.00000

 k-point    68 :       0.3333    0.2500    0.5000
  band No.  band energies     occupation 
      1     -11.2040      2.00000
      2     -11.2039      2.00000
      3     -11.2039      2.00000
      4     -10.8475      2.00000
      5     -10.8475      2.00000
      6     -10.8474      2.00000
      7     -10.7241      2.00000
      8     -10.7241      2.00000
      9     -10.7240      2.00000
     10     -10.6321      2.00000
     11     -10.6321      2.00000
     12     -10.6321      2.00000
     13     -10.6012      2.00000
     14     -10.6011      2.00000
     15     -10.6011      2.00000
     16     -10.5604      2.00000
     17     -10.5604      2.00000
     18     -10.5604      2.00000
     19     -10.3564      2.00000
     20     -10.3564      2.00000
     21     -10.3563      2.00000
     22     -10.1417      2.00000
     23     -10.1417      2.00000
     24     -10.1416      2.00000
     25     -10.1105      2.00000
     26     -10.1104      2.00000
     27     -10.1104      2.00000
     28     -10.0920      2.00000
     29     -10.0920      2.00000
     30     -10.0919      2.00000
     31      -8.0215      2.00000
     32      -8.0191      2.00000
     33      -8.0183      2.00000
     34      -7.8819      2.00000
     35      -7.8809      2.00000
     36      -7.8772      2.00000
     37      -7.4164      2.00000
     38      -7.4149      2.00000
     39      -7.4146      2.00000
     40      -6.7641      2.00000
     41      -6.7640      2.00000
     42      -6.7639      2.00000
     43      -2.3453      2.00000
     44      -2.3382      2.00000
     45      -2.3340      2.00000
     46      -1.8771      2.00000
     47      -1.8681      2.00000
     48      -1.8597      2.00000
     49      -1.3588      2.00000
     50      -1.3575      2.00000
     51      -1.3568      2.00000
     52      -1.3419      2.00000
     53      -1.3408      2.00000
     54      -1.3393      2.00000
     55      -1.2071      2.00000
     56      -1.2039      2.00000
     57      -1.2008      2.00000
     58      -1.1352      2.00000
     59      -1.1351      2.00000
     60      -1.1345      2.00000
     61      -0.8469      2.00000
     62      -0.8389      2.00000
     63      -0.8384      2.00000
     64      -0.3769      2.00000
     65      -0.3653      2.00000
     66      -0.3633      2.00000
     67      -0.1321      2.00000
     68      -0.1304      2.00000
     69      -0.0991      2.00000
     70      -0.0845      2.00000
     71      -0.0738      2.00000
     72      -0.0649      2.00000
     73       0.5382      2.00000
     74       0.5910      2.00000
     75       0.6565      2.00000
     76       0.9733      2.00000
     77       1.0891      2.00000
     78       1.2120      2.00000
     79       1.5170      2.00000
     80       1.5334      2.00000
     81       1.5431      2.00000
     82       1.7778      2.00000
     83       1.8788      2.00000
     84       1.8838      2.00000
     85       2.3006      2.00000
     86       2.3224      2.00000
     87       2.3460      2.00000
     88       2.7863      2.00000
     89       2.7931      2.00000
     90       2.8622      2.00000
     91       3.8891      2.00000
     92       3.8998      2.00000
     93       3.9313      2.00000
     94       6.4191      0.00000
     95       6.4787      0.00000
     96       6.5280      0.00000
     97       6.7089      0.00000
     98       6.7236      0.00000
     99       6.7266      0.00000
    100       7.5640      0.00000
    101       7.5733      0.00000
    102       7.5919      0.00000
    103       9.1698      0.00000
    104       9.1853      0.00000
    105       9.2287      0.00000
    106       9.5193      0.00000
    107       9.5706      0.00000
    108       9.5750      0.00000
    109       9.7274      0.00000
    110       9.8593      0.00000
    111       9.9523      0.00000
    112      10.5220      0.00000

 k-point    69 :       0.3333    0.3333    0.5000
  band No.  band energies     occupation 
      1     -11.2072      2.00000
      2     -11.2072      2.00000
      3     -11.2072      2.00000
      4     -10.8438      2.00000
      5     -10.8438      2.00000
      6     -10.8437      2.00000
      7     -10.7262      2.00000
      8     -10.7261      2.00000
      9     -10.7261      2.00000
     10     -10.6178      2.00000
     11     -10.6178      2.00000
     12     -10.6177      2.00000
     13     -10.6156      2.00000
     14     -10.6155      2.00000
     15     -10.6155      2.00000
     16     -10.5483      2.00000
     17     -10.5482      2.00000
     18     -10.5482      2.00000
     19     -10.3866      2.00000
     20     -10.3866      2.00000
     21     -10.3866      2.00000
     22     -10.1237      2.00000
     23     -10.1237      2.00000
     24     -10.1237      2.00000
     25     -10.1186      2.00000
     26     -10.1185      2.00000
     27     -10.1185      2.00000
     28     -10.1004      2.00000
     29     -10.1003      2.00000
     30     -10.1003      2.00000
     31      -7.9158      2.00000
     32      -7.9157      2.00000
     33      -7.9157      2.00000
     34      -7.7962      2.00000
     35      -7.7962      2.00000
     36      -7.7962      2.00000
     37      -7.4601      2.00000
     38      -7.4600      2.00000
     39      -7.4599      2.00000
     40      -6.7450      2.00000
     41      -6.7449      2.00000
     42      -6.7448      2.00000
     43      -2.3081      2.00000
     44      -2.3081      2.00000
     45      -2.3080      2.00000
     46      -1.9294      2.00000
     47      -1.9293      2.00000
     48      -1.9293      2.00000
     49      -1.3533      2.00000
     50      -1.3532      2.00000
     51      -1.3532      2.00000
     52      -1.3444      2.00000
     53      -1.3443      2.00000
     54      -1.3443      2.00000
     55      -1.1914      2.00000
     56      -1.1913      2.00000
     57      -1.1913      2.00000
     58      -1.1381      2.00000
     59      -1.1380      2.00000
     60      -1.1380      2.00000
     61      -0.7617      2.00000
     62      -0.7616      2.00000
     63      -0.7616      2.00000
     64      -0.4762      2.00000
     65      -0.4762      2.00000
     66      -0.4762      2.00000
     67      -0.2255      2.00000
     68      -0.2255      2.00000
     69      -0.2255      2.00000
     70      -0.1571      2.00000
     71      -0.1571      2.00000
     72      -0.1571      2.00000
     73       0.6454      2.00000
     74       0.6455      2.00000
     75       0.6455      2.00000
     76       0.9145      2.00000
     77       0.9145      2.00000
     78       0.9145      2.00000
     79       1.5271      2.00000
     80       1.5272      2.00000
     81       1.5272      2.00000
     82       1.7393      2.00000
     83       1.7393      2.00000
     84       1.7394      2.00000
     85       2.1682      2.00000
     86       2.1682      2.00000
     87       2.1683      2.00000
     88       2.8206      2.00000
     89       2.8206      2.00000
     90       2.8207      2.00000
     91       3.8960      2.00000
     92       3.8961      2.00000
     93       3.8961      2.00000
     94       6.6064      0.00000
     95       6.6064      0.00000
     96       6.6064      0.00000
     97       6.7967      0.00000
     98       6.7967      0.00000
     99       6.7967      0.00000
    100       7.4295      0.00000
    101       7.4295      0.00000
    102       7.4295      0.00000
    103       9.2865      0.00000
    104       9.2866      0.00000
    105       9.2866      0.00000
    106       9.7973      0.00000
    107       9.7973      0.00000
    108       9.7973      0.00000
    109       9.9059      0.00000
    110       9.9059      0.00000
    111       9.9060      0.00000
    112      10.7106      0.00000


--------------------------------------------------------------------------------------------------------


 soft charge-density along one line, spin component           1
         0         1         2         3         4         5         6         7         8         9
 total charge-density along one line
 
 pseudopotential strength for first ion, spin component:           1
 -7.589   0.000   0.000   0.002   0.000  -8.078   0.000   0.000
  0.000  -7.641   0.000  -0.000   0.002   0.000  -8.127   0.000
  0.000   0.000  -7.659   0.000  -0.000   0.000   0.000  -8.144
  0.002  -0.000   0.000  -7.641  -0.000   0.002  -0.000   0.000
  0.000   0.002  -0.000  -0.000  -7.589   0.000   0.002  -0.000
 -8.078   0.000   0.000   0.002   0.000  -8.484   0.000   0.000
  0.000  -8.127   0.000  -0.000   0.002   0.000  -8.530   0.000
  0.000   0.000  -8.144   0.000  -0.000   0.000   0.000  -8.546
  0.002  -0.000   0.000  -8.127  -0.000   0.002  -0.000   0.000
  0.000   0.002  -0.000  -0.000  -8.078   0.000   0.002  -0.000
 -0.000   0.000  -0.001  -0.000   0.000  -0.000   0.000  -0.000
 -0.000   0.000  -0.002  -0.000   0.000  -0.000   0.000  -0.002
 -0.000  -0.010  -0.000  -0.000   0.002  -0.000  -0.009  -0.000
 -0.000   0.000  -0.009  -0.000   0.000  -0.000   0.000  -0.009
  0.002  -0.000  -0.000  -0.010   0.000   0.002  -0.000  -0.000
 -0.000  -0.010   0.000  -0.000   0.001  -0.000  -0.010   0.000
 -0.000   0.000  -0.010  -0.000   0.000  -0.000   0.000  -0.010
  0.001  -0.000  -0.000  -0.010   0.000   0.001  -0.000  -0.000
 total augmentation occupancy for first ion, spin component:           1
  3.806   0.000   0.000  -0.492   0.000  -1.817  -0.000  -0.000   0.499   0.000   0.000   0.000  -0.000   0.000   0.665   0.000
  0.000   2.871  -0.000  -0.000  -0.492  -0.000  -0.847   0.000   0.000   0.499   0.000   0.000  -0.303  -0.000   0.000   0.045
  0.000  -0.000   3.734   0.000   0.000  -0.000   0.000  -1.691  -0.000  -0.000   0.595  -0.055   0.000   0.368   0.000  -0.000
 -0.492  -0.000   0.000   2.871   0.000   0.499   0.000  -0.000  -0.847   0.000  -0.000   0.000   0.000  -0.000  -0.303  -0.000
  0.000  -0.492   0.000   0.000   3.806   0.000   0.499  -0.000  -0.000  -1.817   0.000  -0.000   0.665   0.000   0.000  -0.096
 -1.817  -0.000  -0.000   0.499   0.000   1.818   0.000   0.000  -0.505  -0.000   0.000  -0.000   0.000  -0.000  -0.648  -0.000
 -0.000  -0.847   0.000   0.000   0.499   0.000   0.817  -0.000  -0.000  -0.505   0.000  -0.000   0.301   0.000  -0.000  -0.055
 -0.000   0.000  -1.691   0.000  -0.000   0.000  -0.000   1.641   0.000   0.000  -0.605   0.094  -0.000  -0.354  -0.000   0.000
  0.499   0.000   0.000  -0.847   0.000  -0.505  -0.000  -0.000   0.817  -0.000  -0.000  -0.000  -0.000   0.000   0.301   0.000
  0.000   0.499  -0.000   0.000  -1.817  -0.000  -0.505   0.000   0.000   1.818  -0.000   0.000  -0.648  -0.000  -0.000   0.110
  0.000  -0.000   0.595   0.000   0.000   0.000   0.000  -0.605  -0.000  -0.000   2.442  -0.552   0.000   0.074  -0.000   0.000
 -0.000   0.000  -0.055   0.000  -0.000   0.000  -0.000   0.094   0.000   0.000  -0.552   0.154   0.000  -0.011   0.000   0.000
 -0.000  -0.303   0.000   0.000   0.665   0.000   0.301  -0.000  -0.000  -0.648  -0.000   0.000   0.402  -0.000  -0.000  -0.069
  0.000  -0.000   0.368  -0.000   0.000  -0.000   0.000  -0.354   0.000  -0.000   0.074  -0.011  -0.000   0.227   0.000   0.000
  0.665   0.000   0.000  -0.303   0.000  -0.648  -0.000  -0.000   0.301  -0.000   0.000   0.000  -0.000  -0.000   0.402   0.000
  0.000   0.045  -0.000  -0.000  -0.096  -0.000  -0.055   0.000   0.000   0.110   0.000   0.000  -0.069   0.000   0.000   0.014
 -0.000   0.000  -0.069   0.000  -0.000   0.000  -0.000   0.071  -0.000   0.000  -0.019   0.004   0.000  -0.041  -0.000  -0.000
 -0.096  -0.000  -0.000   0.045  -0.000   0.110   0.000   0.000  -0.055   0.000  -0.000  -0.000   0.000  -0.000  -0.069  -0.000


------------------------ aborting loop because EDIFF is reached ----------------------------------------


    CHARGE:  cpu time    2.1908: real time    2.1965
    FORLOC:  cpu time    0.0207: real time    0.0207
    FORNL :  cpu time   17.2069: real time   17.2522
    STRESS:  cpu time   34.5914: real time   34.6826
    FORCOR:  cpu time    0.1044: real time    0.1047
    FORHAR:  cpu time    0.0370: real time    0.0371
    MIXING:  cpu time    0.0043: real time    0.0043
    OFIELD:  cpu time    0.0000: real time    0.0000

 ---------------------------------------------------------------------------------------------

         DFTD3 V3.0 Rev 1        
 IVDW         = 12
 DF pbe       
 parameters
 VDW_S6       =    1.0000
 VDW_S8       =    0.7875
 VDW_A1       =    0.4289
 VDW_A2       =    4.4407
 k1-k3        =   16.0000    1.3333   -4.0000
 VDW_RADIUS   =   50.2022 A
 VDW_CNRADIUS =   21.1671 A
 Edisp (eV)   -6.31346

 E6    (eV) :    -3.6870
 E8    (eV) :    -2.6264
 % E8        : 41.60
    FORVDW:  cpu time    0.0590: real time    0.0622

  FORCE on cell =-STRESS in cart. coord.  units (eV):
  Direction    XX          YY          ZZ          XY          YZ          ZX
  --------------------------------------------------------------------------------------
  Alpha Z   437.53732   437.53732   437.53732
  Ewald   -3594.58516 -3594.58516 -4993.37472     0.00000     0.00000     0.00000
  Hartree  2246.20551  2246.20552  1242.48036    -0.00000    -0.00000    -0.00000
  E(xc)    -868.50190  -868.50190  -868.89860     0.00000    -0.00000     0.00000
  Local   -1867.24421 -1867.24478   519.00637    -0.00048     0.00000     0.00000
  n-local   995.71312  1009.44535   994.17048   -18.08379     0.28544     1.70404
  augment   872.36265   872.36315   872.79510     0.00043     0.00000    -0.00000
  Kinetic  1759.93102  1797.21479  1803.27169   -40.23281    -0.43354     1.13406
  Fock        0.00000     0.00000     0.00000     0.00000     0.00000     0.00000
  vdW        -6.89761    -6.89761    -6.95848    -0.00000     0.00000    -0.00000
  -------------------------------------------------------------------------------------
  Total       0.02872     0.02872     0.02953    -0.00000    -0.00000    -0.00000
  in kB       0.09653     0.09653     0.09925    -0.00000    -0.00000    -0.00000
  external pressure =        0.10 kB  Pullay stress =        0.00 kB


 VOLUME and BASIS-vectors are now :
 -----------------------------------------------------------------------------
  energy-cutoff  :      500.00
  volume of cell :      476.63
      direct lattice vectors                 reciprocal lattice vectors
     3.883398674 -0.000000000  0.000000000     0.257506397  0.148671388  0.000000000
    -1.941699337  3.363121905  0.000000000     0.000000000  0.297342775  0.000000000
     0.000000000 -0.000000000 36.494482674     0.000000000  0.000000000  0.027401402

  length of vectors
     3.883398674  3.883398674 36.494482674     0.297342775  0.297342775  0.027401402


 FORCES acting on ions
    electron-ion (+dipol)            ewald-force                    non-local-force                 convergence-correction
 -----------------------------------------------------------------------------------------------
   -.700E-05 -.233E-05 -.807E+02   -.104E-04 -.564E-05 0.832E+02   0.139E-16 -.270E-16 -.250E+01   -.102E-07 0.966E-08 -.184E-02
   0.112E-06 -.501E-05 -.807E+02   0.108E-04 -.623E-05 0.832E+02   0.416E-16 0.761E-18 -.250E+01   -.163E-07 0.104E-07 -.185E-02
   -.537E-06 0.199E-05 -.807E+02   -.333E-06 0.119E-04 0.832E+02   -.278E-16 0.761E-18 -.250E+01   -.136E-07 0.490E-08 -.185E-02
   0.711E-06 0.766E-06 0.492E+02   0.542E-05 0.740E-05 -.464E+02   0.104E-16 -.200E-16 -.279E+01   -.174E-08 -.306E-08 -.281E-02
   -.139E-04 -.700E-05 0.492E+02   -.960E-05 0.121E-05 -.464E+02   0.000E+00 -.130E-16 -.279E+01   0.343E-08 -.421E-09 -.280E-02
   0.993E-06 -.158E-04 0.492E+02   0.418E-05 -.861E-05 -.464E+02   -.694E-17 -.200E-16 -.279E+01   -.177E-08 0.273E-08 -.276E-02
   0.107E-05 0.256E-06 0.438E+02   0.699E-05 0.378E-05 -.432E+02   -.763E-16 0.418E-16 -.653E+00   0.746E-09 -.273E-08 0.475E-02
   -.197E-04 -.101E-04 0.438E+02   -.722E-05 0.416E-05 -.432E+02   -.486E-16 0.418E-16 -.653E+00   0.749E-08 -.137E-08 0.480E-02
   0.915E-06 -.229E-04 0.438E+02   0.231E-06 -.795E-05 -.432E+02   0.000E+00 0.280E-16 -.653E+00   0.257E-08 0.368E-08 0.473E-02
   -.632E-05 -.409E-05 -.114E+03   0.106E-04 0.572E-05 0.117E+03   0.153E-15 -.822E-16 -.338E+01   0.630E-08 -.432E-08 0.679E-03
   -.252E-04 -.221E-04 -.114E+03   -.109E-04 0.631E-05 0.117E+03   0.416E-16 -.267E-16 -.338E+01   0.838E-08 -.389E-08 0.679E-03
   0.132E-05 -.298E-04 -.114E+03   0.342E-06 -.120E-04 0.117E+03   0.278E-16 0.103E-17 -.338E+01   0.684E-08 -.233E-08 0.674E-03
   -.227E-05 -.140E-05 0.717E+02   0.382E-05 0.231E-05 -.687E+02   0.000E+00 -.546E-16 -.301E+01   -.317E-09 -.563E-09 -.252E-02
   -.331E-04 -.204E-04 0.717E+02   -.417E-05 0.216E-05 -.687E+02   -.139E-16 0.842E-16 -.301E+01   0.235E-08 0.623E-09 -.250E-02
   0.877E-06 -.377E-04 0.717E+02   0.350E-06 -.447E-05 -.687E+02   -.278E-16 0.842E-16 -.301E+01   -.173E-09 0.233E-08 -.253E-02
   0.359E-06 -.290E-05 -.676E+02   0.426E-07 0.640E-05 0.696E+02   0.111E-15 0.284E-16 -.206E+01   -.334E-09 -.663E-09 -.804E-03
   -.311E-04 -.165E-04 -.676E+02   -.575E-05 -.285E-05 0.696E+02   -.278E-16 0.627E-18 -.206E+01   0.144E-08 0.646E-09 -.817E-03
   -.169E-05 -.368E-04 -.676E+02   0.571E-05 -.354E-05 0.696E+02   0.278E-16 0.284E-16 -.206E+01   -.706E-09 0.154E-08 -.819E-03
   0.195E-06 -.424E-05 0.105E+03   -.229E-06 0.807E-05 -.111E+03   -.486E-16 0.951E-16 0.676E+01   -.301E-09 -.653E-09 0.449E-02
   -.298E-04 -.162E-04 0.105E+03   -.710E-05 -.384E-05 -.111E+03   -.139E-16 -.298E-16 0.676E+01   0.533E-09 0.642E-09 0.449E-02
   -.263E-05 -.360E-04 0.105E+03   0.733E-05 -.423E-05 -.111E+03   -.555E-16 0.118E-16 0.676E+01   -.108E-08 0.759E-09 0.452E-02
 -----------------------------------------------------------------------------------------------
   -.167E-03 -.288E-03 0.229E+02   0.383E-13 -.519E-13 0.469E-12   0.798E-16 0.174E-15 -.229E+02   -.648E-08 0.179E-07 0.592E-02
 
 
 POSITION                                       TOTAL-FORCE (eV/Angst)
 -----------------------------------------------------------------------------------
      1.94170      1.12104      3.96325         0.000000     -0.000000      0.005478
     -0.00000      2.24208     16.12808         0.000000     -0.000000      0.005478
      0.00000     -0.00000     28.29291         0.000000     -0.000000      0.005478
      0.00000     -0.00000      0.16293        -0.000000      0.000000     -0.001937
      1.94170      1.12104     12.32776         0.000000      0.000000     -0.001937
     -0.00000      2.24208     24.49259        -0.000000      0.000000     -0.001937
      0.00000     -0.00000      8.35037         0.000000     -0.000000      0.002105
      1.94170      1.12104     20.51520         0.000000     -0.000000      0.002105
     -0.00000      2.24208     32.68003         0.000000     -0.000000      0.002105
      0.00000     -0.00000      4.51037        -0.000000      0.000000     -0.004244
      1.94170      1.12104     16.67519        -0.000000      0.000000     -0.004244
     -0.00000      2.24208     28.84002        -0.000000      0.000000     -0.004244
      0.00000     -0.00000     10.80334         0.000000     -0.000000      0.004713
      1.94170      1.12104     22.96817         0.000000     -0.000000      0.004713
     -0.00000      2.24208     35.13300         0.000000     -0.000000      0.004713
      0.00000     -0.00000     25.75489         0.000000      0.000000     -0.004587
      1.94170      1.12104      1.42523        -0.000000      0.000000     -0.004587
     -0.00000      2.24208     13.59006        -0.000000      0.000000     -0.004587
      0.00000     -0.00000     31.60864        -0.000000      0.000000     -0.001527
      1.94170      1.12104      7.27899        -0.000000      0.000000     -0.001527
     -0.00000      2.24208     19.44382        -0.000000      0.000000     -0.001527
 -----------------------------------------------------------------------------------
    total drift:                               -0.000167     -0.000288     -0.000852


--------------------------------------------------------------------------------------------------------



  FREE ENERGIE OF THE ION-ELECTRON SYSTEM (eV)
  ---------------------------------------------------
  free  energy   TOTEN  =       -86.24598186 eV

  energy  without entropy=      -86.24598186  energy(sigma->0) =      -86.24598186
 


--------------------------------------------------------------------------------------------------------


    POTLOK:  cpu time    0.3835: real time    0.3846


--------------------------------------------------------------------------------------------------------


     LOOP+:  cpu time  963.0523: real time  966.2357
    4ORBIT:  cpu time    0.0000: real time    0.0000
 BZINTS: Fermi energy:  4.524887;186.000000 electrons
         Band energy:-765.511884;  BLOECHL correction:  0.000000

 total amount of memory used by VASP MPI-rank0   643792. kBytes
=======================================================================

   base      :      30000. kBytes
   nonl-proj :     367274. kBytes
   fftplans  :      31732. kBytes
   grid      :      22064. kBytes
   one-center:        326. kBytes
   wavefun   :     192396. kBytes
 
  
  
 General timing and accounting informations for this job:
 ========================================================
  
                  Total CPU time used (sec):      974.474
                            User time (sec):      971.391
                          System time (sec):        3.083
                         Elapsed time (sec):      978.238
  
                   Maximum memory used (kb):      769380.
                   Average memory used (kb):           0.
  
                          Minor page faults:       188450
                          Major page faults:            4
                 Voluntary context switches:         2421
