ZnIn2S4 bulk final static SCF           
           1
     3.883399   -0.000000    0.000000
    -1.941699    3.363122    0.000000
     0.000000   -0.000000   36.494483
   Zn   In   S 
   3   6  12
Direct configuration=     1
   0.66666669  0.33333334  0.10859869
   0.33333334  0.66666669  0.44193202
   0.00000000  0.00000000  0.77526533
   0.00000000  0.00000000  0.00446460
   0.66666669  0.33333334  0.33779794
   0.33333334  0.66666669  0.67113129
   0.00000000  0.00000000  0.22881194
   0.66666669  0.33333334  0.56214529
   0.33333334  0.66666669  0.89547860
   0.00000000  0.00000000  0.12359033
   0.66666669  0.33333334  0.45692366
   0.33333334  0.66666669  0.79025701
   0.00000000  0.00000000  0.29602671
   0.66666669  0.33333334  0.62936005
   0.33333334  0.66666669  0.96269337
   0.00000000  0.00000000  0.70571997
   0.66666669  0.33333334  0.03905331
   0.33333334  0.66666669  0.37238663
   0.00000000  0.00000000  0.86612112
   0.66666669  0.33333334  0.19945445
   0.33333334  0.66666669  0.53278781
