 vasp.5.4.4.18Apr17-6-g9f103f2a35 (build Feb 10 2022 16:34:21) complex          
  
 executed on         VASP-optcell date 2026.09.04  11:15:59
 running on    8 total cores
 distrk:  each k-point on    8 cores,    1 groups
 distr:  one band on NCORES_PER_BAND=   1 cores,    8 groups


--------------------------------------------------------------------------------------------------------


 INCAR:
 POTCAR:    PAW_PBE In_d 06Sep2000                
 POTCAR:    PAW_PBE Zn 06Sep2000                  
 POTCAR:    PAW_PBE S 06Sep2000                   

 ----------------------------------------------------------------------------- 
|                                                                             |
|           W    W    AA    RRRRR   N    N  II  N    N   GGGG   !!!           |
|           W    W   A  A   R    R  NN   N  II  NN   N  G    G  !!!           |
|           W    W  A    A  R    R  N N  N  II  N N  N  G       !!!           |
|           W WW W  AAAAAA  RRRRR   N  N N  II  N  N N  G  GGG   !            |
|           WW  WW  A    A  R   R   N   NN  II  N   NN  G    G                |
|           W    W  A    A  R    R  N    N  II  N    N   GGGG   !!!           |
|                                                                             |
|      For optimal performance we recommend to set                            |
|        NCORE= 4 - approx SQRT( number of cores)                             |
|      NCORE specifies how many cores store one orbital (NPAR=cpu/NCORE).     |
|      This setting can  greatly improve the performance of VASP for DFT.     |
|      The default,   NCORE=1            might be grossly inefficient         |
|      on modern multi-core architectures or massively parallel machines.     |
|      Do your own testing !!!!                                               |
|      Unfortunately you need to use the default for GW and RPA calculations. |
|      (for HF NCORE is supported but not extensively tested yet)             |
|                                                                             |
 ----------------------------------------------------------------------------- 

 POTCAR:    PAW_PBE In_d 06Sep2000                
   VRHFIN =In: s2p1                                                             
   LEXCH  = PE                                                                  
   EATOM  =  1576.8302 eV,  115.8937 Ry                                         
                                                                                
   TITEL  = PAW_PBE In_d 06Sep2000                                              
   LULTRA =        F    use ultrasoft PP ?                                      
   IUNSCR =        1    unscreen: 0-lin 1-nonlin 2-no                           
   RPACOR =    2.200    partial core radius                                     
   POMASS =  114.820; ZVAL   =   13.000    mass and valenz                      
   RCORE  =    2.500    outmost cutoff radius                                   
   RWIGS  =    3.170; RWIGS  =    1.677    wigner-seitz radius (au A)           
   ENMAX  =  239.211; ENMIN  =  179.409 eV                                      
   ICORE  =        3    local potential                                         
   LCOR   =        T    correct aug charges                                     
   LPAW   =        T    paw PP                                                  
   EAUG   =  449.704                                                            
   DEXC   =    0.000                                                            
   RMAX   =    2.552    core radius for proj-oper                               
   RAUG   =    1.300    factor for augmentation sphere                          
   RDEP   =    2.630    radius for radial grids                                 
   RDEPT  =    2.033    core radius for aug-charge                              
                                                                                
   Atomic configuration                                                         
   12 entries                                                                   
     n  l   j            E        occ.                                          
     1  0  0.50    -27747.9169   2.0000                                         
     2  0  0.50     -4154.4438   2.0000                                         
     2  1  1.50     -3728.4305   6.0000                                         
     3  0  0.50      -788.3680   2.0000                                         
     3  1  1.50      -648.9215   6.0000                                         
     3  2  2.50      -432.5893  10.0000                                         
     4  0  0.50      -119.6363   2.0000                                         
     4  1  1.50       -78.1086   6.0000                                         
     4  2  2.50       -18.6227  10.0000                                         
     5  0  0.50        -8.2107   2.0000                                         
     5  1  0.50        -2.5185   1.0000                                         
     4  3  2.50        -2.7212   0.0000                                         
   Description                                                                  
     l       E           TYP  RCUT    TYP  RCUT                                 
     2    -18.6226981     23  2.500                                             
     2     -1.3605826     23  2.500                                             
     0     -8.2107305     23  2.500                                             
     0     -6.1485975     23  2.500                                             
     1     -2.5184867     23  2.500                                             
     1      3.2427302     23  2.500                                             
     3     -1.3605826      7  2.500                                             
  local pseudopotential read in
  partial core-charges read in
  partial kinetic energy density read in
  atomic valenz-charges read in
  non local Contribution for L=           2  read in
    real space projection operators read in
  non local Contribution for L=           2  read in
    real space projection operators read in
  non local Contribution for L=           0  read in
    real space projection operators read in
  non local Contribution for L=           0  read in
    real space projection operators read in
  non local Contribution for L=           1  read in
    real space projection operators read in
  non local Contribution for L=           1  read in
    real space projection operators read in
    PAW grid and wavefunctions read in
 
   number of l-projection  operators is LMAX  =           6
   number of lm-projection operators is LMMAX =          18
 
 POTCAR:    PAW_PBE Zn 06Sep2000                  
   VRHFIN =Zn: d10 p2                                                           
   LEXCH  = PE                                                                  
   EATOM  =  1748.8345 eV,  128.5357 Ry                                         
                                                                                
   TITEL  = PAW_PBE Zn 06Sep2000                                                
   LULTRA =        F    use ultrasoft PP ?                                      
   IUNSCR =        1    unscreen: 0-lin 1-nonlin 2-no                           
   RPACOR =    2.000    partial core radius                                     
   POMASS =   65.390; ZVAL   =   12.000    mass and valenz                      
   RCORE  =    2.300    outmost cutoff radius                                   
   RWIGS  =    2.400; RWIGS  =    1.270    wigner-seitz radius (au A)           
   ENMAX  =  276.723; ENMIN  =  207.542 eV                                      
   RCLOC  =    1.828    cutoff for local pot                                    
   LCOR   =        T    correct aug charges                                     
   LPAW   =        T    paw PP                                                  
   EAUG   =  575.892                                                            
   DEXC   =    0.000                                                            
   RMAX   =    2.347    core radius for proj-oper                               
   RAUG   =    1.300    factor for augmentation sphere                          
   RDEP   =    2.324    radius for radial grids                                 
   RDEPT  =    1.788    core radius for aug-charge                              
                                                                                
   Atomic configuration                                                         
    9 entries                                                                   
     n  l   j            E        occ.                                          
     1  0  0.50     -9524.6913   2.0000                                         
     2  0  0.50     -1158.1882   2.0000                                         
     2  1  1.50     -1003.8506   6.0000                                         
     3  0  0.50      -129.2194   2.0000                                         
     3  1  1.50       -83.3890   6.0000                                         
     3  2  2.50       -10.1410  10.0000                                         
     4  0  0.50        -5.9785   2.0000                                         
     4  1  0.50        -4.0817   0.0000                                         
     4  3  2.50        -1.3606   0.0000                                         
   Description                                                                  
     l       E           TYP  RCUT    TYP  RCUT                                 
     2    -10.1410010     23  2.300                                             
     2    -11.5015836     23  2.300                                             
     0     -5.9785163     23  2.300                                             
     0      1.1858015     23  2.300                                             
     1     -2.7211652     23  2.300                                             
     1     13.2444212     23  2.300                                             
  local pseudopotential read in
  partial core-charges read in
  partial kinetic energy density read in
  atomic valenz-charges read in
  non local Contribution for L=           2  read in
    real space projection operators read in
  non local Contribution for L=           2  read in
    real space projection operators read in
  non local Contribution for L=           0  read in
    real space projection operators read in
  non local Contribution for L=           0  read in
    real space projection operators read in
  non local Contribution for L=           1  read in
    real space projection operators read in
  non local Contribution for L=           1  read in
    real space projection operators read in
    PAW grid and wavefunctions read in
 
   number of l-projection  operators is LMAX  =           6
   number of lm-projection operators is LMMAX =          18
 
 POTCAR:    PAW_PBE S 06Sep2000                   
   VRHFIN =S : s2p4                                                             
   LEXCH  = PE                                                                  
   EATOM  =   276.8230 eV,   20.3459 Ry                                         
                                                                                
   TITEL  = PAW_PBE S 06Sep2000                                                 
   LULTRA =        F    use ultrasoft PP ?                                      
   IUNSCR =        1    unscreen: 0-lin 1-nonlin 2-no                           
   RPACOR =    1.500    partial core radius                                     
   POMASS =   32.066; ZVAL   =    6.000    mass and valenz                      
   RCORE  =    1.900    outmost cutoff radius                                   
   RWIGS  =    2.200; RWIGS  =    1.164    wigner-seitz radius (au A)           
   ENMAX  =  258.689; ENMIN  =  194.016 eV                                      
   ICORE  =        2    local potential                                         
   LCOR   =        T    correct aug charges                                     
   LPAW   =        T    paw PP                                                  
   EAUG   =  335.092                                                            
   DEXC   =    0.000                                                            
   RMAX   =    1.942    core radius for proj-oper                               
   RAUG   =    1.300    factor for augmentation sphere                          
   RDEP   =    1.954    radius for radial grids                                 
   RDEPT  =    1.744    core radius for aug-charge                              
                                                                                
   Atomic configuration                                                         
    6 entries                                                                   
     n  l   j            E        occ.                                          
     1  0  0.50     -2405.8406   2.0000                                         
     2  0  0.50      -211.7007   2.0000                                         
     2  1  1.50      -156.4958   6.0000                                         
     3  0  0.50       -17.2562   2.0000                                         
     3  1  0.50        -7.0085   4.0000                                         
     3  2  1.50        -6.8029   0.0000                                         
   Description                                                                  
     l       E           TYP  RCUT    TYP  RCUT                                 
     0    -17.2561641     23  1.900                                             
     0    -15.8743224     23  1.900                                             
     1     -7.0085400     23  1.900                                             
     1     -2.7779785     23  1.900                                             
     2     -6.8029130     23  1.900                                             
  local pseudopotential read in
  partial core-charges read in
  partial kinetic energy density read in
  atomic valenz-charges read in
  non local Contribution for L=           0  read in
    real space projection operators read in
  non local Contribution for L=           0  read in
    real space projection operators read in
  non local Contribution for L=           1  read in
    real space projection operators read in
  non local Contribution for L=           1  read in
    real space projection operators read in
    PAW grid and wavefunctions read in
 
   number of l-projection  operators is LMAX  =           4
   number of lm-projection operators is LMMAX =           8
 
  PAW_PBE In_d 06Sep2000                :
 energy of atom  1       EATOM=-1576.8302
 kinetic energy error for atom=    0.0036 (will be added to EATOM!!)
  PAW_PBE Zn 06Sep2000                  :
 energy of atom  2       EATOM=-1748.8345
 kinetic energy error for atom=    0.0029 (will be added to EATOM!!)
  PAW_PBE S 06Sep2000                   :
 energy of atom  3       EATOM= -276.8230
 kinetic energy error for atom=    0.0020 (will be added to EATOM!!)
 
 
 POSCAR: In2 S4 Zn                               
  positions in direct lattice
  velocities in cartesian coordinates
 exchange correlation table for  LEXCH =        8
   RHO(1)=    0.500       N(1)  =     2000
   RHO(2)=  100.500       N(2)  =     4000
 


--------------------------------------------------------------------------------------------------------


 ion  position               nearest neighbor table
   1  0.333  0.667  0.093-  11 2.45   9 2.49   9 2.49   9 2.49
   2  0.667  0.333  0.593-  12 2.45  10 2.49  10 2.49  10 2.49
   3  0.667  0.333  0.257-  13 2.57  13 2.57  13 2.57  11 2.71  11 2.71  11 2.71
   4  0.333  0.667  0.757-  14 2.57  14 2.57  14 2.57  12 2.71  12 2.71  12 2.71
   5  0.000  0.000  0.413-   7 2.31   7 2.31   7 2.31  13 2.54
   6  0.000  0.000  0.913-   8 2.31   8 2.31   8 2.31  14 2.54
   7  0.667  0.333  0.435-   5 2.31   5 2.31   5 2.31
   8  0.333  0.667  0.935-   6 2.31   6 2.31   6 2.31
   9  0.000  0.000  0.049-   1 2.49   1 2.49   1 2.49
  10  0.000  0.000  0.549-   2 2.49   2 2.49   2 2.49
  11  0.333  0.667  0.194-   1 2.45   3 2.71   3 2.71   3 2.71
  12  0.667  0.333  0.694-   2 2.45   4 2.71   4 2.71   4 2.71
  13  0.000  0.000  0.309-   5 2.54   3 2.57   3 2.57   3 2.57
  14  0.000  0.000  0.809-   6 2.54   4 2.57   4 2.57   4 2.57
 
  LATTYP: Found a hexagonal cell.
 ALAT       =     3.8833466124
 C/A-ratio  =     6.2708217685
  
  Lattice vectors:
  
 A1 = (   3.8833466123,   0.0000000000,   0.0000000000)
 A2 = (  -1.9416733062,   3.3630768180,   0.0000000000)
 A3 = (   0.0000000000,   0.0000000000,  24.3517744715)


Analysis of symmetry for initial positions (statically):
=====================================================================
 Subroutine PRICEL returns:
 Original cell was already a primitive cell.
 

 Routine SETGRP: Setting up the symmetry group for a 
 hexagonal supercell.


 Subroutine GETGRP returns: Found 12 space group operations
 (whereof  6 operations were pure point group operations)
 out of a pool of 24 trial point group operations.


The static configuration has the point symmetry C_3v.
 The point group associated with its full space group is C_6v.


Analysis of symmetry for dynamics (positions and initial velocities):
=====================================================================
 Subroutine PRICEL returns:
 Original cell was already a primitive cell.
 

 Routine SETGRP: Setting up the symmetry group for a 
 hexagonal supercell.


 Subroutine GETGRP returns: Found 12 space group operations
 (whereof  6 operations were pure point group operations)
 out of a pool of 24 trial point group operations.


The dynamic configuration has the point symmetry C_3v.
 The point group associated with its full space group is C_6v.


 Subroutine INISYM returns: Found 12 space group operations
 (whereof  6 operations are pure point group operations),
 and found     1 'primitive' translations

 
 
 KPOINTS: DOS / PDOS                              

Automatic generation of k-mesh.
Space group operators:
 irot       det(A)        alpha          n_x          n_y          n_z        tau_x        tau_y        tau_z
    1     1.000000     0.000000     1.000000     0.000000     0.000000     0.000000     0.000000     0.000000
    2     1.000000   120.000000     0.000000     0.000000    -1.000000     0.000000     0.000000     0.000000
    3     1.000000   120.000000     0.000000     0.000000     1.000000     0.000000     0.000000     0.000000
    4    -1.000000   180.000000     1.000000     0.000000     0.000000     0.000000     0.000000     0.000000
    5    -1.000000   180.000000     0.500000    -0.866025     0.000000     0.000000     0.000000     0.000000
    6    -1.000000   180.000000    -0.500000    -0.866025     0.000000     0.000000     0.000000     0.000000
    7     1.000000    60.000000     0.000000     0.000000    -1.000000     0.000000     0.000000     0.500000
    8     1.000000   180.000000     0.000000     0.000000     1.000000     0.000000     0.000000     0.500000
    9     1.000000    60.000000     0.000000     0.000000     1.000000     0.000000     0.000000     0.500000
   10    -1.000000   180.000000     0.866025    -0.500000     0.000000     0.000000     0.000000     0.500000
   11    -1.000000   180.000000     0.000000     1.000000     0.000000     0.000000     0.000000     0.500000
   12    -1.000000   180.000000     0.866025     0.500000     0.000000     0.000000     0.000000     0.500000
 
 Subroutine IBZKPT returns following result:
 ===========================================
 
 Found    148 irreducible k-points:
 
 Following reciprocal coordinates:
            Coordinates               Weight
  0.000000  0.000000  0.000000      1.000000
  0.055556  0.000000  0.000000      6.000000
  0.111111  0.000000  0.000000      6.000000
  0.166667  0.000000  0.000000      6.000000
  0.222222  0.000000  0.000000      6.000000
  0.277778  0.000000  0.000000      6.000000
  0.333333  0.000000  0.000000      6.000000
  0.388889  0.000000  0.000000      6.000000
  0.444444  0.000000  0.000000      6.000000
  0.500000  0.000000  0.000000      3.000000
  0.055556  0.055556  0.000000      6.000000
  0.111111  0.055556  0.000000     12.000000
  0.166667  0.055556  0.000000     12.000000
  0.222222  0.055556  0.000000     12.000000
  0.277778  0.055556  0.000000     12.000000
  0.333333  0.055556  0.000000     12.000000
  0.388889  0.055556  0.000000     12.000000
  0.444444  0.055556  0.000000     12.000000
  0.111111  0.111111  0.000000      6.000000
  0.166667  0.111111  0.000000     12.000000
  0.222222  0.111111  0.000000     12.000000
  0.277778  0.111111  0.000000     12.000000
  0.333333  0.111111  0.000000     12.000000
  0.388889  0.111111  0.000000     12.000000
  0.444444  0.111111  0.000000      6.000000
  0.166667  0.166667  0.000000      6.000000
  0.222222  0.166667  0.000000     12.000000
  0.277778  0.166667  0.000000     12.000000
  0.333333  0.166667  0.000000     12.000000
  0.388889  0.166667  0.000000     12.000000
  0.222222  0.222222  0.000000      6.000000
  0.277778  0.222222  0.000000     12.000000
  0.333333  0.222222  0.000000     12.000000
  0.388889  0.222222  0.000000      6.000000
  0.277778  0.277778  0.000000      6.000000
  0.333333  0.277778  0.000000     12.000000
  0.333333  0.333333  0.000000      2.000000
  0.000000  0.000000  0.166667      2.000000
  0.055556  0.000000  0.166667     12.000000
  0.111111  0.000000  0.166667     12.000000
  0.166667  0.000000  0.166667     12.000000
  0.222222  0.000000  0.166667     12.000000
  0.277778  0.000000  0.166667     12.000000
  0.333333  0.000000  0.166667     12.000000
  0.388889  0.000000  0.166667     12.000000
  0.444444  0.000000  0.166667     12.000000
  0.500000  0.000000  0.166667      6.000000
  0.055556  0.055556  0.166667     12.000000
  0.111111  0.055556  0.166667     24.000000
  0.166667  0.055556  0.166667     24.000000
  0.222222  0.055556  0.166667     24.000000
  0.277778  0.055556  0.166667     24.000000
  0.333333  0.055556  0.166667     24.000000
  0.388889  0.055556  0.166667     24.000000
  0.444444  0.055556  0.166667     24.000000
  0.111111  0.111111  0.166667     12.000000
  0.166667  0.111111  0.166667     24.000000
  0.222222  0.111111  0.166667     24.000000
  0.277778  0.111111  0.166667     24.000000
  0.333333  0.111111  0.166667     24.000000
  0.388889  0.111111  0.166667     24.000000
  0.444444  0.111111  0.166667     12.000000
  0.166667  0.166667  0.166667     12.000000
  0.222222  0.166667  0.166667     24.000000
  0.277778  0.166667  0.166667     24.000000
  0.333333  0.166667  0.166667     24.000000
  0.388889  0.166667  0.166667     24.000000
  0.222222  0.222222  0.166667     12.000000
  0.277778  0.222222  0.166667     24.000000
  0.333333  0.222222  0.166667     24.000000
  0.388889  0.222222  0.166667     12.000000
  0.277778  0.277778  0.166667     12.000000
  0.333333  0.277778  0.166667     24.000000
  0.333333  0.333333  0.166667      4.000000
  0.000000  0.000000  0.333333      2.000000
  0.055556  0.000000  0.333333     12.000000
  0.111111  0.000000  0.333333     12.000000
  0.166667  0.000000  0.333333     12.000000
  0.222222  0.000000  0.333333     12.000000
  0.277778  0.000000  0.333333     12.000000
  0.333333  0.000000  0.333333     12.000000
  0.388889  0.000000  0.333333     12.000000
  0.444444  0.000000  0.333333     12.000000
  0.500000  0.000000  0.333333      6.000000
  0.055556  0.055556  0.333333     12.000000
  0.111111  0.055556  0.333333     24.000000
  0.166667  0.055556  0.333333     24.000000
  0.222222  0.055556  0.333333     24.000000
  0.277778  0.055556  0.333333     24.000000
  0.333333  0.055556  0.333333     24.000000
  0.388889  0.055556  0.333333     24.000000
  0.444444  0.055556  0.333333     24.000000
  0.111111  0.111111  0.333333     12.000000
  0.166667  0.111111  0.333333     24.000000
  0.222222  0.111111  0.333333     24.000000
  0.277778  0.111111  0.333333     24.000000
  0.333333  0.111111  0.333333     24.000000
  0.388889  0.111111  0.333333     24.000000
  0.444444  0.111111  0.333333     12.000000
  0.166667  0.166667  0.333333     12.000000
  0.222222  0.166667  0.333333     24.000000
  0.277778  0.166667  0.333333     24.000000
  0.333333  0.166667  0.333333     24.000000
  0.388889  0.166667  0.333333     24.000000
  0.222222  0.222222  0.333333     12.000000
  0.277778  0.222222  0.333333     24.000000
  0.333333  0.222222  0.333333     24.000000
  0.388889  0.222222  0.333333     12.000000
  0.277778  0.277778  0.333333     12.000000
  0.333333  0.277778  0.333333     24.000000
  0.333333  0.333333  0.333333      4.000000
  0.000000  0.000000  0.500000      1.000000
  0.055556  0.000000  0.500000      6.000000
  0.111111  0.000000  0.500000      6.000000
  0.166667  0.000000  0.500000      6.000000
  0.222222  0.000000  0.500000      6.000000
  0.277778  0.000000  0.500000      6.000000
  0.333333  0.000000  0.500000      6.000000
  0.388889  0.000000  0.500000      6.000000
  0.444444  0.000000  0.500000      6.000000
  0.500000  0.000000  0.500000      3.000000
  0.055556  0.055556  0.500000      6.000000
  0.111111  0.055556  0.500000     12.000000
  0.166667  0.055556  0.500000     12.000000
  0.222222  0.055556  0.500000     12.000000
  0.277778  0.055556  0.500000     12.000000
  0.333333  0.055556  0.500000     12.000000
  0.388889  0.055556  0.500000     12.000000
  0.444444  0.055556  0.500000     12.000000
  0.111111  0.111111  0.500000      6.000000
  0.166667  0.111111  0.500000     12.000000
  0.222222  0.111111  0.500000     12.000000
  0.277778  0.111111  0.500000     12.000000
  0.333333  0.111111  0.500000     12.000000
  0.388889  0.111111  0.500000     12.000000
  0.444444  0.111111  0.500000      6.000000
  0.166667  0.166667  0.500000      6.000000
  0.222222  0.166667  0.500000     12.000000
  0.277778  0.166667  0.500000     12.000000
  0.333333  0.166667  0.500000     12.000000
  0.388889  0.166667  0.500000     12.000000
  0.222222  0.222222  0.500000      6.000000
  0.277778  0.222222  0.500000     12.000000
  0.333333  0.222222  0.500000     12.000000
  0.388889  0.222222  0.500000      6.000000
  0.277778  0.277778  0.500000      6.000000
  0.333333  0.277778  0.500000     12.000000
  0.333333  0.333333  0.500000      2.000000
 
 Following cartesian coordinates:
            Coordinates               Weight
  0.000000  0.000000  0.000000      1.000000
  0.014306  0.008260  0.000000      6.000000
  0.028612  0.016519  0.000000      6.000000
  0.042918  0.024779  0.000000      6.000000
  0.057224  0.033039  0.000000      6.000000
  0.071531  0.041298  0.000000      6.000000
  0.085837  0.049558  0.000000      6.000000
  0.100143  0.057817  0.000000      6.000000
  0.114449  0.066077  0.000000      6.000000
  0.128755  0.074337  0.000000      3.000000
  0.014306  0.024779  0.000000      6.000000
  0.028612  0.033039  0.000000     12.000000
  0.042918  0.041298  0.000000     12.000000
  0.057224  0.049558  0.000000     12.000000
  0.071531  0.057817  0.000000     12.000000
  0.085837  0.066077  0.000000     12.000000
  0.100143  0.074337  0.000000     12.000000
  0.114449  0.082596  0.000000     12.000000
  0.028612  0.049558  0.000000      6.000000
  0.042918  0.057817  0.000000     12.000000
  0.057224  0.066077  0.000000     12.000000
  0.071531  0.074337  0.000000     12.000000
  0.085837  0.082596  0.000000     12.000000
  0.100143  0.090856  0.000000     12.000000
  0.114449  0.099116  0.000000      6.000000
  0.042918  0.074337  0.000000      6.000000
  0.057224  0.082596  0.000000     12.000000
  0.071531  0.090856  0.000000     12.000000
  0.085837  0.099116  0.000000     12.000000
  0.100143  0.107375  0.000000     12.000000
  0.057224  0.099116  0.000000      6.000000
  0.071531  0.107375  0.000000     12.000000
  0.085837  0.115635  0.000000     12.000000
  0.100143  0.123894  0.000000      6.000000
  0.071531  0.123894  0.000000      6.000000
  0.085837  0.132154  0.000000     12.000000
  0.085837  0.148673  0.000000      2.000000
  0.000000  0.000000  0.006844      2.000000
  0.014306  0.008260  0.006844     12.000000
  0.028612  0.016519  0.006844     12.000000
  0.042918  0.024779  0.006844     12.000000
  0.057224  0.033039  0.006844     12.000000
  0.071531  0.041298  0.006844     12.000000
  0.085837  0.049558  0.006844     12.000000
  0.100143  0.057817  0.006844     12.000000
  0.114449  0.066077  0.006844     12.000000
  0.128755  0.074337  0.006844      6.000000
  0.014306  0.024779  0.006844     12.000000
  0.028612  0.033039  0.006844     24.000000
  0.042918  0.041298  0.006844     24.000000
  0.057224  0.049558  0.006844     24.000000
  0.071531  0.057817  0.006844     24.000000
  0.085837  0.066077  0.006844     24.000000
  0.100143  0.074337  0.006844     24.000000
  0.114449  0.082596  0.006844     24.000000
  0.028612  0.049558  0.006844     12.000000
  0.042918  0.057817  0.006844     24.000000
  0.057224  0.066077  0.006844     24.000000
  0.071531  0.074337  0.006844     24.000000
  0.085837  0.082596  0.006844     24.000000
  0.100143  0.090856  0.006844     24.000000
  0.114449  0.099116  0.006844     12.000000
  0.042918  0.074337  0.006844     12.000000
  0.057224  0.082596  0.006844     24.000000
  0.071531  0.090856  0.006844     24.000000
  0.085837  0.099116  0.006844     24.000000
  0.100143  0.107375  0.006844     24.000000
  0.057224  0.099116  0.006844     12.000000
  0.071531  0.107375  0.006844     24.000000
  0.085837  0.115635  0.006844     24.000000
  0.100143  0.123894  0.006844     12.000000
  0.071531  0.123894  0.006844     12.000000
  0.085837  0.132154  0.006844     24.000000
  0.085837  0.148673  0.006844      4.000000
  0.000000  0.000000  0.013688      2.000000
  0.014306  0.008260  0.013688     12.000000
  0.028612  0.016519  0.013688     12.000000
  0.042918  0.024779  0.013688     12.000000
  0.057224  0.033039  0.013688     12.000000
  0.071531  0.041298  0.013688     12.000000
  0.085837  0.049558  0.013688     12.000000
  0.100143  0.057817  0.013688     12.000000
  0.114449  0.066077  0.013688     12.000000
  0.128755  0.074337  0.013688      6.000000
  0.014306  0.024779  0.013688     12.000000
  0.028612  0.033039  0.013688     24.000000
  0.042918  0.041298  0.013688     24.000000
  0.057224  0.049558  0.013688     24.000000
  0.071531  0.057817  0.013688     24.000000
  0.085837  0.066077  0.013688     24.000000
  0.100143  0.074337  0.013688     24.000000
  0.114449  0.082596  0.013688     24.000000
  0.028612  0.049558  0.013688     12.000000
  0.042918  0.057817  0.013688     24.000000
  0.057224  0.066077  0.013688     24.000000
  0.071531  0.074337  0.013688     24.000000
  0.085837  0.082596  0.013688     24.000000
  0.100143  0.090856  0.013688     24.000000
  0.114449  0.099116  0.013688     12.000000
  0.042918  0.074337  0.013688     12.000000
  0.057224  0.082596  0.013688     24.000000
  0.071531  0.090856  0.013688     24.000000
  0.085837  0.099116  0.013688     24.000000
  0.100143  0.107375  0.013688     24.000000
  0.057224  0.099116  0.013688     12.000000
  0.071531  0.107375  0.013688     24.000000
  0.085837  0.115635  0.013688     24.000000
  0.100143  0.123894  0.013688     12.000000
  0.071531  0.123894  0.013688     12.000000
  0.085837  0.132154  0.013688     24.000000
  0.085837  0.148673  0.013688      4.000000
  0.000000  0.000000  0.020532      1.000000
  0.014306  0.008260  0.020532      6.000000
  0.028612  0.016519  0.020532      6.000000
  0.042918  0.024779  0.020532      6.000000
  0.057224  0.033039  0.020532      6.000000
  0.071531  0.041298  0.020532      6.000000
  0.085837  0.049558  0.020532      6.000000
  0.100143  0.057817  0.020532      6.000000
  0.114449  0.066077  0.020532      6.000000
  0.128755  0.074337  0.020532      3.000000
  0.014306  0.024779  0.020532      6.000000
  0.028612  0.033039  0.020532     12.000000
  0.042918  0.041298  0.020532     12.000000
  0.057224  0.049558  0.020532     12.000000
  0.071531  0.057817  0.020532     12.000000
  0.085837  0.066077  0.020532     12.000000
  0.100143  0.074337  0.020532     12.000000
  0.114449  0.082596  0.020532     12.000000
  0.028612  0.049558  0.020532      6.000000
  0.042918  0.057817  0.020532     12.000000
  0.057224  0.066077  0.020532     12.000000
  0.071531  0.074337  0.020532     12.000000
  0.085837  0.082596  0.020532     12.000000
  0.100143  0.090856  0.020532     12.000000
  0.114449  0.099116  0.020532      6.000000
  0.042918  0.074337  0.020532      6.000000
  0.057224  0.082596  0.020532     12.000000
  0.071531  0.090856  0.020532     12.000000
  0.085837  0.099116  0.020532     12.000000
  0.100143  0.107375  0.020532     12.000000
  0.057224  0.099116  0.020532      6.000000
  0.071531  0.107375  0.020532     12.000000
  0.085837  0.115635  0.020532     12.000000
  0.100143  0.123894  0.020532      6.000000
  0.071531  0.123894  0.020532      6.000000
  0.085837  0.132154  0.020532     12.000000
  0.085837  0.148673  0.020532      2.000000
 
 TETIRR: Found   1977 inequivalent tetrahedra from    11664


--------------------------------------------------------------------------------------------------------




 Dimension of arrays:
   k-points           NKPTS =    148   k-points in BZ     NKDIM =    148   number of bands    NBANDS=     80
   number of dos      NEDOS =   3000   number of ions     NIONS =     14
   non local maximal  LDIM  =      6   non local SUM 2l+1 LMDIM =     18
   total plane-waves  NPLWV = 141120
   max r-space proj   IRMAX =      1   max aug-charges    IRDMAX= 153514
   dimension x,y,z NGX =    28 NGY =   28 NGZ =  180
   dimension x,y,z NGXF=    56 NGYF=   56 NGZF=  360
   support grid    NGXF=   112 NGYF=  112 NGZF=  720
   ions per type =               4   2   8
   NGX,Y,Z   is equivalent  to a cutoff of  11.99, 11.99, 12.29 a.u.
   NGXF,Y,Z  is equivalent  to a cutoff of  23.97, 23.97, 24.58 a.u.

 SYSTEM =  ZnIn2S4 DOS/PDOS                        
 POSCAR =  In2 S4 Zn                               

 Startparameter for this run:
   NWRITE =      2    write-flag & timer
   PREC   = accura    normal or accurate (medium, high low for compatibility)
   ISTART =      0    job   : 0-new  1-cont  2-samecut
   ICHARG =     11    charge: 1-file 2-atom 10-const
   ISPIN  =      1    spin polarized calculation?
   LNONCOLLINEAR =      F non collinear calculations
   LSORBIT =      F    spin-orbit coupling
   INIWAV =      1    electr: 0-lowe 1-rand  2-diag
   LASPH  =      T    aspherical Exc in radial PAW
   METAGGA=      F    non-selfconsistent MetaGGA calc.

 Electronic Relaxation 1
   ENCUT  =  500.0 eV  36.75 Ry    6.06 a.u.   7.08  7.08 44.40*2*pi/ulx,y,z
   ENINI  =  500.0     initial cutoff
   ENAUG  =  575.9 eV  augmentation charge cutoff
   NELM   =    150;   NELMIN=  2; NELMDL= -5     # of ELM steps 
   EDIFF  = 0.1E-06   stopping-criterion for ELM
   LREAL  =      F    real-space projection
   NLSPLINE    = F    spline interpolate recip. space projectors
   LCOMPAT=      F    compatible to vasp.4.4
   GGA_COMPAT  = T    GGA compatible to vasp.4.4-vasp.4.6
   LMAXPAW     = -100 max onsite density
   LMAXMIX     =    2 max onsite mixed and CHGCAR
   VOSKOWN=      0    Vosko Wilk Nusair interpolation
   ROPT   =    0.00000   0.00000   0.00000
 Ionic relaxation
   EDIFFG = 0.1E-05   stopping-criterion for IOM
   NSW    =      0    number of steps for IOM
   NBLOCK =      1;   KBLOCK =      1    inner block; outer block 
   IBRION =     -1    ionic relax: 0-MD 1-quasi-New 2-CG
   NFREE  =      0    steps in history (QN), initial steepest desc. (CG)
   ISIF   =      2    stress and relaxation
   IWAVPR =     10    prediction:  0-non 1-charg 2-wave 3-comb
   ISYM   =      2    0-nonsym 1-usesym 2-fastsym
   LCORR  =      T    Harris-Foulkes like correction to forces

   POTIM  = 0.5000    time-step for ionic-motion
   TEIN   =    0.0    initial temperature
   TEBEG  =    0.0;   TEEND  =   0.0 temperature during run
   SMASS  =  -3.00    Nose mass-parameter (am)
   estimated Nose-frequenzy (Omega)   =  0.10E-29 period in steps =****** mass=  -0.345E-27a.u.
   SCALEE = 1.0000    scale energy and forces
   NPACO  =    256;   APACO  = 16.0  distance and # of slots for P.C.
   PSTRESS=    0.0 pullay stress

  Mass of Ions in am
   POMASS = 114.82 65.39 32.07
  Ionic Valenz
   ZVAL   =  13.00 12.00  6.00
  Atomic Wigner-Seitz radii
   RWIGS  =  -1.00 -1.00 -1.00
  virtual crystal weights 
   VCA    =   1.00  1.00  1.00
   NELECT =     124.0000    total number of electrons
   NUPDOWN=      -1.0000    fix difference up-down

 DOS related values:
   EMIN   =  10.00;   EMAX   =-10.00  energy-range for DOS
   EFERMI =   0.00
   ISMEAR =    -5;   SIGMA  =   0.20  broadening in eV -4-tet -1-fermi 0-gaus

 Electronic relaxation 2 (details)
   IALGO  =     38    algorithm
   LDIAG  =      T    sub-space diagonalisation (order eigenvalues)
   LSUBROT=      F    optimize rotation matrix (better conditioning)
   TURBO    =      0    0=normal 1=particle mesh
   IRESTART =      0    0=no restart 2=restart with 2 vectors
   NREBOOT  =      0    no. of reboots
   NMIN     =      0    reboot dimension
   EREF     =   0.00    reference energy to select bands
   IMIX   =      4    mixing-type and parameters
     AMIX     =   0.40;   BMIX     =  1.00
     AMIX_MAG =   1.60;   BMIX_MAG =  1.00
     AMIN     =   0.10
     WC   =   100.;   INIMIX=   1;  MIXPRE=   1;  MAXMIX= -45

 Intra band minimization:
   WEIMIN = 0.0000     energy-eigenvalue tresh-hold
   EBREAK =  0.31E-09  absolut break condition
   DEPER  =   0.30     relativ break condition  

   TIME   =   0.40     timestep for ELM

  volume/ion in A,a.u.               =      22.72       153.30
  Fermi-wavevector in a.u.,A,eV,Ry     =   1.195981  2.260076 19.461366  1.430370
  Thomas-Fermi vector in A             =   2.331933
 
 Write flags
   LWAVE        =      F    write WAVECAR
   LDOWNSAMPLE  =      F    k-point downsampling of WAVECAR
   LCHARG       =      F    write CHGCAR
   LVTOT        =      F    write LOCPOT, total local potential
   LVHAR        =      F    write LOCPOT, Hartree potential only
   LELF         =      F    write electronic localiz. function (ELF)
   LORBIT       =     11    0 simple, 1 ext, 2 COOP (PROOUT), +10 PAW based schemes


 Dipole corrections
   LMONO  =      F    monopole corrections only (constant potential shift)
   LDIPOL =      F    correct potential (dipole corrections)
   IDIPOL =      0    1-x, 2-y, 3-z, 4-all directions 
   EPSILON=  1.0000000 bulk dielectric constant

 Exchange correlation treatment:
   GGA     =    PE    GGA type
   LEXCH   =     8    internal setting for exchange type
   VOSKOWN=      0    Vosko Wilk Nusair interpolation
   LHFCALC =     F    Hartree Fock is set to
   LHFONE  =     F    Hartree Fock one center treatment
   AEXX    =    0.0000 exact exchange contribution

 Linear response parameters
   LEPSILON=     F    determine dielectric tensor
   LRPA    =     F    only Hartree local field effects (RPA)
   LNABLA  =     F    use nabla operator in PAW spheres
   LVEL    =     F    velocity operator in full k-point grid
   LINTERFAST=   F  fast interpolation
   KINTER  =     0    interpolate to denser k-point grid
   CSHIFT  =0.1000    complex shift for real part using Kramers Kronig
   OMEGAMAX=  -1.0    maximum frequency
   DEG_THRESHOLD= 0.2000000E-02 threshold for treating states as degnerate
   RTIME   =   -0.100 relaxation time in fs
  (WPLASMAI=    0.000 imaginary part of plasma frequency in eV, 0.658/RTIME)
   DFIELD  = 0.0000000 0.0000000 0.0000000 field for delta impulse in time
 
 Orbital magnetization related:
   ORBITALMAG=     F  switch on orbital magnetization
   LCHIMAG   =     F  perturbation theory with respect to B field
   DQ        =  0.001000  dq finite difference perturbation B field
   LLRAUG    =     F  two centre corrections for induced B field



--------------------------------------------------------------------------------------------------------


 Static calculation
 charge density and potential remain constant during run
 non-spin polarized calculation
 Variant of blocked Davidson
 Davidson routine will perform the subspace rotation
 perform sub-space diagonalisation
    after iterative eigenvector-optimisation
 no mixing
 using additional bands           18
 reciprocal scheme for non local part
 use partial core corrections
 calculate Harris-corrections to forces 
   (improved forces if not selfconsistent)
 use gradient corrections 
 WARNING: stress and forces are not correct
  (second derivative of E(xc) not defined)
 use of overlap-Matrix (Vanderbilt PP)
 Fermi weights with tetrahedron method with Bloechl corrections


--------------------------------------------------------------------------------------------------------


  energy-cutoff  :      500.00
  volume of cell :      318.03
      direct lattice vectors                 reciprocal lattice vectors
     3.883346612  0.000000000  0.000000000     0.257509849  0.148673381  0.000000000
    -1.941673306  3.363076818  0.000000000     0.000000000  0.297346761  0.000000000
     0.000000000  0.000000000 24.351774471     0.000000000  0.000000000  0.041064769

  length of vectors
     3.883346612  3.883346612 24.351774471     0.297346761  0.297346761  0.041064769


 
 k-points in units of 2pi/SCALE and weight: DOS / PDOS                              
   0.00000000  0.00000000  0.00000000       0.001
   0.01430610  0.00825963  0.00000000       0.003
   0.02861221  0.01651926  0.00000000       0.003
   0.04291831  0.02477890  0.00000000       0.003
   0.05722441  0.03303853  0.00000000       0.003
   0.07153051  0.04129816  0.00000000       0.003
   0.08583662  0.04955779  0.00000000       0.003
   0.10014272  0.05781743  0.00000000       0.003
   0.11444882  0.06607706  0.00000000       0.003
   0.12875492  0.07433669  0.00000000       0.002
   0.01430610  0.02477890  0.00000000       0.003
   0.02861221  0.03303853  0.00000000       0.006
   0.04291831  0.04129816  0.00000000       0.006
   0.05722441  0.04955779  0.00000000       0.006
   0.07153051  0.05781743  0.00000000       0.006
   0.08583662  0.06607706  0.00000000       0.006
   0.10014272  0.07433669  0.00000000       0.006
   0.11444882  0.08259632  0.00000000       0.006
   0.02861221  0.04955779  0.00000000       0.003
   0.04291831  0.05781743  0.00000000       0.006
   0.05722441  0.06607706  0.00000000       0.006
   0.07153051  0.07433669  0.00000000       0.006
   0.08583662  0.08259632  0.00000000       0.006
   0.10014272  0.09085595  0.00000000       0.006
   0.11444882  0.09911559  0.00000000       0.003
   0.04291831  0.07433669  0.00000000       0.003
   0.05722441  0.08259632  0.00000000       0.006
   0.07153051  0.09085595  0.00000000       0.006
   0.08583662  0.09911559  0.00000000       0.006
   0.10014272  0.10737522  0.00000000       0.006
   0.05722441  0.09911559  0.00000000       0.003
   0.07153051  0.10737522  0.00000000       0.006
   0.08583662  0.11563485  0.00000000       0.006
   0.10014272  0.12389448  0.00000000       0.003
   0.07153051  0.12389448  0.00000000       0.003
   0.08583662  0.13215412  0.00000000       0.006
   0.08583662  0.14867338  0.00000000       0.001
   0.00000000  0.00000000  0.00684413       0.001
   0.01430610  0.00825963  0.00684413       0.006
   0.02861221  0.01651926  0.00684413       0.006
   0.04291831  0.02477890  0.00684413       0.006
   0.05722441  0.03303853  0.00684413       0.006
   0.07153051  0.04129816  0.00684413       0.006
   0.08583662  0.04955779  0.00684413       0.006
   0.10014272  0.05781743  0.00684413       0.006
   0.11444882  0.06607706  0.00684413       0.006
   0.12875492  0.07433669  0.00684413       0.003
   0.01430610  0.02477890  0.00684413       0.006
   0.02861221  0.03303853  0.00684413       0.012
   0.04291831  0.04129816  0.00684413       0.012
   0.05722441  0.04955779  0.00684413       0.012
   0.07153051  0.05781743  0.00684413       0.012
   0.08583662  0.06607706  0.00684413       0.012
   0.10014272  0.07433669  0.00684413       0.012
   0.11444882  0.08259632  0.00684413       0.012
   0.02861221  0.04955779  0.00684413       0.006
   0.04291831  0.05781743  0.00684413       0.012
   0.05722441  0.06607706  0.00684413       0.012
   0.07153051  0.07433669  0.00684413       0.012
   0.08583662  0.08259632  0.00684413       0.012
   0.10014272  0.09085595  0.00684413       0.012
   0.11444882  0.09911559  0.00684413       0.006
   0.04291831  0.07433669  0.00684413       0.006
   0.05722441  0.08259632  0.00684413       0.012
   0.07153051  0.09085595  0.00684413       0.012
   0.08583662  0.09911559  0.00684413       0.012
   0.10014272  0.10737522  0.00684413       0.012
   0.05722441  0.09911559  0.00684413       0.006
   0.07153051  0.10737522  0.00684413       0.012
   0.08583662  0.11563485  0.00684413       0.012
   0.10014272  0.12389448  0.00684413       0.006
   0.07153051  0.12389448  0.00684413       0.006
   0.08583662  0.13215412  0.00684413       0.012
   0.08583662  0.14867338  0.00684413       0.002
   0.00000000  0.00000000  0.01368826       0.001
   0.01430610  0.00825963  0.01368826       0.006
   0.02861221  0.01651926  0.01368826       0.006
   0.04291831  0.02477890  0.01368826       0.006
   0.05722441  0.03303853  0.01368826       0.006
   0.07153051  0.04129816  0.01368826       0.006
   0.08583662  0.04955779  0.01368826       0.006
   0.10014272  0.05781743  0.01368826       0.006
   0.11444882  0.06607706  0.01368826       0.006
   0.12875492  0.07433669  0.01368826       0.003
   0.01430610  0.02477890  0.01368826       0.006
   0.02861221  0.03303853  0.01368826       0.012
   0.04291831  0.04129816  0.01368826       0.012
   0.05722441  0.04955779  0.01368826       0.012
   0.07153051  0.05781743  0.01368826       0.012
   0.08583662  0.06607706  0.01368826       0.012
   0.10014272  0.07433669  0.01368826       0.012
   0.11444882  0.08259632  0.01368826       0.012
   0.02861221  0.04955779  0.01368826       0.006
   0.04291831  0.05781743  0.01368826       0.012
   0.05722441  0.06607706  0.01368826       0.012
   0.07153051  0.07433669  0.01368826       0.012
   0.08583662  0.08259632  0.01368826       0.012
   0.10014272  0.09085595  0.01368826       0.012
   0.11444882  0.09911559  0.01368826       0.006
   0.04291831  0.07433669  0.01368826       0.006
   0.05722441  0.08259632  0.01368826       0.012
   0.07153051  0.09085595  0.01368826       0.012
   0.08583662  0.09911559  0.01368826       0.012
   0.10014272  0.10737522  0.01368826       0.012
   0.05722441  0.09911559  0.01368826       0.006
   0.07153051  0.10737522  0.01368826       0.012
   0.08583662  0.11563485  0.01368826       0.012
   0.10014272  0.12389448  0.01368826       0.006
   0.07153051  0.12389448  0.01368826       0.006
   0.08583662  0.13215412  0.01368826       0.012
   0.08583662  0.14867338  0.01368826       0.002
   0.00000000  0.00000000  0.02053238       0.001
   0.01430610  0.00825963  0.02053238       0.003
   0.02861221  0.01651926  0.02053238       0.003
   0.04291831  0.02477890  0.02053238       0.003
   0.05722441  0.03303853  0.02053238       0.003
   0.07153051  0.04129816  0.02053238       0.003
   0.08583662  0.04955779  0.02053238       0.003
   0.10014272  0.05781743  0.02053238       0.003
   0.11444882  0.06607706  0.02053238       0.003
   0.12875492  0.07433669  0.02053238       0.002
   0.01430610  0.02477890  0.02053238       0.003
   0.02861221  0.03303853  0.02053238       0.006
   0.04291831  0.04129816  0.02053238       0.006
   0.05722441  0.04955779  0.02053238       0.006
   0.07153051  0.05781743  0.02053238       0.006
   0.08583662  0.06607706  0.02053238       0.006
   0.10014272  0.07433669  0.02053238       0.006
   0.11444882  0.08259632  0.02053238       0.006
   0.02861221  0.04955779  0.02053238       0.003
   0.04291831  0.05781743  0.02053238       0.006
   0.05722441  0.06607706  0.02053238       0.006
   0.07153051  0.07433669  0.02053238       0.006
   0.08583662  0.08259632  0.02053238       0.006
   0.10014272  0.09085595  0.02053238       0.006
   0.11444882  0.09911559  0.02053238       0.003
   0.04291831  0.07433669  0.02053238       0.003
   0.05722441  0.08259632  0.02053238       0.006
   0.07153051  0.09085595  0.02053238       0.006
   0.08583662  0.09911559  0.02053238       0.006
   0.10014272  0.10737522  0.02053238       0.006
   0.05722441  0.09911559  0.02053238       0.003
   0.07153051  0.10737522  0.02053238       0.006
   0.08583662  0.11563485  0.02053238       0.006
   0.10014272  0.12389448  0.02053238       0.003
   0.07153051  0.12389448  0.02053238       0.003
   0.08583662  0.13215412  0.02053238       0.006
   0.08583662  0.14867338  0.02053238       0.001
 
 k-points in reciprocal lattice and weights: DOS / PDOS                              
   0.00000000  0.00000000  0.00000000       0.001
   0.05555556  0.00000000  0.00000000       0.003
   0.11111111  0.00000000  0.00000000       0.003
   0.16666667  0.00000000  0.00000000       0.003
   0.22222222  0.00000000  0.00000000       0.003
   0.27777778  0.00000000  0.00000000       0.003
   0.33333333  0.00000000  0.00000000       0.003
   0.38888889  0.00000000  0.00000000       0.003
   0.44444444  0.00000000  0.00000000       0.003
   0.50000000  0.00000000  0.00000000       0.002
   0.05555556  0.05555556  0.00000000       0.003
   0.11111111  0.05555556  0.00000000       0.006
   0.16666667  0.05555556  0.00000000       0.006
   0.22222222  0.05555556  0.00000000       0.006
   0.27777778  0.05555556  0.00000000       0.006
   0.33333333  0.05555556  0.00000000       0.006
   0.38888889  0.05555556  0.00000000       0.006
   0.44444444  0.05555556  0.00000000       0.006
   0.11111111  0.11111111  0.00000000       0.003
   0.16666667  0.11111111  0.00000000       0.006
   0.22222222  0.11111111  0.00000000       0.006
   0.27777778  0.11111111  0.00000000       0.006
   0.33333333  0.11111111  0.00000000       0.006
   0.38888889  0.11111111  0.00000000       0.006
   0.44444444  0.11111111  0.00000000       0.003
   0.16666667  0.16666667  0.00000000       0.003
   0.22222222  0.16666667  0.00000000       0.006
   0.27777778  0.16666667  0.00000000       0.006
   0.33333333  0.16666667  0.00000000       0.006
   0.38888889  0.16666667  0.00000000       0.006
   0.22222222  0.22222222  0.00000000       0.003
   0.27777778  0.22222222  0.00000000       0.006
   0.33333333  0.22222222  0.00000000       0.006
   0.38888889  0.22222222  0.00000000       0.003
   0.27777778  0.27777778  0.00000000       0.003
   0.33333333  0.27777778  0.00000000       0.006
   0.33333333  0.33333333  0.00000000       0.001
   0.00000000  0.00000000  0.16666667       0.001
   0.05555556  0.00000000  0.16666667       0.006
   0.11111111  0.00000000  0.16666667       0.006
   0.16666667  0.00000000  0.16666667       0.006
   0.22222222  0.00000000  0.16666667       0.006
   0.27777778  0.00000000  0.16666667       0.006
   0.33333333  0.00000000  0.16666667       0.006
   0.38888889  0.00000000  0.16666667       0.006
   0.44444444  0.00000000  0.16666667       0.006
   0.50000000  0.00000000  0.16666667       0.003
   0.05555556  0.05555556  0.16666667       0.006
   0.11111111  0.05555556  0.16666667       0.012
   0.16666667  0.05555556  0.16666667       0.012
   0.22222222  0.05555556  0.16666667       0.012
   0.27777778  0.05555556  0.16666667       0.012
   0.33333333  0.05555556  0.16666667       0.012
   0.38888889  0.05555556  0.16666667       0.012
   0.44444444  0.05555556  0.16666667       0.012
   0.11111111  0.11111111  0.16666667       0.006
   0.16666667  0.11111111  0.16666667       0.012
   0.22222222  0.11111111  0.16666667       0.012
   0.27777778  0.11111111  0.16666667       0.012
   0.33333333  0.11111111  0.16666667       0.012
   0.38888889  0.11111111  0.16666667       0.012
   0.44444444  0.11111111  0.16666667       0.006
   0.16666667  0.16666667  0.16666667       0.006
   0.22222222  0.16666667  0.16666667       0.012
   0.27777778  0.16666667  0.16666667       0.012
   0.33333333  0.16666667  0.16666667       0.012
   0.38888889  0.16666667  0.16666667       0.012
   0.22222222  0.22222222  0.16666667       0.006
   0.27777778  0.22222222  0.16666667       0.012
   0.33333333  0.22222222  0.16666667       0.012
   0.38888889  0.22222222  0.16666667       0.006
   0.27777778  0.27777778  0.16666667       0.006
   0.33333333  0.27777778  0.16666667       0.012
   0.33333333  0.33333333  0.16666667       0.002
   0.00000000  0.00000000  0.33333333       0.001
   0.05555556  0.00000000  0.33333333       0.006
   0.11111111  0.00000000  0.33333333       0.006
   0.16666667  0.00000000  0.33333333       0.006
   0.22222222  0.00000000  0.33333333       0.006
   0.27777778  0.00000000  0.33333333       0.006
   0.33333333  0.00000000  0.33333333       0.006
   0.38888889  0.00000000  0.33333333       0.006
   0.44444444  0.00000000  0.33333333       0.006
   0.50000000  0.00000000  0.33333333       0.003
   0.05555556  0.05555556  0.33333333       0.006
   0.11111111  0.05555556  0.33333333       0.012
   0.16666667  0.05555556  0.33333333       0.012
   0.22222222  0.05555556  0.33333333       0.012
   0.27777778  0.05555556  0.33333333       0.012
   0.33333333  0.05555556  0.33333333       0.012
   0.38888889  0.05555556  0.33333333       0.012
   0.44444444  0.05555556  0.33333333       0.012
   0.11111111  0.11111111  0.33333333       0.006
   0.16666667  0.11111111  0.33333333       0.012
   0.22222222  0.11111111  0.33333333       0.012
   0.27777778  0.11111111  0.33333333       0.012
   0.33333333  0.11111111  0.33333333       0.012
   0.38888889  0.11111111  0.33333333       0.012
   0.44444444  0.11111111  0.33333333       0.006
   0.16666667  0.16666667  0.33333333       0.006
   0.22222222  0.16666667  0.33333333       0.012
   0.27777778  0.16666667  0.33333333       0.012
   0.33333333  0.16666667  0.33333333       0.012
   0.38888889  0.16666667  0.33333333       0.012
   0.22222222  0.22222222  0.33333333       0.006
   0.27777778  0.22222222  0.33333333       0.012
   0.33333333  0.22222222  0.33333333       0.012
   0.38888889  0.22222222  0.33333333       0.006
   0.27777778  0.27777778  0.33333333       0.006
   0.33333333  0.27777778  0.33333333       0.012
   0.33333333  0.33333333  0.33333333       0.002
   0.00000000  0.00000000  0.50000000       0.001
   0.05555556  0.00000000  0.50000000       0.003
   0.11111111  0.00000000  0.50000000       0.003
   0.16666667  0.00000000  0.50000000       0.003
   0.22222222  0.00000000  0.50000000       0.003
   0.27777778  0.00000000  0.50000000       0.003
   0.33333333  0.00000000  0.50000000       0.003
   0.38888889  0.00000000  0.50000000       0.003
   0.44444444  0.00000000  0.50000000       0.003
   0.50000000  0.00000000  0.50000000       0.002
   0.05555556  0.05555556  0.50000000       0.003
   0.11111111  0.05555556  0.50000000       0.006
   0.16666667  0.05555556  0.50000000       0.006
   0.22222222  0.05555556  0.50000000       0.006
   0.27777778  0.05555556  0.50000000       0.006
   0.33333333  0.05555556  0.50000000       0.006
   0.38888889  0.05555556  0.50000000       0.006
   0.44444444  0.05555556  0.50000000       0.006
   0.11111111  0.11111111  0.50000000       0.003
   0.16666667  0.11111111  0.50000000       0.006
   0.22222222  0.11111111  0.50000000       0.006
   0.27777778  0.11111111  0.50000000       0.006
   0.33333333  0.11111111  0.50000000       0.006
   0.38888889  0.11111111  0.50000000       0.006
   0.44444444  0.11111111  0.50000000       0.003
   0.16666667  0.16666667  0.50000000       0.003
   0.22222222  0.16666667  0.50000000       0.006
   0.27777778  0.16666667  0.50000000       0.006
   0.33333333  0.16666667  0.50000000       0.006
   0.38888889  0.16666667  0.50000000       0.006
   0.22222222  0.22222222  0.50000000       0.003
   0.27777778  0.22222222  0.50000000       0.006
   0.33333333  0.22222222  0.50000000       0.006
   0.38888889  0.22222222  0.50000000       0.003
   0.27777778  0.27777778  0.50000000       0.003
   0.33333333  0.27777778  0.50000000       0.006
   0.33333333  0.33333333  0.50000000       0.001
 
 position of ions in fractional coordinates (direct lattice) 
   0.33333334  0.66666669  0.09346173
   0.66666663  0.33333331  0.59346172
   0.66666669  0.33333334  0.25675253
   0.33333331  0.66666663  0.75675253
   0.00000000  0.00000000  0.41290129
   0.00000000  0.00000000  0.91290132
   0.66666669  0.33333334  0.43529967
   0.33333331  0.66666663  0.93529964
   0.00000000  0.00000000  0.04942583
   0.00000000  0.00000000  0.54942583
   0.33333334  0.66666669  0.19411541
   0.66666663  0.33333331  0.69411541
   0.00000000  0.00000000  0.30854351
   0.00000000  0.00000000  0.80854351
 
 position of ions in cartesian coordinates  (Angst):
  -0.00000000  2.24205128  2.27595898
   1.94167319  1.12102554 14.45184585
   1.94167337  1.12102564  6.25237974
  -0.00000000  2.24205108 18.42826698
   0.00000000  0.00000000 10.05487913
   0.00000000  0.00000000 22.23076709
   1.94167337  1.12102564 10.60031947
  -0.00000000  2.24205108 22.77620598
   0.00000000  0.00000000  1.20360660
   0.00000000  0.00000000 13.37949384
  -0.00000000  2.24205128  4.72705471
   1.94167319  1.12102554 16.90294195
   0.00000000  0.00000000  7.51358207
   0.00000000  0.00000000 19.68946930
 


--------------------------------------------------------------------------------------------------------


 k-point  1 :   0.0000 0.0000 0.0000  plane waves:    8027
 k-point  2 :   0.0556 0.0000 0.0000  plane waves:    8005
 k-point  3 :   0.1111 0.0000 0.0000  plane waves:    8009
 k-point  4 :   0.1667 0.0000 0.0000  plane waves:    8044
 k-point  5 :   0.2222 0.0000 0.0000  plane waves:    8054
 k-point  6 :   0.2778 0.0000 0.0000  plane waves:    8062
 k-point  7 :   0.3333 0.0000 0.0000  plane waves:    8070
 k-point  8 :   0.3889 0.0000 0.0000  plane waves:    8082
 k-point  9 :   0.4444 0.0000 0.0000  plane waves:    8080
 k-point 10 :   0.5000 0.0000 0.0000  plane waves:    8080
 k-point 11 :   0.0556 0.0556 0.0000  plane waves:    8001
 k-point 12 :   0.1111 0.0556 0.0000  plane waves:    8020
 k-point 13 :   0.1667 0.0556 0.0000  plane waves:    8035
 k-point 14 :   0.2222 0.0556 0.0000  plane waves:    8066
 k-point 15 :   0.2778 0.0556 0.0000  plane waves:    8073
 k-point 16 :   0.3333 0.0556 0.0000  plane waves:    8084
 k-point 17 :   0.3889 0.0556 0.0000  plane waves:    8072
 k-point 18 :   0.4444 0.0556 0.0000  plane waves:    8102
 k-point 19 :   0.1111 0.1111 0.0000  plane waves:    8031
 k-point 20 :   0.1667 0.1111 0.0000  plane waves:    8061
 k-point 21 :   0.2222 0.1111 0.0000  plane waves:    8076
 k-point 22 :   0.2778 0.1111 0.0000  plane waves:    8084
 k-point 23 :   0.3333 0.1111 0.0000  plane waves:    8086
 k-point 24 :   0.3889 0.1111 0.0000  plane waves:    8095
 k-point 25 :   0.4444 0.1111 0.0000  plane waves:    8105
 k-point 26 :   0.1667 0.1667 0.0000  plane waves:    8065
 k-point 27 :   0.2222 0.1667 0.0000  plane waves:    8085
 k-point 28 :   0.2778 0.1667 0.0000  plane waves:    8104
 k-point 29 :   0.3333 0.1667 0.0000  plane waves:    8097
 k-point 30 :   0.3889 0.1667 0.0000  plane waves:    8102
 k-point 31 :   0.2222 0.2222 0.0000  plane waves:    8077
 k-point 32 :   0.2778 0.2222 0.0000  plane waves:    8090
 k-point 33 :   0.3333 0.2222 0.0000  plane waves:    8101
 k-point 34 :   0.3889 0.2222 0.0000  plane waves:    8109
 k-point 35 :   0.2778 0.2778 0.0000  plane waves:    8105
 k-point 36 :   0.3333 0.2778 0.0000  plane waves:    8101
 k-point 37 :   0.3333 0.3333 0.0000  plane waves:    8127
 k-point 38 :   0.0000 0.0000 0.1667  plane waves:    8027
 k-point 39 :   0.0556 0.0000 0.1667  plane waves:    8014
 k-point 40 :   0.1111 0.0000 0.1667  plane waves:    8010
 k-point 41 :   0.1667 0.0000 0.1667  plane waves:    8033
 k-point 42 :   0.2222 0.0000 0.1667  plane waves:    8065
 k-point 43 :   0.2778 0.0000 0.1667  plane waves:    8060
 k-point 44 :   0.3333 0.0000 0.1667  plane waves:    8067
 k-point 45 :   0.3889 0.0000 0.1667  plane waves:    8074
 k-point 46 :   0.4444 0.0000 0.1667  plane waves:    8078
 k-point 47 :   0.5000 0.0000 0.1667  plane waves:    8094
 k-point 48 :   0.0556 0.0556 0.1667  plane waves:    7993
 k-point 49 :   0.1111 0.0556 0.1667  plane waves:    8016
 k-point 50 :   0.1667 0.0556 0.1667  plane waves:    8035
 k-point 51 :   0.2222 0.0556 0.1667  plane waves:    8060
 k-point 52 :   0.2778 0.0556 0.1667  plane waves:    8068
 k-point 53 :   0.3333 0.0556 0.1667  plane waves:    8070
 k-point 54 :   0.3889 0.0556 0.1667  plane waves:    8076
 k-point 55 :   0.4444 0.0556 0.1667  plane waves:    8101
 k-point 56 :   0.1111 0.1111 0.1667  plane waves:    8029
 k-point 57 :   0.1667 0.1111 0.1667  plane waves:    8056
 k-point 58 :   0.2222 0.1111 0.1667  plane waves:    8073
 k-point 59 :   0.2778 0.1111 0.1667  plane waves:    8082
 k-point 60 :   0.3333 0.1111 0.1667  plane waves:    8089
 k-point 61 :   0.3889 0.1111 0.1667  plane waves:    8092
 k-point 62 :   0.4444 0.1111 0.1667  plane waves:    8105
 k-point 63 :   0.1667 0.1667 0.1667  plane waves:    8078
 k-point 64 :   0.2222 0.1667 0.1667  plane waves:    8071
 k-point 65 :   0.2778 0.1667 0.1667  plane waves:    8095
 k-point 66 :   0.3333 0.1667 0.1667  plane waves:    8092
 k-point 67 :   0.3889 0.1667 0.1667  plane waves:    8099
 k-point 68 :   0.2222 0.2222 0.1667  plane waves:    8085
 k-point 69 :   0.2778 0.2222 0.1667  plane waves:    8093
 k-point 70 :   0.3333 0.2222 0.1667  plane waves:    8099
 k-point 71 :   0.3889 0.2222 0.1667  plane waves:    8111
 k-point 72 :   0.2778 0.2778 0.1667  plane waves:    8100
 k-point 73 :   0.3333 0.2778 0.1667  plane waves:    8115
 k-point 74 :   0.3333 0.3333 0.1667  plane waves:    8121
 k-point 75 :   0.0000 0.0000 0.3333  plane waves:    8033
 k-point 76 :   0.0556 0.0000 0.3333  plane waves:    8016
 k-point 77 :   0.1111 0.0000 0.3333  plane waves:    8015
 k-point 78 :   0.1667 0.0000 0.3333  plane waves:    8037
 k-point 79 :   0.2222 0.0000 0.3333  plane waves:    8055
 k-point 80 :   0.2778 0.0000 0.3333  plane waves:    8065
 k-point 81 :   0.3333 0.0000 0.3333  plane waves:    8065
 k-point 82 :   0.3889 0.0000 0.3333  plane waves:    8072
 k-point 83 :   0.4444 0.0000 0.3333  plane waves:    8073
 k-point 84 :   0.5000 0.0000 0.3333  plane waves:    8078
 k-point 85 :   0.0556 0.0556 0.3333  plane waves:    8012
 k-point 86 :   0.1111 0.0556 0.3333  plane waves:    8013
 k-point 87 :   0.1667 0.0556 0.3333  plane waves:    8039
 k-point 88 :   0.2222 0.0556 0.3333  plane waves:    8057
 k-point 89 :   0.2778 0.0556 0.3333  plane waves:    8073
 k-point 90 :   0.3333 0.0556 0.3333  plane waves:    8076
 k-point 91 :   0.3889 0.0556 0.3333  plane waves:    8080
 k-point 92 :   0.4444 0.0556 0.3333  plane waves:    8098
 k-point 93 :   0.1111 0.1111 0.3333  plane waves:    8036
 k-point 94 :   0.1667 0.1111 0.3333  plane waves:    8063
 k-point 95 :   0.2222 0.1111 0.3333  plane waves:    8073
 k-point 96 :   0.2778 0.1111 0.3333  plane waves:    8083
 k-point 97 :   0.3333 0.1111 0.3333  plane waves:    8082
 k-point 98 :   0.3889 0.1111 0.3333  plane waves:    8082
 k-point 99 :   0.4444 0.1111 0.3333  plane waves:    8091
 k-point ** :   0.1667 0.1667 0.3333  plane waves:    8068
 k-point ** :   0.2222 0.1667 0.3333  plane waves:    8078
 k-point ** :   0.2778 0.1667 0.3333  plane waves:    8090
 k-point ** :   0.3333 0.1667 0.3333  plane waves:    8099
 k-point ** :   0.3889 0.1667 0.3333  plane waves:    8105
 k-point ** :   0.2222 0.2222 0.3333  plane waves:    8086
 k-point ** :   0.2778 0.2222 0.3333  plane waves:    8097
 k-point ** :   0.3333 0.2222 0.3333  plane waves:    8104
 k-point ** :   0.3889 0.2222 0.3333  plane waves:    8119
 k-point ** :   0.2778 0.2778 0.3333  plane waves:    8099
 k-point ** :   0.3333 0.2778 0.3333  plane waves:    8110
 k-point ** :   0.3333 0.3333 0.3333  plane waves:    8118
 k-point ** :   0.0000 0.0000 0.5000  plane waves:    8056
 k-point ** :   0.0556 0.0000 0.5000  plane waves:    8018
 k-point ** :   0.1111 0.0000 0.5000  plane waves:    8004
 k-point ** :   0.1667 0.0000 0.5000  plane waves:    8040
 k-point ** :   0.2222 0.0000 0.5000  plane waves:    8072
 k-point ** :   0.2778 0.0000 0.5000  plane waves:    8058
 k-point ** :   0.3333 0.0000 0.5000  plane waves:    8074
 k-point ** :   0.3889 0.0000 0.5000  plane waves:    8050
 k-point ** :   0.4444 0.0000 0.5000  plane waves:    8060
 k-point ** :   0.5000 0.0000 0.5000  plane waves:    8080
 k-point ** :   0.0556 0.0556 0.5000  plane waves:    8014
 k-point ** :   0.1111 0.0556 0.5000  plane waves:    8012
 k-point ** :   0.1667 0.0556 0.5000  plane waves:    8030
 k-point ** :   0.2222 0.0556 0.5000  plane waves:    8048
 k-point ** :   0.2778 0.0556 0.5000  plane waves:    8070
 k-point ** :   0.3333 0.0556 0.5000  plane waves:    8082
 k-point ** :   0.3889 0.0556 0.5000  plane waves:    8084
 k-point ** :   0.4444 0.0556 0.5000  plane waves:    8094
 k-point ** :   0.1111 0.1111 0.5000  plane waves:    8052
 k-point ** :   0.1667 0.1111 0.5000  plane waves:    8056
 k-point ** :   0.2222 0.1111 0.5000  plane waves:    8074
 k-point ** :   0.2778 0.1111 0.5000  plane waves:    8086
 k-point ** :   0.3333 0.1111 0.5000  plane waves:    8094
 k-point ** :   0.3889 0.1111 0.5000  plane waves:    8086
 k-point ** :   0.4444 0.1111 0.5000  plane waves:    8084
 k-point ** :   0.1667 0.1667 0.5000  plane waves:    8074
 k-point ** :   0.2222 0.1667 0.5000  plane waves:    8086
 k-point ** :   0.2778 0.1667 0.5000  plane waves:    8092
 k-point ** :   0.3333 0.1667 0.5000  plane waves:    8102
 k-point ** :   0.3889 0.1667 0.5000  plane waves:    8104
 k-point ** :   0.2222 0.2222 0.5000  plane waves:    8096
 k-point ** :   0.2778 0.2222 0.5000  plane waves:    8092
 k-point ** :   0.3333 0.2222 0.5000  plane waves:    8094
 k-point ** :   0.3889 0.2222 0.5000  plane waves:    8126
 k-point ** :   0.2778 0.2778 0.5000  plane waves:    8084
 k-point ** :   0.3333 0.2778 0.5000  plane waves:    8124
 k-point ** :   0.3333 0.3333 0.5000  plane waves:    8106

 maximum and minimum number of plane-waves per node :      8127     7993

 maximum number of plane-waves:      8127
 maximum index in each direction: 
   IXMAX=    7   IYMAX=    7   IZMAX=   44
   IXMIN=   -7   IYMIN=   -7   IZMIN=  -44


 serial   3D FFT for wavefunctions
 parallel 3D FFT for charge:
    minimum data exchange during FFTs selected (reduces bandwidth)


 total amount of memory used by VASP MPI-rank0   784246. kBytes
=======================================================================

   base      :      30000. kBytes
   nonl-proj :     521492. kBytes
   fftplans  :      21173. kBytes
   grid      :      14726. kBytes
   one-center:        217. kBytes
   wavefun   :     196638. kBytes
 
     INWAV:  cpu time    0.0000: real time    0.0001
 initial charge density was supplied:
 number of electron     124.0000001 magnetization 
 keeping initial charge density in first step


--------------------------------------------------------------------------------------------------------


 Maximum index for augmentation-charges        18539 (set IRDMAX)


--------------------------------------------------------------------------------------------------------


 First call to EWALD:  gamma=   0.260
 Maximum number of real-space cells 5x 5x 1
 Maximum number of reciprocal cells 2x 2x 9

    FEWALD:  cpu time    0.0128: real time    0.0130


--------------------------------------- Iteration      1(   1)  ---------------------------------------


    POTLOK:  cpu time    0.0887: real time    0.1055
    SETDIJ:  cpu time    0.2979: real time    0.2987
     EDDAV:  cpu time   53.0839: real time   54.9831
 BZINTS: Fermi energy: 24.323016;124.000000 electrons
         Band energy: 864.622648;  BLOECHL correction: -0.226083
       DOS:  cpu time    0.2515: real time    0.2651
    --------------------------------------------
      LOOP:  cpu time   53.7220: real time   55.6524

 eigenvalue-minimisations  : 23736
 total energy-change (2. order) : 0.1322802E+04  (-0.5283331E+04)
 number of electron     124.0000001 magnetization 
 augmentation part      124.0000001 magnetization 

 Free energy of the ion-electron system (eV)
  ---------------------------------------------------
  alpha Z        PSCENC =       291.43441221
  Ewald energy   TEWEN  =     -8116.26381694
  -Hartree energ DENC   =     -3827.27325910
  -exchange      EXHF   =         0.00000000
  -V(xc)+E(xc)   XCENC  =       381.64750971
  PAW double counting   =     16351.99703276   -16642.90021681
  entropy T*S    EENTRO =         0.00000000
  eigenvalues    EBANDS =       864.62264827
  atomic energy  EATOM  =     12019.53804467
  Solvation  Ediel_sol  =         0.00000000
  ---------------------------------------------------
  free energy    TOTEN  =      1322.80235477 eV

  energy without entropy =     1322.80235477  energy(sigma->0) =     1322.80235477


--------------------------------------------------------------------------------------------------------




--------------------------------------- Iteration      1(   2)  ---------------------------------------


     EDDAV:  cpu time   52.8467: real time   54.1816
 BZINTS: Fermi energy:  9.986247;124.000000 electrons
         Band energy:-261.177001;  BLOECHL correction: -0.066254
       DOS:  cpu time    0.2455: real time    0.3630
    --------------------------------------------
      LOOP:  cpu time   53.0921: real time   54.5446

 eigenvalue-minimisations  : 23680
 total energy-change (2. order) :-0.1125800E+04  (-0.1079900E+04)
 number of electron     124.0000001 magnetization 
 augmentation part      124.0000001 magnetization 

 Free energy of the ion-electron system (eV)
  ---------------------------------------------------
  alpha Z        PSCENC =       291.43441221
  Ewald energy   TEWEN  =     -8116.26381694
  -Hartree energ DENC   =     -3827.27325910
  -exchange      EXHF   =         0.00000000
  -V(xc)+E(xc)   XCENC  =       381.64750971
  PAW double counting   =     16351.99703276   -16642.90021681
  entropy T*S    EENTRO =         0.00000000
  eigenvalues    EBANDS =      -261.17700062
  atomic energy  EATOM  =     12019.53804467
  Solvation  Ediel_sol  =         0.00000000
  ---------------------------------------------------
  free energy    TOTEN  =       197.00270587 eV

  energy without entropy =      197.00270587  energy(sigma->0) =      197.00270587


--------------------------------------------------------------------------------------------------------




--------------------------------------- Iteration      1(   3)  ---------------------------------------


     EDDAV:  cpu time   55.6137: real time   57.6909
 BZINTS: Fermi energy:  5.329990;124.000000 electrons
         Band energy:-490.016735;  BLOECHL correction:  0.000000
       DOS:  cpu time    0.1546: real time    0.1552
    --------------------------------------------
      LOOP:  cpu time   55.7683: real time   57.8461

 eigenvalue-minimisations  : 26832
 total energy-change (2. order) :-0.2288397E+03  (-0.2178881E+03)
 number of electron     124.0000001 magnetization 
 augmentation part      124.0000001 magnetization 

 Free energy of the ion-electron system (eV)
  ---------------------------------------------------
  alpha Z        PSCENC =       291.43441221
  Ewald energy   TEWEN  =     -8116.26381694
  -Hartree energ DENC   =     -3827.27325910
  -exchange      EXHF   =         0.00000000
  -V(xc)+E(xc)   XCENC  =       381.64750971
  PAW double counting   =     16351.99703276   -16642.90021681
  entropy T*S    EENTRO =         0.00000000
  eigenvalues    EBANDS =      -490.01673471
  atomic energy  EATOM  =     12019.53804467
  Solvation  Ediel_sol  =         0.00000000
  ---------------------------------------------------
  free energy    TOTEN  =       -31.83702822 eV

  energy without entropy =      -31.83702822  energy(sigma->0) =      -31.83702822


--------------------------------------------------------------------------------------------------------




--------------------------------------- Iteration      1(   4)  ---------------------------------------


     EDDAV:  cpu time   58.6169: real time   60.0416
 BZINTS: Fermi energy:  4.557498;124.000000 electrons
         Band energy:-510.524786;  BLOECHL correction:  0.000000
       DOS:  cpu time    0.1037: real time    0.1040
    --------------------------------------------
      LOOP:  cpu time   58.7206: real time   60.1456

 eigenvalue-minimisations  : 29128
 total energy-change (2. order) :-0.2050805E+02  (-0.2015678E+02)
 number of electron     124.0000001 magnetization 
 augmentation part      124.0000001 magnetization 

 Free energy of the ion-electron system (eV)
  ---------------------------------------------------
  alpha Z        PSCENC =       291.43441221
  Ewald energy   TEWEN  =     -8116.26381694
  -Hartree energ DENC   =     -3827.27325910
  -exchange      EXHF   =         0.00000000
  -V(xc)+E(xc)   XCENC  =       381.64750971
  PAW double counting   =     16351.99703276   -16642.90021681
  entropy T*S    EENTRO =         0.00000000
  eigenvalues    EBANDS =      -510.52478600
  atomic energy  EATOM  =     12019.53804467
  Solvation  Ediel_sol  =         0.00000000
  ---------------------------------------------------
  free energy    TOTEN  =       -52.34507950 eV

  energy without entropy =      -52.34507950  energy(sigma->0) =      -52.34507950


--------------------------------------------------------------------------------------------------------




--------------------------------------- Iteration      1(   5)  ---------------------------------------


     EDDAV:  cpu time   58.7343: real time   60.5162
 BZINTS: Fermi energy:  4.507654;124.000000 electrons
         Band energy:-511.434613;  BLOECHL correction:  0.000000
       DOS:  cpu time    0.0904: real time    0.1736
    --------------------------------------------
      LOOP:  cpu time   58.8246: real time   60.6898

 eigenvalue-minimisations  : 31328
 total energy-change (2. order) :-0.9098271E+00  (-0.9065242E+00)
 number of electron     124.0000001 magnetization 
 augmentation part      124.0000001 magnetization 

 Free energy of the ion-electron system (eV)
  ---------------------------------------------------
  alpha Z        PSCENC =       291.43441221
  Ewald energy   TEWEN  =     -8116.26381694
  -Hartree energ DENC   =     -3827.27325910
  -exchange      EXHF   =         0.00000000
  -V(xc)+E(xc)   XCENC  =       381.64750971
  PAW double counting   =     16351.99703276   -16642.90021681
  entropy T*S    EENTRO =         0.00000000
  eigenvalues    EBANDS =      -511.43461308
  atomic energy  EATOM  =     12019.53804467
  Solvation  Ediel_sol  =         0.00000000
  ---------------------------------------------------
  free energy    TOTEN  =       -53.25490658 eV

  energy without entropy =      -53.25490658  energy(sigma->0) =      -53.25490658


--------------------------------------------------------------------------------------------------------




--------------------------------------- Iteration      1(   6)  ---------------------------------------


     EDDAV:  cpu time   66.9351: real time   71.3187
 BZINTS: Fermi energy:  4.512532;124.000000 electrons
         Band energy:-511.478092;  BLOECHL correction:  0.000000
       DOS:  cpu time    0.0944: real time    0.0946
    --------------------------------------------
      LOOP:  cpu time   67.0295: real time   71.4133

 eigenvalue-minimisations  : 35984
 total energy-change (2. order) :-0.4347913E-01  (-0.4346526E-01)
 number of electron     124.0000001 magnetization 
 augmentation part      124.0000001 magnetization 

 Free energy of the ion-electron system (eV)
  ---------------------------------------------------
  alpha Z        PSCENC =       291.43441221
  Ewald energy   TEWEN  =     -8116.26381694
  -Hartree energ DENC   =     -3827.27325910
  -exchange      EXHF   =         0.00000000
  -V(xc)+E(xc)   XCENC  =       381.64750971
  PAW double counting   =     16351.99703276   -16642.90021681
  entropy T*S    EENTRO =         0.00000000
  eigenvalues    EBANDS =      -511.47809221
  atomic energy  EATOM  =     12019.53804467
  Solvation  Ediel_sol  =         0.00000000
  ---------------------------------------------------
  free energy    TOTEN  =       -53.29838572 eV

  energy without entropy =      -53.29838572  energy(sigma->0) =      -53.29838572


--------------------------------------------------------------------------------------------------------




--------------------------------------- Iteration      1(   7)  ---------------------------------------


     EDDAV:  cpu time   71.6613: real time   75.4360
 BZINTS: Fermi energy:  4.509567;124.000000 electrons
         Band energy:-511.478991;  BLOECHL correction:  0.000000
       DOS:  cpu time    0.0913: real time    0.1825
    --------------------------------------------
      LOOP:  cpu time   71.7526: real time   75.6185

 eigenvalue-minimisations  : 36304
 total energy-change (2. order) :-0.8987453E-03  (-0.8986842E-03)
 number of electron     124.0000001 magnetization 
 augmentation part      124.0000001 magnetization 

 Free energy of the ion-electron system (eV)
  ---------------------------------------------------
  alpha Z        PSCENC =       291.43441221
  Ewald energy   TEWEN  =     -8116.26381694
  -Hartree energ DENC   =     -3827.27325910
  -exchange      EXHF   =         0.00000000
  -V(xc)+E(xc)   XCENC  =       381.64750971
  PAW double counting   =     16351.99703276   -16642.90021681
  entropy T*S    EENTRO =         0.00000000
  eigenvalues    EBANDS =      -511.47899096
  atomic energy  EATOM  =     12019.53804467
  Solvation  Ediel_sol  =         0.00000000
  ---------------------------------------------------
  free energy    TOTEN  =       -53.29928446 eV

  energy without entropy =      -53.29928446  energy(sigma->0) =      -53.29928446


--------------------------------------------------------------------------------------------------------




--------------------------------------- Iteration      1(   8)  ---------------------------------------


     EDDAV:  cpu time   69.8901: real time   72.6795
 BZINTS: Fermi energy:  4.508686;124.000000 electrons
         Band energy:-511.479020;  BLOECHL correction:  0.000000
       DOS:  cpu time    0.0869: real time    0.0872
    --------------------------------------------
      LOOP:  cpu time   69.9771: real time   72.7666

 eigenvalue-minimisations  : 36336
 total energy-change (2. order) :-0.2924654E-04  (-0.2924602E-04)
 number of electron     124.0000001 magnetization 
 augmentation part      124.0000001 magnetization 

 Free energy of the ion-electron system (eV)
  ---------------------------------------------------
  alpha Z        PSCENC =       291.43441221
  Ewald energy   TEWEN  =     -8116.26381694
  -Hartree energ DENC   =     -3827.27325910
  -exchange      EXHF   =         0.00000000
  -V(xc)+E(xc)   XCENC  =       381.64750971
  PAW double counting   =     16351.99703276   -16642.90021681
  entropy T*S    EENTRO =         0.00000000
  eigenvalues    EBANDS =      -511.47902021
  atomic energy  EATOM  =     12019.53804467
  Solvation  Ediel_sol  =         0.00000000
  ---------------------------------------------------
  free energy    TOTEN  =       -53.29931371 eV

  energy without entropy =      -53.29931371  energy(sigma->0) =      -53.29931371


--------------------------------------------------------------------------------------------------------




--------------------------------------- Iteration      1(   9)  ---------------------------------------


     EDDAV:  cpu time   66.2083: real time   69.2980
 BZINTS: Fermi energy:  4.506164;124.000000 electrons
         Band energy:-511.479021;  BLOECHL correction:  0.000000
       DOS:  cpu time    0.0927: real time    0.0929
    --------------------------------------------
      LOOP:  cpu time   66.3010: real time   69.3910

 eigenvalue-minimisations  : 36224
 total energy-change (2. order) :-0.9040232E-06  (-0.9039875E-06)
 number of electron     124.0000001 magnetization 
 augmentation part      124.0000001 magnetization 

 Free energy of the ion-electron system (eV)
  ---------------------------------------------------
  alpha Z        PSCENC =       291.43441221
  Ewald energy   TEWEN  =     -8116.26381694
  -Hartree energ DENC   =     -3827.27325910
  -exchange      EXHF   =         0.00000000
  -V(xc)+E(xc)   XCENC  =       381.64750971
  PAW double counting   =     16351.99703276   -16642.90021681
  entropy T*S    EENTRO =         0.00000000
  eigenvalues    EBANDS =      -511.47902111
  atomic energy  EATOM  =     12019.53804467
  Solvation  Ediel_sol  =         0.00000000
  ---------------------------------------------------
  free energy    TOTEN  =       -53.29931461 eV

  energy without entropy =      -53.29931461  energy(sigma->0) =      -53.29931461


--------------------------------------------------------------------------------------------------------




--------------------------------------- Iteration      1(  10)  ---------------------------------------


     EDDAV:  cpu time   54.0696: real time   55.6732
 BZINTS: Fermi energy:  4.511848;124.000000 electrons
         Band energy:-511.479021;  BLOECHL correction:  0.000000
       DOS:  cpu time    0.0921: real time    0.0923
    --------------------------------------------
      LOOP:  cpu time   54.1618: real time   55.7655

 eigenvalue-minimisations  : 25712
 total energy-change (2. order) :-0.3715104E-07  (-0.3719746E-07)
 number of electron     124.0000001 magnetization 
 augmentation part      124.0000001 magnetization 

 Free energy of the ion-electron system (eV)
  ---------------------------------------------------
  alpha Z        PSCENC =       291.43441221
  Ewald energy   TEWEN  =     -8116.26381694
  -Hartree energ DENC   =     -3827.27325910
  -exchange      EXHF   =         0.00000000
  -V(xc)+E(xc)   XCENC  =       381.64750971
  PAW double counting   =     16351.99703276   -16642.90021681
  entropy T*S    EENTRO =         0.00000000
  eigenvalues    EBANDS =      -511.47902115
  atomic energy  EATOM  =     12019.53804467
  Solvation  Ediel_sol  =         0.00000000
  ---------------------------------------------------
  free energy    TOTEN  =       -53.29931465 eV

  energy without entropy =      -53.29931465  energy(sigma->0) =      -53.29931465


--------------------------------------------------------------------------------------------------------




 average (electrostatic) potential at core
  the test charge radii are     1.0774  0.9521  0.9698
  (the norm of the test charge is              1.0000)
       1 -97.4236       2 -97.4237       3 -96.9381       4 -96.9381       5 -33.6510
       6 -33.6510       7 -85.5628       8 -85.5628       9 -87.6941      10 -87.6942
      11 -87.1700      12 -87.1701      13 -86.9075      14 -86.9076
 
 
 
 E-fermi :   4.5118     XC(G=0):  -9.4330     alpha+bet :-10.1115


 k-point     1 :       0.0000    0.0000    0.0000
  band No.  band energies     occupation 
      1     -11.0011      2.00000
      2     -11.0011      2.00000
      3     -10.7989      2.00000
      4     -10.7989      2.00000
      5     -10.7989      2.00000
      6     -10.7989      2.00000
      7     -10.6208      2.00000
      8     -10.6208      2.00000
      9     -10.6208      2.00000
     10     -10.6207      2.00000
     11     -10.2755      2.00000
     12     -10.2755      2.00000
     13     -10.2754      2.00000
     14     -10.2754      2.00000
     15     -10.2565      2.00000
     16     -10.2562      2.00000
     17     -10.1235      2.00000
     18     -10.1235      2.00000
     19     -10.1234      2.00000
     20     -10.1234      2.00000
     21      -9.7303      2.00000
     22      -9.7215      2.00000
     23      -9.1532      2.00000
     24      -9.1238      2.00000
     25      -8.1907      2.00000
     26      -8.1370      2.00000
     27      -7.4346      2.00000
     28      -7.3966      2.00000
     29      -2.0776      2.00000
     30      -2.0314      2.00000
     31      -1.5674      2.00000
     32      -1.5674      2.00000
     33      -1.5674      2.00000
     34      -1.5674      2.00000
     35      -1.3505      2.00000
     36      -1.1224      2.00000
     37      -1.1224      2.00000
     38      -1.1224      2.00000
     39      -1.1224      2.00000
     40      -1.0842      2.00000
     41      -0.1298      2.00000
     42       0.4460      2.00000
     43       1.3990      2.00000
     44       2.0637      2.00000
     45       2.0637      2.00000
     46       2.0656      2.00000
     47       2.0656      2.00000
     48       2.1587      2.00000
     49       2.6995      2.00000
     50       2.6995      2.00000
     51       2.7092      2.00000
     52       2.7092      2.00000
     53       2.9818      2.00000
     54       2.9818      2.00000
     55       2.9903      2.00000
     56       2.9904      2.00000
     57       3.1071      2.00000
     58       3.9011      2.00000
     59       4.5042      2.00000
     60       4.5042      2.00000
     61       4.5049      2.00000
     62       4.5049      2.00000
     63       4.7835      0.00000
     64       5.4932      0.00000
     65       6.0711      0.00000
     66       6.3516      0.00000
     67       7.1970      0.00000
     68       7.2544      0.00000
     69       7.6930      0.00000
     70       7.8678      0.00000
     71       8.9797      0.00000
     72       8.9797      0.00000
     73       9.0016      0.00000
     74       9.0016      0.00000
     75       9.0175      0.00000
     76       9.0733      0.00000
     77       9.5805      0.00000
     78       9.5805      0.00000
     79       9.6209      0.00000
     80       9.6209      0.00000

 k-point     2 :       0.0556    0.0000    0.0000
  band No.  band energies     occupation 
      1     -11.0046      2.00000
      2     -11.0045      2.00000
      3     -10.8082      2.00000
      4     -10.8081      2.00000
      5     -10.7960      2.00000
      6     -10.7960      2.00000
      7     -10.6237      2.00000
      8     -10.6237      2.00000
      9     -10.6206      2.00000
     10     -10.6206      2.00000
     11     -10.2957      2.00000
     12     -10.2956      2.00000
     13     -10.2730      2.00000
     14     -10.2730      2.00000
     15     -10.2447      2.00000
     16     -10.2445      2.00000
     17     -10.1263      2.00000
     18     -10.1262      2.00000
     19     -10.1230      2.00000
     20     -10.1230      2.00000
     21      -9.6922      2.00000
     22      -9.6829      2.00000
     23      -9.1293      2.00000
     24      -9.0999      2.00000
     25      -8.1613      2.00000
     26      -8.1080      2.00000
     27      -7.4173      2.00000
     28      -7.3795      2.00000
     29      -2.0677      2.00000
     30      -2.0182      2.00000
     31      -1.5674      2.00000
     32      -1.5672      2.00000
     33      -1.5608      2.00000
     34      -1.5608      2.00000
     35      -1.3469      2.00000
     36      -1.1302      2.00000
     37      -1.1261      2.00000
     38      -1.1226      2.00000
     39      -1.1225      2.00000
     40      -1.0782      2.00000
     41      -0.1256      2.00000
     42       0.4148      2.00000
     43       1.3951      2.00000
     44       1.8463      2.00000
     45       1.9037      2.00000
     46       2.0230      2.00000
     47       2.0258      2.00000
     48       2.1493      2.00000
     49       2.4304      2.00000
     50       2.5060      2.00000
     51       2.6151      2.00000
     52       2.6259      2.00000
     53       2.8772      2.00000
     54       2.9011      2.00000
     55       3.0178      2.00000
     56       3.0272      2.00000
     57       3.3392      2.00000
     58       3.9342      2.00000
     59       4.2493      2.00000
     60       4.3249      2.00000
     61       4.4598      2.00000
     62       4.4610      2.00000
     63       5.0157      0.00000
     64       5.5757      0.00000
     65       6.1821      0.00000
     66       6.4501      0.00000
     67       7.3534      0.00000
     68       7.4097      0.00000
     69       7.8435      0.00000
     70       7.9951      0.00000
     71       8.7386      0.00000
     72       8.7626      0.00000
     73       9.0329      0.00000
     74       9.0560      0.00000
     75       9.1397      0.00000
     76       9.1493      0.00000
     77       9.5692      0.00000
     78       9.6286      0.00000
     79       9.6575      0.00000
     80       9.6997      0.00000

 k-point     3 :       0.1111    0.0000    0.0000
  band No.  band energies     occupation 
      1     -11.0175      2.00000
      2     -11.0174      2.00000
      3     -10.8294      2.00000
      4     -10.8293      2.00000
      5     -10.7878      2.00000
      6     -10.7878      2.00000
      7     -10.6308      2.00000
      8     -10.6307      2.00000
      9     -10.6199      2.00000
     10     -10.6198      2.00000
     11     -10.3398      2.00000
     12     -10.3397      2.00000
     13     -10.2662      2.00000
     14     -10.2662      2.00000
     15     -10.2248      2.00000
     16     -10.2247      2.00000
     17     -10.1327      2.00000
     18     -10.1326      2.00000
     19     -10.1215      2.00000
     20     -10.1214      2.00000
     21      -9.5849      2.00000
     22      -9.5747      2.00000
     23      -9.0582      2.00000
     24      -9.0287      2.00000
     25      -8.0784      2.00000
     26      -8.0261      2.00000
     27      -7.3670      2.00000
     28      -7.3300      2.00000
     29      -2.0415      2.00000
     30      -1.9830      2.00000
     31      -1.5662      2.00000
     32      -1.5653      2.00000
     33      -1.5418      2.00000
     34      -1.5418      2.00000
     35      -1.3368      2.00000
     36      -1.1479      2.00000
     37      -1.1364      2.00000
     38      -1.1227      2.00000
     39      -1.1227      2.00000
     40      -1.0675      2.00000
     41      -0.1266      2.00000
     42       0.3010      2.00000
     43       1.3000      2.00000
     44       1.4025      2.00000
     45       1.5692      2.00000
     46       1.9097      2.00000
     47       1.9144      2.00000
     48       1.9296      2.00000
     49       2.0721      2.00000
     50       2.1608      2.00000
     51       2.4344      2.00000
     52       2.4478      2.00000
     53       2.5797      2.00000
     54       2.6568      2.00000
     55       3.0620      2.00000
     56       3.0737      2.00000
     57       3.6201      2.00000
     58       3.7471      2.00000
     59       3.9064      2.00000
     60       4.0401      2.00000
     61       4.3357      2.00000
     62       4.3388      2.00000
     63       5.3843      0.00000
     64       5.7399      0.00000
     65       6.4384      0.00000
     66       6.6556      0.00000
     67       7.6867      0.00000
     68       7.7744      0.00000
     69       8.0796      0.00000
     70       8.2268      0.00000
     71       8.4904      0.00000
     72       8.6236      0.00000
     73       9.0223      0.00000
     74       9.1776      0.00000
     75       9.1811      0.00000
     76       9.2027      0.00000
     77       9.5815      0.00000
     78       9.8516      0.00000
     79       9.8763      0.00000
     80       9.9223      0.00000

 k-point     4 :       0.1667    0.0000    0.0000
  band No.  band energies     occupation 
      1     -11.0441      2.00000
      2     -11.0440      2.00000
      3     -10.8492      2.00000
      4     -10.8491      2.00000
      5     -10.7758      2.00000
      6     -10.7758      2.00000
      7     -10.6392      2.00000
      8     -10.6391      2.00000
      9     -10.6182      2.00000
     10     -10.6182      2.00000
     11     -10.3987      2.00000
     12     -10.3986      2.00000
     13     -10.2568      2.00000
     14     -10.2567      2.00000
     15     -10.2022      2.00000
     16     -10.2021      2.00000
     17     -10.1392      2.00000
     18     -10.1391      2.00000
     19     -10.1180      2.00000
     20     -10.1180      2.00000
     21      -9.4232      2.00000
     22      -9.4121      2.00000
     23      -8.9417      2.00000
     24      -8.9123      2.00000
     25      -7.9553      2.00000
     26      -7.9053      2.00000
     27      -7.2882      2.00000
     28      -7.2533      2.00000
     29      -2.0096      2.00000
     30      -1.9405      2.00000
     31      -1.5608      2.00000
     32      -1.5580      2.00000
     33      -1.5124      2.00000
     34      -1.5124      2.00000
     35      -1.3222      2.00000
     36      -1.1708      2.00000
     37      -1.1524      2.00000
     38      -1.1224      2.00000
     39      -1.1224      2.00000
     40      -1.0633      2.00000
     41      -0.1848      2.00000
     42       0.0570      2.00000
     43       0.8420      2.00000
     44       0.9934      2.00000
     45       1.2700      2.00000
     46       1.5897      2.00000
     47       1.7117      2.00000
     48       1.7454      2.00000
     49       1.7526      2.00000
     50       1.9562      2.00000
     51       2.2149      2.00000
     52       2.2189      2.00000
     53       2.2358      2.00000
     54       2.3475      2.00000
     55       3.0745      2.00000
     56       3.0907      2.00000
     57       3.2531      2.00000
     58       3.4427      2.00000
     59       3.8212      2.00000
     60       4.0450      2.00000
     61       4.1558      2.00000
     62       4.1628      2.00000
     63       5.7301      0.00000
     64       5.8872      0.00000
     65       6.6257      0.00000
     66       6.7466      0.00000
     67       7.7537      0.00000
     68       7.8517      0.00000
     69       8.2415      0.00000
     70       8.3742      0.00000
     71       8.6935      0.00000
     72       8.8122      0.00000
     73       9.0707      0.00000
     74       9.3110      0.00000
     75       9.3724      0.00000
     76       9.3953      0.00000
     77       9.7774      0.00000
     78      10.1832      0.00000
     79      10.2009      0.00000
     80      10.2487      0.00000

 k-point     5 :       0.2222    0.0000    0.0000
  band No.  band energies     occupation 
      1     -11.0830      2.00000
      2     -11.0830      2.00000
      3     -10.8607      2.00000
      4     -10.8607      2.00000
      5     -10.7620      2.00000
      6     -10.7620      2.00000
      7     -10.6477      2.00000
      8     -10.6476      2.00000
      9     -10.6150      2.00000
     10     -10.6150      2.00000
     11     -10.4625      2.00000
     12     -10.4624      2.00000
     13     -10.2469      2.00000
     14     -10.2468      2.00000
     15     -10.1827      2.00000
     16     -10.1826      2.00000
     17     -10.1418      2.00000
     18     -10.1417      2.00000
     19     -10.1119      2.00000
     20     -10.1119      2.00000
     21      -9.2215      2.00000
     22      -9.2099      2.00000
     23      -8.7857      2.00000
     24      -8.7573      2.00000
     25      -7.8094      2.00000
     26      -7.7641      2.00000
     27      -7.1891      2.00000
     28      -7.1583      2.00000
     29      -1.9918      2.00000
     30      -1.9190      2.00000
     31      -1.5477      2.00000
     32      -1.5406      2.00000
     33      -1.4760      2.00000
     34      -1.4760      2.00000
     35      -1.3098      2.00000
     36      -1.1989      2.00000
     37      -1.1732      2.00000
     38      -1.1208      2.00000
     39      -1.1208      2.00000
     40      -1.0823      2.00000
     41      -0.4045      2.00000
     42      -0.3212      2.00000
     43       0.4151      2.00000
     44       0.6053      2.00000
     45       0.8960      2.00000
     46       1.1864      2.00000
     47       1.5569      2.00000
     48       1.5668      2.00000
     49       1.6137      2.00000
     50       1.6751      2.00000
     51       1.8595      2.00000
     52       1.9971      2.00000
     53       2.0179      2.00000
     54       2.0643      2.00000
     55       2.8276      2.00000
     56       3.0554      2.00000
     57       3.0575      2.00000
     58       3.0785      2.00000
     59       3.9324      2.00000
     60       3.9498      2.00000
     61       3.9633      2.00000
     62       4.0192      2.00000
     63       5.9409      0.00000
     64       5.9692      0.00000
     65       6.5742      0.00000
     66       6.6291      0.00000
     67       7.5389      0.00000
     68       7.6148      0.00000
     69       8.4383      0.00000
     70       8.5881      0.00000
     71       8.9495      0.00000
     72       9.0514      0.00000
     73       9.4665      0.00000
     74       9.5604      0.00000
     75       9.5710      0.00000
     76       9.5972      0.00000
     77      10.0113      0.00000
     78      10.4346      0.00000
     79      10.5917      0.00000
     80      10.6247      0.00000

 k-point     6 :       0.2778    0.0000    0.0000
  band No.  band energies     occupation 
      1     -11.1264      2.00000
      2     -11.1263      2.00000
      3     -10.8668      2.00000
      4     -10.8667      2.00000
      5     -10.7489      2.00000
      6     -10.7488      2.00000
      7     -10.6559      2.00000
      8     -10.6558      2.00000
      9     -10.6099      2.00000
     10     -10.6098      2.00000
     11     -10.5215      2.00000
     12     -10.5214      2.00000
     13     -10.2387      2.00000
     14     -10.2386      2.00000
     15     -10.1753      2.00000
     16     -10.1752      2.00000
     17     -10.1336      2.00000
     18     -10.1336      2.00000
     19     -10.1029      2.00000
     20     -10.1029      2.00000
     21      -8.9943      2.00000
     22      -8.9829      2.00000
     23      -8.6024      2.00000
     24      -8.5764      2.00000
     25      -7.6602      2.00000
     26      -7.6226      2.00000
     27      -7.0807      2.00000
     28      -7.0567      2.00000
     29      -2.0200      2.00000
     30      -1.9592      2.00000
     31      -1.5269      2.00000
     32      -1.5111      2.00000
     33      -1.4374      2.00000
     34      -1.4374      2.00000
     35      -1.3214      2.00000
     36      -1.2467      2.00000
     37      -1.1957      2.00000
     38      -1.1358      2.00000
     39      -1.1172      2.00000
     40      -1.1171      2.00000
     41      -0.7830      2.00000
     42      -0.7276      2.00000
     43       0.1081      2.00000
     44       0.2927      2.00000
     45       0.6422      2.00000
     46       0.8476      2.00000
     47       1.2477      2.00000
     48       1.3512      2.00000
     49       1.3693      2.00000
     50       1.3817      2.00000
     51       1.7374      2.00000
     52       1.7893      2.00000
     53       1.8137      2.00000
     54       1.8452      2.00000
     55       2.5696      2.00000
     56       2.7887      2.00000
     57       3.0130      2.00000
     58       3.0459      2.00000
     59       3.7462      2.00000
     60       3.7693      2.00000
     61       3.9592      2.00000
     62       3.9812      2.00000
     63       5.9007      0.00000
     64       6.0066      0.00000
     65       6.3851      0.00000
     66       6.4681      0.00000
     67       7.2895      0.00000
     68       7.3932      0.00000
     69       8.5197      0.00000
     70       8.7521      0.00000
     71       8.9453      0.00000
     72       9.1345      0.00000
     73       9.6807      0.00000
     74       9.6946      0.00000
     75       9.7486      0.00000
     76       9.9383      0.00000
     77      10.1784      0.00000
     78      10.4931      0.00000
     79      10.8192      0.00000
     80      10.9339      0.00000

 k-point     7 :       0.3333    0.0000    0.0000
  band No.  band energies     occupation 
      1     -11.1662      2.00000
      2     -11.1662      2.00000
      3     -10.8720      2.00000
      4     -10.8719      2.00000
      5     -10.7383      2.00000
      6     -10.7383      2.00000
      7     -10.6636      2.00000
      8     -10.6636      2.00000
      9     -10.6031      2.00000
     10     -10.6031      2.00000
     11     -10.5684      2.00000
     12     -10.5682      2.00000
     13     -10.2331      2.00000
     14     -10.2331      2.00000
     15     -10.1776      2.00000
     16     -10.1775      2.00000
     17     -10.1187      2.00000
     18     -10.1186      2.00000
     19     -10.0921      2.00000
     20     -10.0921      2.00000
     21      -8.7587      2.00000
     22      -8.7482      2.00000
     23      -8.4127      2.00000
     24      -8.3905      2.00000
     25      -7.5274      2.00000
     26      -7.5003      2.00000
     27      -6.9769      2.00000
     28      -6.9613      2.00000
     29      -2.1280      2.00000
     30      -2.0931      2.00000
     31      -1.5395      2.00000
     32      -1.4846      2.00000
     33      -1.4165      2.00000
     34      -1.4019      2.00000
     35      -1.4019      2.00000
     36      -1.3682      2.00000
     37      -1.2100      2.00000
     38      -1.1945      2.00000
     39      -1.1110      2.00000
     40      -1.1109      2.00000
     41      -1.0662      2.00000
     42      -1.0018      2.00000
     43      -0.0953      2.00000
     44       0.0511      2.00000
     45       0.4530      2.00000
     46       0.6041      2.00000
     47       0.8656      2.00000
     48       0.9691      2.00000
     49       1.2033      2.00000
     50       1.2180      2.00000
     51       1.6041      2.00000
     52       1.6113      2.00000
     53       1.6390      2.00000
     54       1.8162      2.00000
     55       2.4650      2.00000
     56       2.5998      2.00000
     57       2.9577      2.00000
     58       3.0024      2.00000
     59       3.5693      2.00000
     60       3.6039      2.00000
     61       3.9010      2.00000
     62       3.9655      2.00000
     63       5.7624      0.00000
     64       5.9056      0.00000
     65       6.2294      0.00000
     66       6.3202      0.00000
     67       7.0897      0.00000
     68       7.2383      0.00000
     69       8.5043      0.00000
     70       8.7421      0.00000
     71       8.8502      0.00000
     72       9.0589      0.00000
     73       9.6968      0.00000
     74       9.7190      0.00000
     75       9.7621      0.00000
     76       9.9540      0.00000
     77      10.2517      0.00000
     78      10.6791      0.00000
     79      10.7440      0.00000
     80      11.1388      0.00000

 k-point     8 :       0.3889    0.0000    0.0000
  band No.  band energies     occupation 
      1     -11.1974      2.00000
      2     -11.1974      2.00000
      3     -10.8781      2.00000
      4     -10.8779      2.00000
      5     -10.7311      2.00000
      6     -10.7310      2.00000
      7     -10.6708      2.00000
      8     -10.6708      2.00000
      9     -10.5994      2.00000
     10     -10.5993      2.00000
     11     -10.5961      2.00000
     12     -10.5961      2.00000
     13     -10.2300      2.00000
     14     -10.2300      2.00000
     15     -10.1817      2.00000
     16     -10.1817      2.00000
     17     -10.1053      2.00000
     18     -10.1053      2.00000
     19     -10.0817      2.00000
     20     -10.0817      2.00000
     21      -8.5391      2.00000
     22      -8.5302      2.00000
     23      -8.2460      2.00000
     24      -8.2289      2.00000
     25      -7.4284      2.00000
     26      -7.4121      2.00000
     27      -6.8918      2.00000
     28      -6.8841      2.00000
     29      -2.3034      2.00000
     30      -2.2905      2.00000
     31      -1.7267      2.00000
     32      -1.6857      2.00000
     33      -1.4284      2.00000
     34      -1.3964      2.00000
     35      -1.3742      2.00000
     36      -1.3742      2.00000
     37      -1.2498      2.00000
     38      -1.2295      2.00000
     39      -1.1031      2.00000
     40      -1.1030      2.00000
     41      -1.0852      2.00000
     42      -1.0449      2.00000
     43      -0.2405      2.00000
     44      -0.1456      2.00000
     45       0.2289      2.00000
     46       0.3976      2.00000
     47       0.5694      2.00000
     48       0.7766      2.00000
     49       1.0743      2.00000
     50       1.0907      2.00000
     51       1.4755      2.00000
     52       1.5057      2.00000
     53       1.5537      2.00000
     54       1.7766      2.00000
     55       2.4465      2.00000
     56       2.4608      2.00000
     57       2.9018      2.00000
     58       2.9579      2.00000
     59       3.4362      2.00000
     60       3.4822      2.00000
     61       3.8382      2.00000
     62       3.9326      2.00000
     63       5.6130      0.00000
     64       5.7864      0.00000
     65       6.0916      0.00000
     66       6.1984      0.00000
     67       6.9572      0.00000
     68       7.1552      0.00000
     69       8.4489      0.00000
     70       8.5820      0.00000
     71       8.8261      0.00000
     72       8.9418      0.00000
     73       9.5580      0.00000
     74       9.7139      0.00000
     75       9.7566      0.00000
     76       9.7821      0.00000
     77      10.2584      0.00000
     78      10.6629      0.00000
     79      10.7607      0.00000
     80      11.1993      0.00000

 k-point     9 :       0.4444    0.0000    0.0000
  band No.  band energies     occupation 
      1     -11.2172      2.00000
      2     -11.2171      2.00000
      3     -10.8835      2.00000
      4     -10.8834      2.00000
      5     -10.7270      2.00000
      6     -10.7270      2.00000
      7     -10.6764      2.00000
      8     -10.6764      2.00000
      9     -10.6156      2.00000
     10     -10.6155      2.00000
     11     -10.5908      2.00000
     12     -10.5907      2.00000
     13     -10.2286      2.00000
     14     -10.2286      2.00000
     15     -10.1848      2.00000
     16     -10.1848      2.00000
     17     -10.0967      2.00000
     18     -10.0967      2.00000
     19     -10.0743      2.00000
     20     -10.0742      2.00000
     21      -8.3716      2.00000
     22      -8.3644      2.00000
     23      -8.1354      2.00000
     24      -8.1232      2.00000
     25      -7.3716      2.00000
     26      -7.3631      2.00000
     27      -6.8369      2.00000
     28      -6.8338      2.00000
     29      -2.4693      2.00000
     30      -2.4562      2.00000
     31      -1.9088      2.00000
     32      -1.8787      2.00000
     33      -1.4124      2.00000
     34      -1.3797      2.00000
     35      -1.3571      2.00000
     36      -1.3571      2.00000
     37      -1.2765      2.00000
     38      -1.2490      2.00000
     39      -1.0961      2.00000
     40      -1.0960      2.00000
     41      -0.9952      2.00000
     42      -0.9753      2.00000
     43      -0.3795      2.00000
     44      -0.3103      2.00000
     45      -0.0147      2.00000
     46       0.1878      2.00000
     47       0.4915      2.00000
     48       0.7658      2.00000
     49       0.9927      2.00000
     50       1.0102      2.00000
     51       1.3906      2.00000
     52       1.4224      2.00000
     53       1.5476      2.00000
     54       1.7105      2.00000
     55       2.3711      2.00000
     56       2.4624      2.00000
     57       2.8596      2.00000
     58       2.9235      2.00000
     59       3.3559      2.00000
     60       3.4096      2.00000
     61       3.7802      2.00000
     62       3.9132      2.00000
     63       5.5134      0.00000
     64       5.7028      0.00000
     65       5.9902      0.00000
     66       6.1135      0.00000
     67       6.8833      0.00000
     68       7.1198      0.00000
     69       8.3912      0.00000
     70       8.4725      0.00000
     71       8.7845      0.00000
     72       8.8887      0.00000
     73       9.3883      0.00000
     74       9.6382      0.00000
     75       9.6973      0.00000
     76       9.7815      0.00000
     77      10.2448      0.00000
     78      10.6041      0.00000
     79      10.7072      0.00000
     80      11.0880      0.00000

 k-point    10 :       0.5000    0.0000    0.0000
  band No.  band energies     occupation 
      1     -11.2239      2.00000
      2     -11.2239      2.00000
      3     -10.8857      2.00000
      4     -10.8856      2.00000
      5     -10.7258      2.00000
      6     -10.7257      2.00000
      7     -10.6786      2.00000
      8     -10.6786      2.00000
      9     -10.6204      2.00000
     10     -10.6203      2.00000
     11     -10.5888      2.00000
     12     -10.5887      2.00000
     13     -10.2282      2.00000
     14     -10.2282      2.00000
     15     -10.1859      2.00000
     16     -10.1859      2.00000
     17     -10.0938      2.00000
     18     -10.0937      2.00000
     19     -10.0716      2.00000
     20     -10.0715      2.00000
     21      -8.3054      2.00000
     22      -8.2992      2.00000
     23      -8.0988      2.00000
     24      -8.0890      2.00000
     25      -7.3540      2.00000
     26      -7.3483      2.00000
     27      -6.8181      2.00000
     28      -6.8164      2.00000
     29      -2.5360      2.00000
     30      -2.5195      2.00000
     31      -1.9754      2.00000
     32      -1.9476      2.00000
     33      -1.4079      2.00000
     34      -1.3735      2.00000
     35      -1.3514      2.00000
     36      -1.3514      2.00000
     37      -1.2841      2.00000
     38      -1.2555      2.00000
     39      -1.0933      2.00000
     40      -1.0932      2.00000
     41      -0.9241      2.00000
     42      -0.9241      2.00000
     43      -0.4545      2.00000
     44      -0.3979      2.00000
     45      -0.1124      2.00000
     46       0.0968      2.00000
     47       0.4996      2.00000
     48       0.7769      2.00000
     49       0.9649      2.00000
     50       0.9828      2.00000
     51       1.3617      2.00000
     52       1.3940      2.00000
     53       1.5522      2.00000
     54       1.6709      2.00000
     55       2.3431      2.00000
     56       2.4709      2.00000
     57       2.8438      2.00000
     58       2.9105      2.00000
     59       3.3294      2.00000
     60       3.3858      2.00000
     61       3.7549      2.00000
     62       3.9089      2.00000
     63       5.4803      0.00000
     64       5.6716      0.00000
     65       5.9538      0.00000
     66       6.0827      0.00000
     67       6.8596      0.00000
     68       7.1105      0.00000
     69       8.3626      0.00000
     70       8.4407      0.00000
     71       8.7583      0.00000
     72       8.8921      0.00000
     73       9.3027      0.00000
     74       9.6049      0.00000
     75       9.6896      0.00000
     76       9.7792      0.00000
     77      10.2451      0.00000
     78      10.5633      0.00000
     79      10.6909      0.00000
     80      11.0633      0.00000

 k-point    11 :       0.0556    0.0556    0.0000
  band No.  band energies     occupation 
      1     -11.0128      2.00000
      2     -11.0128      2.00000
      3     -10.8233      2.00000
      4     -10.8232      2.00000
      5     -10.7905      2.00000
      6     -10.7905      2.00000
      7     -10.6286      2.00000
      8     -10.6285      2.00000
      9     -10.6202      2.00000
     10     -10.6202      2.00000
     11     -10.3248      2.00000
     12     -10.3248      2.00000
     13     -10.2709      2.00000
     14     -10.2709      2.00000
     15     -10.2294      2.00000
     16     -10.2293      2.00000
     17     -10.1308      2.00000
     18     -10.1307      2.00000
     19     -10.1221      2.00000
     20     -10.1220      2.00000
     21      -9.6196      2.00000
     22      -9.6096      2.00000
     23      -9.0818      2.00000
     24      -9.0523      2.00000
     25      -8.1053      2.00000
     26      -8.0526      2.00000
     27      -7.3835      2.00000
     28      -7.3462      2.00000
     29      -2.0496      2.00000
     30      -1.9939      2.00000
     31      -1.5668      2.00000
     32      -1.5662      2.00000
     33      -1.5480      2.00000
     34      -1.5480      2.00000
     35      -1.3401      2.00000
     36      -1.1425      2.00000
     37      -1.1330      2.00000
     38      -1.1228      2.00000
     39      -1.1227      2.00000
     40      -1.0702      2.00000
     41      -0.1237      2.00000
     42       0.3425      2.00000
     43       1.3586      2.00000
     44       1.5268      2.00000
     45       1.6696      2.00000
     46       1.9098      2.00000
     47       1.9376      2.00000
     48       2.0562      2.00000
     49       2.2121      2.00000
     50       2.2723      2.00000
     51       2.3649      2.00000
     52       2.3853      2.00000
     53       2.8655      2.00000
     54       2.8743      2.00000
     55       2.9391      2.00000
     56       2.9785      2.00000
     57       3.5628      2.00000
     58       3.8662      2.00000
     59       4.0405      2.00000
     60       4.0413      2.00000
     61       4.3687      2.00000
     62       4.3693      2.00000
     63       5.2857      0.00000
     64       5.6958      0.00000
     65       6.3689      0.00000
     66       6.6043      0.00000
     67       7.6131      0.00000
     68       7.6752      0.00000
     69       8.0589      0.00000
     70       8.1570      0.00000
     71       8.5692      0.00000
     72       8.5953      0.00000
     73       8.9596      0.00000
     74       9.0608      0.00000
     75       9.2189      0.00000
     76       9.2581      0.00000
     77       9.5442      0.00000
     78       9.7592      0.00000
     79       9.8195      0.00000
     80       9.8583      0.00000

 k-point    12 :       0.1111    0.0556    0.0000
  band No.  band energies     occupation 
      1     -11.0328      2.00000
      2     -11.0327      2.00000
      3     -10.8431      2.00000
      4     -10.8430      2.00000
      5     -10.7806      2.00000
      6     -10.7805      2.00000
      7     -10.6359      2.00000
      8     -10.6358      2.00000
      9     -10.6192      2.00000
     10     -10.6192      2.00000
     11     -10.3736      2.00000
     12     -10.3735      2.00000
     13     -10.2668      2.00000
     14     -10.2667      2.00000
     15     -10.2072      2.00000
     16     -10.2071      2.00000
     17     -10.1371      2.00000
     18     -10.1370      2.00000
     19     -10.1196      2.00000
     20     -10.1195      2.00000
     21      -9.4854      2.00000
     22      -9.4746      2.00000
     23      -8.9875      2.00000
     24      -8.9580      2.00000
     25      -8.0026      2.00000
     26      -7.9516      2.00000
     27      -7.3189      2.00000
     28      -7.2831      2.00000
     29      -2.0203      2.00000
     30      -1.9547      2.00000
     31      -1.5634      2.00000
     32      -1.5616      2.00000
     33      -1.5237      2.00000
     34      -1.5237      2.00000
     35      -1.3276      2.00000
     36      -1.1620      2.00000
     37      -1.1459      2.00000
     38      -1.1228      2.00000
     39      -1.1228      2.00000
     40      -1.0629      2.00000
     41      -0.1502      2.00000
     42       0.1643      2.00000
     43       1.0526      2.00000
     44       1.1290      2.00000
     45       1.4377      2.00000
     46       1.6388      2.00000
     47       1.7788      2.00000
     48       1.8318      2.00000
     49       1.8703      2.00000
     50       2.0474      2.00000
     51       2.0848      2.00000
     52       2.1137      2.00000
     53       2.6308      2.00000
     54       2.6819      2.00000
     55       2.9631      2.00000
     56       2.9744      2.00000
     57       3.4522      2.00000
     58       3.6182      2.00000
     59       3.7817      2.00000
     60       4.0405      2.00000
     61       4.2018      2.00000
     62       4.2061      2.00000
     63       5.6286      0.00000
     64       5.8496      0.00000
     65       6.6043      0.00000
     66       6.7627      0.00000
     67       7.8752      0.00000
     68       7.9957      0.00000
     69       8.1504      0.00000
     70       8.2812      0.00000
     71       8.5780      0.00000
     72       8.6705      0.00000
     73       8.8608      0.00000
     74       9.0885      0.00000
     75       9.4010      0.00000
     76       9.4453      0.00000
     77       9.6348      0.00000
     78       9.9900      0.00000
     79      10.1291      0.00000
     80      10.1730      0.00000

 k-point    13 :       0.1667    0.0556    0.0000
  band No.  band energies     occupation 
      1     -11.0661      2.00000
      2     -11.0661      2.00000
      3     -10.8572      2.00000
      4     -10.8572      2.00000
      5     -10.7679      2.00000
      6     -10.7679      2.00000
      7     -10.6438      2.00000
      8     -10.6437      2.00000
      9     -10.6171      2.00000
     10     -10.6170      2.00000
     11     -10.4330      2.00000
     12     -10.4330      2.00000
     13     -10.2599      2.00000
     14     -10.2598      2.00000
     15     -10.1853      2.00000
     16     -10.1853      2.00000
     17     -10.1423      2.00000
     18     -10.1422      2.00000
     19     -10.1146      2.00000
     20     -10.1146      2.00000
     21      -9.3038      2.00000
     22      -9.2924      2.00000
     23      -8.8501      2.00000
     24      -8.8212      2.00000
     25      -7.8688      2.00000
     26      -7.8213      2.00000
     27      -7.2299      2.00000
     28      -7.1972      2.00000
     29      -1.9944      2.00000
     30      -1.9215      2.00000
     31      -1.5539      2.00000
     32      -1.5489      2.00000
     33      -1.4907      2.00000
     34      -1.4906      2.00000
     35      -1.3134      2.00000
     36      -1.1866      2.00000
     37      -1.1639      2.00000
     38      -1.1221      2.00000
     39      -1.1220      2.00000
     40      -1.0696      2.00000
     41      -0.2842      2.00000
     42      -0.1505      2.00000
     43       0.6013      2.00000
     44       0.7536      2.00000
     45       1.0767      2.00000
     46       1.3528      2.00000
     47       1.5305      2.00000
     48       1.5732      2.00000
     49       1.6850      2.00000
     50       1.7984      2.00000
     51       1.8581      2.00000
     52       1.8841      2.00000
     53       2.3176      2.00000
     54       2.4052      2.00000
     55       2.9122      2.00000
     56       2.9783      2.00000
     57       3.0746      2.00000
     58       3.2189      2.00000
     59       3.9089      2.00000
     60       3.9672      2.00000
     61       4.0032      2.00000
     62       4.0616      2.00000
     63       5.9136      0.00000
     64       5.9652      0.00000
     65       6.6812      0.00000
     66       6.7395      0.00000
     67       7.7500      0.00000
     68       7.8098      0.00000
     69       8.4388      0.00000
     70       8.5150      0.00000
     71       8.8150      0.00000
     72       8.9237      0.00000
     73       9.0860      0.00000
     74       9.2211      0.00000
     75       9.6165      0.00000
     76       9.6698      0.00000
     77       9.8728      0.00000
     78      10.2509      0.00000
     79      10.4640      0.00000
     80      10.5484      0.00000

 k-point    14 :       0.2222    0.0556    0.0000
  band No.  band energies     occupation 
      1     -11.1075      2.00000
      2     -11.1074      2.00000
      3     -10.8646      2.00000
      4     -10.8645      2.00000
      5     -10.7549      2.00000
      6     -10.7548      2.00000
      7     -10.6516      2.00000
      8     -10.6516      2.00000
      9     -10.6133      2.00000
     10     -10.6132      2.00000
     11     -10.4930      2.00000
     12     -10.4929      2.00000
     13     -10.2524      2.00000
     14     -10.2523      2.00000
     15     -10.1723      2.00000
     16     -10.1723      2.00000
     17     -10.1405      2.00000
     18     -10.1404      2.00000
     19     -10.1065      2.00000
     20     -10.1065      2.00000
     21      -9.0888      2.00000
     22      -9.0773      2.00000
     23      -8.6785      2.00000
     24      -8.6514      2.00000
     25      -7.7223      2.00000
     26      -7.6812      2.00000
     27      -7.1259      2.00000
     28      -7.0989      2.00000
     29      -1.9970      2.00000
     30      -1.9285      2.00000
     31      -1.5355      2.00000
     32      -1.5244      2.00000
     33      -1.4530      2.00000
     34      -1.4530      2.00000
     35      -1.3095      2.00000
     36      -1.2207      2.00000
     37      -1.1859      2.00000
     38      -1.1198      2.00000
     39      -1.1193      2.00000
     40      -1.1064      2.00000
     41      -0.5992      2.00000
     42      -0.5494      2.00000
     43       0.2514      2.00000
     44       0.4273      2.00000
     45       0.7479      2.00000
     46       0.9893      2.00000
     47       1.3142      2.00000
     48       1.3336      2.00000
     49       1.4646      2.00000
     50       1.5592      2.00000
     51       1.6207      2.00000
     52       1.7293      2.00000
     53       2.0515      2.00000
     54       2.1140      2.00000
     55       2.6558      2.00000
     56       2.9033      2.00000
     57       2.9598      2.00000
     58       2.9904      2.00000
     59       3.7627      2.00000
     60       3.7741      2.00000
     61       3.9928      2.00000
     62       4.0092      2.00000
     63       5.9858      0.00000
     64       6.0622      0.00000
     65       6.5360      0.00000
     66       6.6019      0.00000
     67       7.5043      0.00000
     68       7.5755      0.00000
     69       8.5895      0.00000
     70       8.7223      0.00000
     71       9.0739      0.00000
     72       9.1539      0.00000
     73       9.3724      0.00000
     74       9.3852      0.00000
     75       9.7730      0.00000
     76       9.8887      0.00000
     77      10.1363      0.00000
     78      10.3933      0.00000
     79      10.6808      0.00000
     80      10.8157      0.00000

 k-point    15 :       0.2778    0.0556    0.0000
  band No.  band energies     occupation 
      1     -11.1487      2.00000
      2     -11.1487      2.00000
      3     -10.8692      2.00000
      4     -10.8691      2.00000
      5     -10.7436      2.00000
      6     -10.7435      2.00000
      7     -10.6590      2.00000
      8     -10.6590      2.00000
      9     -10.6077      2.00000
     10     -10.6076      2.00000
     11     -10.5449      2.00000
     12     -10.5448      2.00000
     13     -10.2462      2.00000
     14     -10.2461      2.00000
     15     -10.1724      2.00000
     16     -10.1724      2.00000
     17     -10.1280      2.00000
     18     -10.1279      2.00000
     19     -10.0962      2.00000
     20     -10.0962      2.00000
     21      -8.8556      2.00000
     22      -8.8447      2.00000
     23      -8.4893      2.00000
     24      -8.4652      2.00000
     25      -7.5829      2.00000
     26      -7.5510      2.00000
     27      -7.0196      2.00000
     28      -7.0004      2.00000
     29      -2.0626      2.00000
     30      -2.0148      2.00000
     31      -1.5178      2.00000
     32      -1.4908      2.00000
     33      -1.4168      2.00000
     34      -1.4159      2.00000
     35      -1.3546      2.00000
     36      -1.3016      2.00000
     37      -1.2042      2.00000
     38      -1.1653      2.00000
     39      -1.1140      2.00000
     40      -1.1137      2.00000
     41      -0.9596      2.00000
     42      -0.9010      2.00000
     43       0.0027      2.00000
     44       0.1654      2.00000
     45       0.5381      2.00000
     46       0.6992      2.00000
     47       1.0323      2.00000
     48       1.0417      2.00000
     49       1.2071      2.00000
     50       1.2843      2.00000
     51       1.4735      2.00000
     52       1.6089      2.00000
     53       1.8425      2.00000
     54       1.9364      2.00000
     55       2.4888      2.00000
     56       2.6890      2.00000
     57       2.9218      2.00000
     58       2.9432      2.00000
     59       3.5654      2.00000
     60       3.5850      2.00000
     61       3.9440      2.00000
     62       4.0048      2.00000
     63       5.9076      0.00000
     64       6.0316      0.00000
     65       6.3651      0.00000
     66       6.4518      0.00000
     67       7.2765      0.00000
     68       7.3823      0.00000
     69       8.6256      0.00000
     70       8.8419      0.00000
     71       8.9916      0.00000
     72       9.2007      0.00000
     73       9.5371      0.00000
     74       9.5589      0.00000
     75       9.7471      0.00000
     76      10.0762      0.00000
     77      10.2125      0.00000
     78      10.6089      0.00000
     79      10.8140      0.00000
     80      10.8600      0.00000

 k-point    16 :       0.3333    0.0556    0.0000
  band No.  band energies     occupation 
      1     -11.1838      2.00000
      2     -11.1837      2.00000
      3     -10.8742      2.00000
      4     -10.8741      2.00000
      5     -10.7352      2.00000
      6     -10.7352      2.00000
      7     -10.6660      2.00000
      8     -10.6659      2.00000
      9     -10.6014      2.00000
     10     -10.6013      2.00000
     11     -10.5828      2.00000
     12     -10.5827      2.00000
     13     -10.2422      2.00000
     14     -10.2421      2.00000
     15     -10.1768      2.00000
     16     -10.1768      2.00000
     17     -10.1135      2.00000
     18     -10.1134      2.00000
     19     -10.0861      2.00000
     20     -10.0861      2.00000
     21      -8.6245      2.00000
     22      -8.6149      2.00000
     23      -8.3077      2.00000
     24      -8.2882      2.00000
     25      -7.4693      2.00000
     26      -7.4484      2.00000
     27      -6.9250      2.00000
     28      -6.9142      2.00000
     29      -2.2075      2.00000
     30      -2.1862      2.00000
     31      -1.6157      2.00000
     32      -1.5629      2.00000
     33      -1.4349      2.00000
     34      -1.4015      2.00000
     35      -1.3849      2.00000
     36      -1.3792      2.00000
     37      -1.2231      2.00000
     38      -1.2156      2.00000
     39      -1.1158      2.00000
     40      -1.1087      2.00000
     41      -1.0887      2.00000
     42      -1.0456      2.00000
     43      -0.1609      2.00000
     44      -0.0459      2.00000
     45       0.3538      2.00000
     46       0.4849      2.00000
     47       0.6830      2.00000
     48       0.7747      2.00000
     49       1.0545      2.00000
     50       1.0900      2.00000
     51       1.3903      2.00000
     52       1.4894      2.00000
     53       1.6538      2.00000
     54       1.8759      2.00000
     55       2.4190      2.00000
     56       2.5300      2.00000
     57       2.8823      2.00000
     58       2.8980      2.00000
     59       3.4052      2.00000
     60       3.4340      2.00000
     61       3.8837      2.00000
     62       3.9731      2.00000
     63       5.7686      0.00000
     64       5.9172      0.00000
     65       6.2279      0.00000
     66       6.3263      0.00000
     67       7.1109      0.00000
     68       7.2583      0.00000
     69       8.5879      0.00000
     70       8.7783      0.00000
     71       8.9039      0.00000
     72       9.1006      0.00000
     73       9.5539      0.00000
     74       9.6029      0.00000
     75       9.6886      0.00000
     76       9.9279      0.00000
     77      10.2708      0.00000
     78      10.7396      0.00000
     79      10.8399      0.00000
     80      11.0038      0.00000

 k-point    17 :       0.3889    0.0556    0.0000
  band No.  band energies     occupation 
      1     -11.2089      2.00000
      2     -11.2088      2.00000
      3     -10.8797      2.00000
      4     -10.8795      2.00000
      5     -10.7300      2.00000
      6     -10.7299      2.00000
      7     -10.6721      2.00000
      8     -10.6721      2.00000
      9     -10.6071      2.00000
     10     -10.6070      2.00000
     11     -10.5942      2.00000
     12     -10.5941      2.00000
     13     -10.2400      2.00000
     14     -10.2400      2.00000
     15     -10.1808      2.00000
     16     -10.1808      2.00000
     17     -10.1017      2.00000
     18     -10.1016      2.00000
     19     -10.0786      2.00000
     20     -10.0786      2.00000
     21      -8.4251      2.00000
     22      -8.4172      2.00000
     23      -8.1665      2.00000
     24      -8.1522      2.00000
     25      -7.3948      2.00000
     26      -7.3835      2.00000
     27      -6.8551      2.00000
     28      -6.8505      2.00000
     29      -2.3849      2.00000
     30      -2.3746      2.00000
     31      -1.8260      2.00000
     32      -1.7927      2.00000
     33      -1.4142      2.00000
     34      -1.3867      2.00000
     35      -1.3636      2.00000
     36      -1.3605      2.00000
     37      -1.2623      2.00000
     38      -1.2383      2.00000
     39      -1.1059      2.00000
     40      -1.1034      2.00000
     41      -1.0368      2.00000
     42      -1.0107      2.00000
     43      -0.3009      2.00000
     44      -0.2226      2.00000
     45       0.1077      2.00000
     46       0.2827      2.00000
     47       0.4851      2.00000
     48       0.6941      2.00000
     49       0.9486      2.00000
     50       0.9632      2.00000
     51       1.3309      2.00000
     52       1.4230      2.00000
     53       1.5609      2.00000
     54       1.7973      2.00000
     55       2.3875      2.00000
     56       2.4264      2.00000
     57       2.8530      2.00000
     58       2.8633      2.00000
     59       3.2949      2.00000
     60       3.3312      2.00000
     61       3.8267      2.00000
     62       3.9382      2.00000
     63       5.6453      0.00000
     64       5.8162      0.00000
     65       6.1132      0.00000
     66       6.2302      0.00000
     67       7.0087      0.00000
     68       7.1951      0.00000
     69       8.5367      0.00000
     70       8.6310      0.00000
     71       8.8939      0.00000
     72       8.9901      0.00000
     73       9.4582      0.00000
     74       9.5593      0.00000
     75       9.6339      0.00000
     76       9.8233      0.00000
     77      10.2791      0.00000
     78      10.6878      0.00000
     79      10.8064      0.00000
     80      10.9840      0.00000

 k-point    18 :       0.4444    0.0556    0.0000
  band No.  band energies     occupation 
      1     -11.2219      2.00000
      2     -11.2218      2.00000
      3     -10.8834      2.00000
      4     -10.8833      2.00000
      5     -10.7275      2.00000
      6     -10.7275      2.00000
      7     -10.6760      2.00000
      8     -10.6759      2.00000
      9     -10.6168      2.00000
     10     -10.6167      2.00000
     11     -10.5910      2.00000
     12     -10.5909      2.00000
     13     -10.2392      2.00000
     14     -10.2391      2.00000
     15     -10.1831      2.00000
     16     -10.1830      2.00000
     17     -10.0950      2.00000
     18     -10.0949      2.00000
     19     -10.0748      2.00000
     20     -10.0747      2.00000
     21      -8.3008      2.00000
     22      -8.2943      2.00000
     23      -8.0936      2.00000
     24      -8.0833      2.00000
     25      -7.3608      2.00000
     26      -7.3547      2.00000
     27      -6.8185      2.00000
     28      -6.8167      2.00000
     29      -2.5066      2.00000
     30      -2.4910      2.00000
     31      -1.9539      2.00000
     32      -1.9257      2.00000
     33      -1.4048      2.00000
     34      -1.3735      2.00000
     35      -1.3527      2.00000
     36      -1.3511      2.00000
     37      -1.2779      2.00000
     38      -1.2509      2.00000
     39      -1.0982      2.00000
     40      -1.0976      2.00000
     41      -0.9404      2.00000
     42      -0.9309      2.00000
     43      -0.4218      2.00000
     44      -0.3606      2.00000
     45      -0.0736      2.00000
     46       0.1213      2.00000
     47       0.4715      2.00000
     48       0.6899      2.00000
     49       0.8938      2.00000
     50       0.8985      2.00000
     51       1.3108      2.00000
     52       1.3703      2.00000
     53       1.5582      2.00000
     54       1.7135      2.00000
     55       2.3464      2.00000
     56       2.4036      2.00000
     57       2.8369      2.00000
     58       2.8482      2.00000
     59       3.2395      2.00000
     60       3.2793      2.00000
     61       3.7847      2.00000
     62       3.9234      2.00000
     63       5.5804      0.00000
     64       5.7566      0.00000
     65       6.0492      0.00000
     66       6.1751      0.00000
     67       6.9605      0.00000
     68       7.1705      0.00000
     69       8.5022      0.00000
     70       8.5487      0.00000
     71       8.8833      0.00000
     72       8.9504      0.00000
     73       9.3396      0.00000
     74       9.5068      0.00000
     75       9.5956      0.00000
     76       9.8214      0.00000
     77      10.2753      0.00000
     78      10.6430      0.00000
     79      10.7440      0.00000
     80      10.9556      0.00000

 k-point    19 :       0.1111    0.1111    0.0000
  band No.  band energies     occupation 
      1     -11.0600      2.00000
      2     -11.0600      2.00000
      3     -10.8557      2.00000
      4     -10.8557      2.00000
      5     -10.7703      2.00000
      6     -10.7702      2.00000
      7     -10.6420      2.00000
      8     -10.6420      2.00000
      9     -10.6181      2.00000
     10     -10.6181      2.00000
     11     -10.4190      2.00000
     12     -10.4189      2.00000
     13     -10.2706      2.00000
     14     -10.2705      2.00000
     15     -10.1845      2.00000
     16     -10.1845      2.00000
     17     -10.1425      2.00000
     18     -10.1424      2.00000
     19     -10.1155      2.00000
     20     -10.1154      2.00000
     21      -9.3316      2.00000
     22      -9.3203      2.00000
     23      -8.8714      2.00000
     24      -8.8424      2.00000
     25      -7.8899      2.00000
     26      -7.8418      2.00000
     27      -7.2439      2.00000
     28      -7.2107      2.00000
     29      -1.9963      2.00000
     30      -1.9238      2.00000
     31      -1.5558      2.00000
     32      -1.5515      2.00000
     33      -1.4957      2.00000
     34      -1.4956      2.00000
     35      -1.3151      2.00000
     36      -1.1824      2.00000
     37      -1.1604      2.00000
     38      -1.1227      2.00000
     39      -1.1226      2.00000
     40      -1.0660      2.00000
     41      -0.2462      2.00000
     42      -0.0864      2.00000
     43       0.7183      2.00000
     44       0.7904      2.00000
     45       1.2728      2.00000
     46       1.2763      2.00000
     47       1.5604      2.00000
     48       1.5667      2.00000
     49       1.6870      2.00000
     50       1.7208      2.00000
     51       1.8300      2.00000
     52       1.8852      2.00000
     53       2.6741      2.00000
     54       2.6791      2.00000
     55       2.7270      2.00000
     56       2.7412      2.00000
     57       3.1414      2.00000
     58       3.3013      2.00000
     59       3.9047      2.00000
     60       3.9359      2.00000
     61       3.9959      2.00000
     62       4.0799      2.00000
     63       5.9079      0.00000
     64       5.9750      0.00000
     65       6.7466      0.00000
     66       6.8087      0.00000
     67       7.9701      0.00000
     68       7.9941      0.00000
     69       8.4582      0.00000
     70       8.5138      0.00000
     71       8.5796      0.00000
     72       8.6316      0.00000
     73       9.0379      0.00000
     74       9.1601      0.00000
     75       9.5995      0.00000
     76       9.6533      0.00000
     77       9.7899      0.00000
     78      10.1931      0.00000
     79      10.4842      0.00000
     80      10.5123      0.00000

 k-point    20 :       0.1667    0.1111    0.0000
  band No.  band energies     occupation 
      1     -11.0964      2.00000
      2     -11.0963      2.00000
      3     -10.8633      2.00000
      4     -10.8632      2.00000
      5     -10.7589      2.00000
      6     -10.7589      2.00000
      7     -10.6483      2.00000
      8     -10.6482      2.00000
      9     -10.6160      2.00000
     10     -10.6160      2.00000
     11     -10.4702      2.00000
     12     -10.4701      2.00000
     13     -10.2719      2.00000
     14     -10.2718      2.00000
     15     -10.1666      2.00000
     16     -10.1665      2.00000
     17     -10.1461      2.00000
     18     -10.1461      2.00000
     19     -10.1079      2.00000
     20     -10.1079      2.00000
     21      -9.1363      2.00000
     22      -9.1249      2.00000
     23      -8.7159      2.00000
     24      -8.6883      2.00000
     25      -7.7570      2.00000
     26      -7.7142      2.00000
     27      -7.1499      2.00000
     28      -7.1214      2.00000
     29      -1.9878      2.00000
     30      -1.9161      2.00000
     31      -1.5400      2.00000
     32      -1.5308      2.00000
     33      -1.4611      2.00000
     34      -1.4609      2.00000
     35      -1.3068      2.00000
     36      -1.2102      2.00000
     37      -1.1793      2.00000
     38      -1.1213      2.00000
     39      -1.1208      2.00000
     40      -1.0901      2.00000
     41      -0.4810      2.00000
     42      -0.4324      2.00000
     43       0.4003      2.00000
     44       0.4914      2.00000
     45       0.8918      2.00000
     46       1.0394      2.00000
     47       1.2473      2.00000
     48       1.2797      2.00000
     49       1.4473      2.00000
     50       1.5073      2.00000
     51       1.6016      2.00000
     52       1.7486      2.00000
     53       2.3375      2.00000
     54       2.4295      2.00000
     55       2.6284      2.00000
     56       2.7262      2.00000
     57       2.9347      2.00000
     58       3.0183      2.00000
     59       3.6881      2.00000
     60       3.7128      2.00000
     61       4.0227      2.00000
     62       4.0400      2.00000
     63       6.0655      0.00000
     64       6.1213      0.00000
     65       6.7185      0.00000
     66       6.7525      0.00000
     67       7.8432      0.00000
     68       7.8605      0.00000
     69       8.6062      0.00000
     70       8.7238      0.00000
     71       8.8780      0.00000
     72       8.9238      0.00000
     73       9.2720      0.00000
     74       9.3191      0.00000
     75       9.7167      0.00000
     76       9.7659      0.00000
     77      10.0809      0.00000
     78      10.3350      0.00000
     79      10.6318      0.00000
     80      10.7884      0.00000

 k-point    21 :       0.2222    0.1111    0.0000
  band No.  band energies     occupation 
      1     -11.1354      2.00000
      2     -11.1353      2.00000
      3     -10.8673      2.00000
      4     -10.8672      2.00000
      5     -10.7485      2.00000
      6     -10.7485      2.00000
      7     -10.6543      2.00000
      8     -10.6542      2.00000
      9     -10.6124      2.00000
     10     -10.6124      2.00000
     11     -10.5194      2.00000
     12     -10.5193      2.00000
     13     -10.2712      2.00000
     14     -10.2711      2.00000
     15     -10.1628      2.00000
     16     -10.1627      2.00000
     17     -10.1392      2.00000
     18     -10.1392      2.00000
     19     -10.0979      2.00000
     20     -10.0979      2.00000
     21      -8.9134      2.00000
     22      -8.9023      2.00000
     23      -8.5342      2.00000
     24      -8.5092      2.00000
     25      -7.6226      2.00000
     26      -7.5879      2.00000
     27      -7.0476      2.00000
     28      -7.0262      2.00000
     29      -2.0223      2.00000
     30      -1.9656      2.00000
     31      -1.5168      2.00000
     32      -1.4991      2.00000
     33      -1.4253      2.00000
     34      -1.4246      2.00000
     35      -1.3243      2.00000
     36      -1.2626      2.00000
     37      -1.1989      2.00000
     38      -1.1407      2.00000
     39      -1.1158      2.00000
     40      -1.1140      2.00000
     41      -0.8221      2.00000
     42      -0.7871      2.00000
     43       0.1288      2.00000
     44       0.2622      2.00000
     45       0.5970      2.00000
     46       0.7577      2.00000
     47       1.0036      2.00000
     48       1.0438      2.00000
     49       1.2163      2.00000
     50       1.2695      2.00000
     51       1.3032      2.00000
     52       1.6401      2.00000
     53       2.0534      2.00000
     54       2.1578      2.00000
     55       2.4797      2.00000
     56       2.7031      2.00000
     57       2.7802      2.00000
     58       2.8754      2.00000
     59       3.4469      2.00000
     60       3.4751      2.00000
     61       3.9887      2.00000
     62       4.0525      2.00000
     63       6.0880      0.00000
     64       6.1991      0.00000
     65       6.5677      0.00000
     66       6.6418      0.00000
     67       7.6324      0.00000
     68       7.6794      0.00000
     69       8.8029      0.00000
     70       8.8540      0.00000
     71       9.1704      0.00000
     72       9.1892      0.00000
     73       9.3487      0.00000
     74       9.5095      0.00000
     75       9.7140      0.00000
     76       9.9278      0.00000
     77      10.2927      0.00000
     78      10.3672      0.00000
     79      10.6786      0.00000
     80      10.7712      0.00000

 k-point    22 :       0.2778    0.1111    0.0000
  band No.  band energies     occupation 
      1     -11.1710      2.00000
      2     -11.1709      2.00000
      3     -10.8705      2.00000
      4     -10.8704      2.00000
      5     -10.7405      2.00000
      6     -10.7404      2.00000
      7     -10.6598      2.00000
      8     -10.6598      2.00000
      9     -10.6078      2.00000
     10     -10.6077      2.00000
     11     -10.5600      2.00000
     12     -10.5599      2.00000
     13     -10.2700      2.00000
     14     -10.2699      2.00000
     15     -10.1672      2.00000
     16     -10.1672      2.00000
     17     -10.1256      2.00000
     18     -10.1255      2.00000
     19     -10.0886      2.00000
     20     -10.0885      2.00000
     21      -8.6801      2.00000
     22      -8.6701      2.00000
     23      -8.3472      2.00000
     24      -8.3261      2.00000
     25      -7.5058      2.00000
     26      -7.4816      2.00000
     27      -6.9501      2.00000
     28      -6.9371      2.00000
     29      -2.1250      2.00000
     30      -2.0939      2.00000
     31      -1.5339      2.00000
     32      -1.4856      2.00000
     33      -1.4187      2.00000
     34      -1.3929      2.00000
     35      -1.3918      2.00000
     36      -1.3648      2.00000
     37      -1.2100      2.00000
     38      -1.1866      2.00000
     39      -1.1124      2.00000
     40      -1.1098      2.00000
     41      -1.0627      2.00000
     42      -1.0173      2.00000
     43      -0.0632      2.00000
     44       0.0582      2.00000
     45       0.4185      2.00000
     46       0.5210      2.00000
     47       0.7120      2.00000
     48       0.8108      2.00000
     49       0.9387      2.00000
     50       1.0299      2.00000
     51       1.2167      2.00000
     52       1.4877      2.00000
     53       1.8023      2.00000
     54       2.0214      2.00000
     55       2.3424      2.00000
     56       2.5950      2.00000
     57       2.6932      2.00000
     58       2.8453      2.00000
     59       3.2488      2.00000
     60       3.2773      2.00000
     61       3.9330      2.00000
     62       4.0323      2.00000
     63       6.0297      0.00000
     64       6.1431      0.00000
     65       6.4389      0.00000
     66       6.5215      0.00000
     67       7.4475      0.00000
     68       7.5236      0.00000
     69       8.8471      0.00000
     70       8.9318      0.00000
     71       9.1703      0.00000
     72       9.3010      0.00000
     73       9.3736      0.00000
     74       9.5227      0.00000
     75       9.7162      0.00000
     76      10.0898      0.00000
     77      10.2571      0.00000
     78      10.5917      0.00000
     79      10.8216      0.00000
     80      10.9832      0.00000

 k-point    23 :       0.3333    0.1111    0.0000
  band No.  band energies     occupation 
      1     -11.1989      2.00000
      2     -11.1989      2.00000
      3     -10.8742      2.00000
      4     -10.8741      2.00000
      5     -10.7350      2.00000
      6     -10.7350      2.00000
      7     -10.6650      2.00000
      8     -10.6649      2.00000
      9     -10.6036      2.00000
     10     -10.6035      2.00000
     11     -10.5873      2.00000
     12     -10.5872      2.00000
     13     -10.2692      2.00000
     14     -10.2692      2.00000
     15     -10.1720      2.00000
     16     -10.1719      2.00000
     17     -10.1118      2.00000
     18     -10.1118      2.00000
     19     -10.0826      2.00000
     20     -10.0826      2.00000
     21      -8.4606      2.00000
     22      -8.4521      2.00000
     23      -8.1842      2.00000
     24      -8.1681      2.00000
     25      -7.4226      2.00000
     26      -7.4087      2.00000
     27      -6.8707      2.00000
     28      -6.8647      2.00000
     29      -2.2813      2.00000
     30      -2.2707      2.00000
     31      -1.7208      2.00000
     32      -1.6844      2.00000
     33      -1.4110      2.00000
     34      -1.3942      2.00000
     35      -1.3688      2.00000
     36      -1.3586      2.00000
     37      -1.2358      2.00000
     38      -1.2230      2.00000
     39      -1.1262      2.00000
     40      -1.1161      2.00000
     41      -1.0519      2.00000
     42      -1.0297      2.00000
     43      -0.2041      2.00000
     44      -0.1190      2.00000
     45       0.2413      2.00000
     46       0.3517      2.00000
     47       0.4380      2.00000
     48       0.5891      2.00000
     49       0.7813      2.00000
     50       0.8633      2.00000
     51       1.1709      2.00000
     52       1.4219      2.00000
     53       1.6079      2.00000
     54       1.9179      2.00000
     55       2.2552      2.00000
     56       2.4444      2.00000
     57       2.6811      2.00000
     58       2.8462      2.00000
     59       3.1064      2.00000
     60       3.1300      2.00000
     61       3.8830      2.00000
     62       3.9858      2.00000
     63       5.9207      0.00000
     64       6.0509      0.00000
     65       6.3337      0.00000
     66       6.4367      0.00000
     67       7.3171      0.00000
     68       7.4188      0.00000
     69       8.7853      0.00000
     70       8.9780      0.00000
     71       9.0253      0.00000
     72       9.2858      0.00000
     73       9.3444      0.00000
     74       9.4586      0.00000
     75       9.7358      0.00000
     76       9.9525      0.00000
     77      10.3315      0.00000
     78      10.7173      0.00000
     79      10.8299      0.00000
     80      10.9611      0.00000

 k-point    24 :       0.3889    0.1111    0.0000
  band No.  band energies     occupation 
      1     -11.2166      2.00000
      2     -11.2166      2.00000
      3     -10.8777      2.00000
      4     -10.8776      2.00000
      5     -10.7321      2.00000
      6     -10.7320      2.00000
      7     -10.6690      2.00000
      8     -10.6689      2.00000
      9     -10.6066      2.00000
     10     -10.6065      2.00000
     11     -10.5958      2.00000
     12     -10.5958      2.00000
     13     -10.2689      2.00000
     14     -10.2688      2.00000
     15     -10.1752      2.00000
     16     -10.1752      2.00000
     17     -10.1004      2.00000
     18     -10.1003      2.00000
     19     -10.0809      2.00000
     20     -10.0809      2.00000
     21      -8.2905      2.00000
     22      -8.2836      2.00000
     23      -8.0783      2.00000
     24      -8.0668      2.00000
     25      -7.3786      2.00000
     26      -7.3717      2.00000
     27      -6.8195      2.00000
     28      -6.8175      2.00000
     29      -2.4284      2.00000
     30      -2.4156      2.00000
     31      -1.8949      2.00000
     32      -1.8657      2.00000
     33      -1.3964      2.00000
     34      -1.3758      2.00000
     35      -1.3554      2.00000
     36      -1.3475      2.00000
     37      -1.2607      2.00000
     38      -1.2389      2.00000
     39      -1.1129      2.00000
     40      -1.1100      2.00000
     41      -0.9659      2.00000
     42      -0.9511      2.00000
     43      -0.3370      2.00000
     44      -0.2690      2.00000
     45       0.0233      2.00000
     46       0.1689      2.00000
     47       0.3686      2.00000
     48       0.4918      2.00000
     49       0.6946      2.00000
     50       0.7613      2.00000
     51       1.1602      2.00000
     52       1.3982      2.00000
     53       1.5382      2.00000
     54       1.7973      2.00000
     55       2.2127      2.00000
     56       2.3312      2.00000
     57       2.6798      2.00000
     58       2.8628      2.00000
     59       3.0218      2.00000
     60       3.0362      2.00000
     61       3.8387      2.00000
     62       3.9511      2.00000
     63       5.8343      0.00000
     64       5.9734      0.00000
     65       6.2674      0.00000
     66       6.3785      0.00000
     67       7.2420      0.00000
     68       7.3625      0.00000
     69       8.7320      0.00000
     70       8.8944      0.00000
     71       9.0281      0.00000
     72       9.2531      0.00000
     73       9.2792      0.00000
     74       9.3944      0.00000
     75       9.6566      0.00000
     76       9.9020      0.00000
     77      10.3672      0.00000
     78      10.6701      0.00000
     79      10.7385      0.00000
     80      10.9327      0.00000

 k-point    25 :       0.4444    0.1111    0.0000
  band No.  band energies     occupation 
      1     -11.2227      2.00000
      2     -11.2226      2.00000
      3     -10.8791      2.00000
      4     -10.8790      2.00000
      5     -10.7311      2.00000
      6     -10.7311      2.00000
      7     -10.6706      2.00000
      8     -10.6705      2.00000
      9     -10.6104      2.00000
     10     -10.6103      2.00000
     11     -10.5954      2.00000
     12     -10.5953      2.00000
     13     -10.2688      2.00000
     14     -10.2688      2.00000
     15     -10.1764      2.00000
     16     -10.1763      2.00000
     17     -10.0952      2.00000
     18     -10.0951      2.00000
     19     -10.0815      2.00000
     20     -10.0815      2.00000
     21      -8.2217      2.00000
     22      -8.2155      2.00000
     23      -8.0449      2.00000
     24      -8.0356      2.00000
     25      -7.3660      2.00000
     26      -7.3616      2.00000
     27      -6.8021      2.00000
     28      -6.8011      2.00000
     29      -2.4875      2.00000
     30      -2.4711      2.00000
     31      -1.9586      2.00000
     32      -1.9312      2.00000
     33      -1.3925      2.00000
     34      -1.3695      2.00000
     35      -1.3502      2.00000
     36      -1.3447      2.00000
     37      -1.2678      2.00000
     38      -1.2445      2.00000
     39      -1.1073      2.00000
     40      -1.1062      2.00000
     41      -0.8999      2.00000
     42      -0.8964      2.00000
     43      -0.4118      2.00000
     44      -0.3526      2.00000
     45      -0.0574      2.00000
     46       0.0906      2.00000
     47       0.3631      2.00000
     48       0.4641      2.00000
     49       0.6679      2.00000
     50       0.7247      2.00000
     51       1.1821      2.00000
     52       1.3448      2.00000
     53       1.5923      2.00000
     54       1.7067      2.00000
     55       2.2028      2.00000
     56       2.2857      2.00000
     57       2.6822      2.00000
     58       2.8722      2.00000
     59       2.9949      2.00000
     60       3.0019      2.00000
     61       3.8176      2.00000
     62       3.9415      2.00000
     63       5.8043      0.00000
     64       5.9417      0.00000
     65       6.2462      0.00000
     66       6.3565      0.00000
     67       7.2177      0.00000
     68       7.3452      0.00000
     69       8.7123      0.00000
     70       8.8510      0.00000
     71       9.0571      0.00000
     72       9.2131      0.00000
     73       9.2996      0.00000
     74       9.3277      0.00000
     75       9.6052      0.00000
     76       9.9130      0.00000
     77      10.3748      0.00000
     78      10.6227      0.00000
     79      10.7155      0.00000
     80      10.9207      0.00000

 k-point    26 :       0.1667    0.1667    0.0000
  band No.  band energies     occupation 
      1     -11.1303      2.00000
      2     -11.1302      2.00000
      3     -10.8667      2.00000
      4     -10.8666      2.00000
      5     -10.7506      2.00000
      6     -10.7505      2.00000
      7     -10.6521      2.00000
      8     -10.6521      2.00000
      9     -10.6146      2.00000
     10     -10.6146      2.00000
     11     -10.5072      2.00000
     12     -10.5071      2.00000
     13     -10.2845      2.00000
     14     -10.2844      2.00000
     15     -10.1519      2.00000
     16     -10.1518      2.00000
     17     -10.1504      2.00000
     18     -10.1504      2.00000
     19     -10.0984      2.00000
     20     -10.0983      2.00000
     21      -8.9325      2.00000
     22      -8.9215      2.00000
     23      -8.5488      2.00000
     24      -8.5234      2.00000
     25      -7.6370      2.00000
     26      -7.6014      2.00000
     27      -7.0574      2.00000
     28      -7.0352      2.00000
     29      -2.0090      2.00000
     30      -1.9493      2.00000
     31      -1.5177      2.00000
     32      -1.5020      2.00000
     33      -1.4279      2.00000
     34      -1.4274      2.00000
     35      -1.3163      2.00000
     36      -1.2521      2.00000
     37      -1.1964      2.00000
     38      -1.1320      2.00000
     39      -1.1164      2.00000
     40      -1.1124      2.00000
     41      -0.7492      2.00000
     42      -0.7436      2.00000
     43       0.2425      2.00000
     44       0.2461      2.00000
     45       0.6684      2.00000
     46       0.7204      2.00000
     47       0.9815      2.00000
     48       1.0134      2.00000
     49       1.1929      2.00000
     50       1.2027      2.00000
     51       1.2994      2.00000
     52       1.6795      2.00000
     53       2.1838      2.00000
     54       2.3864      2.00000
     55       2.4342      2.00000
     56       2.4547      2.00000
     57       2.8331      2.00000
     58       2.8500      2.00000
     59       3.3665      2.00000
     60       3.4139      2.00000
     61       4.0066      2.00000
     62       4.0711      2.00000
     63       6.1635      0.00000
     64       6.2712      0.00000
     65       6.6777      0.00000
     66       6.7400      0.00000
     67       7.8970      0.00000
     68       7.9134      0.00000
     69       8.5883      0.00000
     70       8.8034      0.00000
     71       9.1716      0.00000
     72       9.2040      0.00000
     73       9.3993      0.00000
     74       9.5255      0.00000
     75       9.7310      0.00000
     76       9.7904      0.00000
     77      10.3148      0.00000
     78      10.4219      0.00000
     79      10.7829      0.00000
     80      10.8699      0.00000

 k-point    27 :       0.2222    0.1667    0.0000
  band No.  band energies     occupation 
      1     -11.1630      2.00000
      2     -11.1630      2.00000
      3     -10.8684      2.00000
      4     -10.8683      2.00000
      5     -10.7440      2.00000
      6     -10.7440      2.00000
      7     -10.6552      2.00000
      8     -10.6552      2.00000
      9     -10.6126      2.00000
     10     -10.6126      2.00000
     11     -10.5408      2.00000
     12     -10.5407      2.00000
     13     -10.2949      2.00000
     14     -10.2948      2.00000
     15     -10.1555      2.00000
     16     -10.1555      2.00000
     17     -10.1387      2.00000
     18     -10.1386      2.00000
     19     -10.0895      2.00000
     20     -10.0894      2.00000
     21      -8.7073      2.00000
     22      -8.6972      2.00000
     23      -8.3655      2.00000
     24      -8.3436      2.00000
     25      -7.5273      2.00000
     26      -7.5014      2.00000
     27      -6.9636      2.00000
     28      -6.9494      2.00000
     29      -2.0785      2.00000
     30      -2.0409      2.00000
     31      -1.5041      2.00000
     32      -1.4751      2.00000
     33      -1.4078      2.00000
     34      -1.3947      2.00000
     35      -1.3639      2.00000
     36      -1.3402      2.00000
     37      -1.2081      2.00000
     38      -1.1660      2.00000
     39      -1.1079      2.00000
     40      -1.1056      2.00000
     41      -1.0060      2.00000
     42      -0.9847      2.00000
     43       0.0412      2.00000
     44       0.1062      2.00000
     45       0.4169      2.00000
     46       0.5060      2.00000
     47       0.6883      2.00000
     48       0.7542      2.00000
     49       0.9126      2.00000
     50       0.9912      2.00000
     51       1.1290      2.00000
     52       1.5284      2.00000
     53       1.9455      2.00000
     54       2.1819      2.00000
     55       2.2448      2.00000
     56       2.4165      2.00000
     57       2.6941      2.00000
     58       2.8103      2.00000
     59       3.0812      2.00000
     60       3.1527      2.00000
     61       3.9633      2.00000
     62       4.0684      2.00000
     63       6.2257      0.00000
     64       6.3142      0.00000
     65       6.6064      0.00000
     66       6.6582      0.00000
     67       7.8334      0.00000
     68       7.8549      0.00000
     69       8.7180      0.00000
     70       8.8520      0.00000
     71       9.3185      0.00000
     72       9.3820      0.00000
     73       9.5462      0.00000
     74       9.7249      0.00000
     75       9.7685      0.00000
     76       9.9574      0.00000
     77      10.3527      0.00000
     78      10.4640      0.00000
     79      10.7625      0.00000
     80      10.8471      0.00000

 k-point    28 :       0.2778    0.1667    0.0000
  band No.  band energies     occupation 
      1     -11.1907      2.00000
      2     -11.1907      2.00000
      3     -10.8699      2.00000
      4     -10.8698      2.00000
      5     -10.7397      2.00000
      6     -10.7396      2.00000
      7     -10.6578      2.00000
      8     -10.6578      2.00000
      9     -10.6101      2.00000
     10     -10.6100      2.00000
     11     -10.5675      2.00000
     12     -10.5674      2.00000
     13     -10.3025      2.00000
     14     -10.3024      2.00000
     15     -10.1601      2.00000
     16     -10.1600      2.00000
     17     -10.1254      2.00000
     18     -10.1253      2.00000
     19     -10.0845      2.00000
     20     -10.0844      2.00000
     21      -8.4807      2.00000
     22      -8.4720      2.00000
     23      -8.1909      2.00000
     24      -8.1737      2.00000
     25      -7.4453      2.00000
     26      -7.4296      2.00000
     27      -6.8811      2.00000
     28      -6.8743      2.00000
     29      -2.1969      2.00000
     30      -2.1824      2.00000
     31      -1.6254      2.00000
     32      -1.5932      2.00000
     33      -1.4068      2.00000
     34      -1.3950      2.00000
     35      -1.3695      2.00000
     36      -1.3573      2.00000
     37      -1.2141      2.00000
     38      -1.1988      2.00000
     39      -1.1356      2.00000
     40      -1.1239      2.00000
     41      -1.0534      2.00000
     42      -1.0401      2.00000
     43      -0.1080      2.00000
     44      -0.0336      2.00000
     45       0.2556      2.00000
     46       0.3015      2.00000
     47       0.4249      2.00000
     48       0.5048      2.00000
     49       0.6525      2.00000
     50       0.8006      2.00000
     51       1.1093      2.00000
     52       1.3996      2.00000
     53       1.6970      2.00000
     54       2.0111      2.00000
     55       2.1100      2.00000
     56       2.3366      2.00000
     57       2.5894      2.00000
     58       2.8348      2.00000
     59       2.8735      2.00000
     60       2.9585      2.00000
     61       3.9221      2.00000
     62       4.0255      2.00000
     63       6.2078      0.00000
     64       6.2825      0.00000
     65       6.5232      0.00000
     66       6.5893      0.00000
     67       7.7220      0.00000
     68       7.7595      0.00000
     69       8.7824      0.00000
     70       8.8628      0.00000
     71       9.3022      0.00000
     72       9.4504      0.00000
     73       9.5759      0.00000
     74       9.7980      0.00000
     75       9.8477      0.00000
     76      10.0989      0.00000
     77      10.3881      0.00000
     78      10.6501      0.00000
     79      10.8541      0.00000
     80      10.9261      0.00000

 k-point    29 :       0.3333    0.1667    0.0000
  band No.  band energies     occupation 
      1     -11.2105      2.00000
      2     -11.2105      2.00000
      3     -10.8715      2.00000
      4     -10.8714      2.00000
      5     -10.7372      2.00000
      6     -10.7371      2.00000
      7     -10.6602      2.00000
      8     -10.6602      2.00000
      9     -10.6072      2.00000
     10     -10.6072      2.00000
     11     -10.5855      2.00000
     12     -10.5854      2.00000
     13     -10.3075      2.00000
     14     -10.3074      2.00000
     15     -10.1636      2.00000
     16     -10.1635      2.00000
     17     -10.1119      2.00000
     18     -10.1119      2.00000
     19     -10.0844      2.00000
     20     -10.0844      2.00000
     21      -8.2813      2.00000
     22      -8.2742      2.00000
     23      -8.0569      2.00000
     24      -8.0446      2.00000
     25      -7.4002      2.00000
     26      -7.3925      2.00000
     27      -6.8207      2.00000
     28      -6.8185      2.00000
     29      -2.3316      2.00000
     30      -2.3233      2.00000
     31      -1.8163      2.00000
     32      -1.7881      2.00000
     33      -1.3863      2.00000
     34      -1.3787      2.00000
     35      -1.3562      2.00000
     36      -1.3446      2.00000
     37      -1.2334      2.00000
     38      -1.2237      2.00000
     39      -1.1332      2.00000
     40      -1.1275      2.00000
     41      -0.9832      2.00000
     42      -0.9712      2.00000
     43      -0.2300      2.00000
     44      -0.1645      2.00000
     45       0.0784      2.00000
     46       0.1695      2.00000
     47       0.2119      2.00000
     48       0.2963      2.00000
     49       0.5069      2.00000
     50       0.7006      2.00000
     51       1.0750      2.00000
     52       1.4186      2.00000
     53       1.4942      2.00000
     54       1.8572      2.00000
     55       2.0162      2.00000
     56       2.2086      2.00000
     57       2.5675      2.00000
     58       2.7446      2.00000
     59       2.8166      2.00000
     60       2.8852      2.00000
     61       3.8859      2.00000
     62       3.9737      2.00000
     63       6.1312      0.00000
     64       6.2246      0.00000
     65       6.4733      0.00000
     66       6.5519      0.00000
     67       7.6312      0.00000
     68       7.6780      0.00000
     69       8.7118      0.00000
     70       8.9297      0.00000
     71       9.2793      0.00000
     72       9.4083      0.00000
     73       9.5566      0.00000
     74       9.7372      0.00000
     75       9.8981      0.00000
     76      10.0197      0.00000
     77      10.4963      0.00000
     78      10.7225      0.00000
     79      10.7730      0.00000
     80      10.9645      0.00000

 k-point    30 :       0.3889    0.1667    0.0000
  band No.  band energies     occupation 
      1     -11.2208      2.00000
      2     -11.2208      2.00000
      3     -10.8727      2.00000
      4     -10.8726      2.00000
      5     -10.7361      2.00000
      6     -10.7360      2.00000
      7     -10.6618      2.00000
      8     -10.6618      2.00000
      9     -10.6044      2.00000
     10     -10.6043      2.00000
     11     -10.5953      2.00000
     12     -10.5952      2.00000
     13     -10.3100      2.00000
     14     -10.3099      2.00000
     15     -10.1655      2.00000
     16     -10.1654      2.00000
     17     -10.1001      2.00000
     18     -10.1001      2.00000
     19     -10.0891      2.00000
     20     -10.0890      2.00000
     21      -8.1524      2.00000
     22      -8.1465      2.00000
     23      -7.9911      2.00000
     24      -7.9824      2.00000
     25      -7.3855      2.00000
     26      -7.3818      2.00000
     27      -6.7892      2.00000
     28      -6.7887      2.00000
     29      -2.4231      2.00000
     30      -2.4081      2.00000
     31      -1.9306      2.00000
     32      -1.9045      2.00000
     33      -1.3790      2.00000
     34      -1.3685      2.00000
     35      -1.3491      2.00000
     36      -1.3396      2.00000
     37      -1.2473      2.00000
     38      -1.2323      2.00000
     39      -1.1219      2.00000
     40      -1.1200      2.00000
     41      -0.8900      2.00000
     42      -0.8822      2.00000
     43      -0.3461      2.00000
     44      -0.2841      2.00000
     45      -0.0150      2.00000
     46       0.0530      2.00000
     47       0.1378      2.00000
     48       0.1860      2.00000
     49       0.4475      2.00000
     50       0.6363      2.00000
     51       1.1057      2.00000
     52       1.3224      2.00000
     53       1.5624      2.00000
     54       1.7106      2.00000
     55       1.9583      2.00000
     56       2.1194      2.00000
     57       2.5756      2.00000
     58       2.6837      2.00000
     59       2.7474      2.00000
     60       2.9127      2.00000
     61       3.8548      2.00000
     62       3.9481      2.00000
     63       6.0818      0.00000
     64       6.1694      0.00000
     65       6.4621      0.00000
     66       6.5297      0.00000
     67       7.5829      0.00000
     68       7.6326      0.00000
     69       8.6676      0.00000
     70       8.9614      0.00000
     71       9.2733      0.00000
     72       9.4089      0.00000
     73       9.5194      0.00000
     74       9.6229      0.00000
     75       9.9011      0.00000
     76       9.9769      0.00000
     77      10.5636      0.00000
     78      10.6384      0.00000
     79      10.7377      0.00000
     80      10.9622      0.00000

 k-point    31 :       0.2222    0.2222    0.0000
  band No.  band energies     occupation 
      1     -11.1875      2.00000
      2     -11.1874      2.00000
      3     -10.8684      2.00000
      4     -10.8683      2.00000
      5     -10.7415      2.00000
      6     -10.7415      2.00000
      7     -10.6546      2.00000
      8     -10.6546      2.00000
      9     -10.6133      2.00000
     10     -10.6132      2.00000
     11     -10.5573      2.00000
     12     -10.5572      2.00000
     13     -10.3181      2.00000
     14     -10.3180      2.00000
     15     -10.1511      2.00000
     16     -10.1511      2.00000
     17     -10.1349      2.00000
     18     -10.1349      2.00000
     19     -10.0849      2.00000
     20     -10.0849      2.00000
     21      -8.4873      2.00000
     22      -8.4786      2.00000
     23      -8.1921      2.00000
     24      -8.1745      2.00000
     25      -7.4540      2.00000
     26      -7.4377      2.00000
     27      -6.8848      2.00000
     28      -6.8777      2.00000
     29      -2.1645      2.00000
     30      -2.1477      2.00000
     31      -1.5840      2.00000
     32      -1.5613      2.00000
     33      -1.4059      2.00000
     34      -1.3897      2.00000
     35      -1.3685      2.00000
     36      -1.3589      2.00000
     37      -1.2113      2.00000
     38      -1.1800      2.00000
     39      -1.1304      2.00000
     40      -1.1268      2.00000
     41      -1.0516      2.00000
     42      -1.0466      2.00000
     43      -0.0494      2.00000
     44      -0.0216      2.00000
     45       0.2276      2.00000
     46       0.2941      2.00000
     47       0.3763      2.00000
     48       0.4231      2.00000
     49       0.7157      2.00000
     50       0.7377      2.00000
     51       1.1286      2.00000
     52       1.3816      2.00000
     53       1.7556      2.00000
     54       1.9870      2.00000
     55       2.1497      2.00000
     56       2.1997      2.00000
     57       2.5810      2.00000
     58       2.7580      2.00000
     59       2.8336      2.00000
     60       2.8931      2.00000
     61       3.9359      2.00000
     62       4.0402      2.00000
     63       6.3514      0.00000
     64       6.3580      0.00000
     65       6.6127      0.00000
     66       6.6283      0.00000
     67       7.9491      0.00000
     68       7.9666      0.00000
     69       8.7090      0.00000
     70       8.7220      0.00000
     71       9.4066      0.00000
     72       9.5320      0.00000
     73       9.6961      0.00000
     74       9.8652      0.00000
     75      10.1209      0.00000
     76      10.2080      0.00000
     77      10.4199      0.00000
     78      10.4550      0.00000
     79      10.9195      0.00000
     80      11.0080      0.00000

 k-point    32 :       0.2778    0.2222    0.0000
  band No.  band energies     occupation 
      1     -11.2064      2.00000
      2     -11.2064      2.00000
      3     -10.8677      2.00000
      4     -10.8677      2.00000
      5     -10.7404      2.00000
      6     -10.7404      2.00000
      7     -10.6534      2.00000
      8     -10.6534      2.00000
      9     -10.6136      2.00000
     10     -10.6135      2.00000
     11     -10.5697      2.00000
     12     -10.5696      2.00000
     13     -10.3370      2.00000
     14     -10.3369      2.00000
     15     -10.1510      2.00000
     16     -10.1509      2.00000
     17     -10.1253      2.00000
     18     -10.1252      2.00000
     19     -10.0855      2.00000
     20     -10.0855      2.00000
     21      -8.2765      2.00000
     22      -8.2696      2.00000
     23      -8.0406      2.00000
     24      -8.0281      2.00000
     25      -7.4153      2.00000
     26      -7.4071      2.00000
     27      -6.8214      2.00000
     28      -6.8192      2.00000
     29      -2.2624      2.00000
     30      -2.2595      2.00000
     31      -1.7544      2.00000
     32      -1.7311      2.00000
     33      -1.3814      2.00000
     34      -1.3780      2.00000
     35      -1.3537      2.00000
     36      -1.3472      2.00000
     37      -1.2135      2.00000
     38      -1.1995      2.00000
     39      -1.1486      2.00000
     40      -1.1460      2.00000
     41      -0.9908      2.00000
     42      -0.9846      2.00000
     43      -0.1463      2.00000
     44      -0.1014      2.00000
     45       0.0330      2.00000
     46       0.0745      2.00000
     47       0.1256      2.00000
     48       0.1642      2.00000
     49       0.5283      2.00000
     50       0.6665      2.00000
     51       1.1260      2.00000
     52       1.3164      2.00000
     53       1.5174      2.00000
     54       1.7993      2.00000
     55       1.9975      2.00000
     56       2.0678      2.00000
     57       2.4914      2.00000
     58       2.5428      2.00000
     59       2.7307      2.00000
     60       2.8913      2.00000
     61       3.9128      2.00000
     62       3.9857      2.00000
     63       6.3336      0.00000
     64       6.3954      0.00000
     65       6.5797      0.00000
     66       6.6413      0.00000
     67       7.9403      0.00000
     68       7.9615      0.00000
     69       8.5974      0.00000
     70       8.8010      0.00000
     71       9.4246      0.00000
     72       9.6164      0.00000
     73       9.8238      0.00000
     74       9.9388      0.00000
     75      10.2382      0.00000
     76      10.3702      0.00000
     77      10.5248      0.00000
     78      10.8257      0.00000
     79      10.9052      0.00000
     80      10.9837      0.00000

 k-point    33 :       0.3333    0.2222    0.0000
  band No.  band energies     occupation 
      1     -11.2183      2.00000
      2     -11.2183      2.00000
      3     -10.8671      2.00000
      4     -10.8671      2.00000
      5     -10.7402      2.00000
      6     -10.7401      2.00000
      7     -10.6525      2.00000
      8     -10.6524      2.00000
      9     -10.6130      2.00000
     10     -10.6130      2.00000
     11     -10.5779      2.00000
     12     -10.5778      2.00000
     13     -10.3492      2.00000
     14     -10.3491      2.00000
     15     -10.1520      2.00000
     16     -10.1519      2.00000
     17     -10.1130      2.00000
     18     -10.1129      2.00000
     19     -10.0911      2.00000
     20     -10.0910      2.00000
     21      -8.1091      2.00000
     22      -8.1040      2.00000
     23      -7.9409      2.00000
     24      -7.9331      2.00000
     25      -7.4092      2.00000
     26      -7.4059      2.00000
     27      -6.7810      2.00000
     28      -6.7807      2.00000
     29      -2.3480      2.00000
     30      -2.3369      2.00000
     31      -1.8903      2.00000
     32      -1.8673      2.00000
     33      -1.3691      2.00000
     34      -1.3667      2.00000
     35      -1.3486      2.00000
     36      -1.3420      2.00000
     37      -1.2201      2.00000
     38      -1.2161      2.00000
     39      -1.1389      2.00000
     40      -1.1371      2.00000
     41      -0.8935      2.00000
     42      -0.8865      2.00000
     43      -0.2524      2.00000
     44      -0.1927      2.00000
     45      -0.1021      2.00000
     46      -0.0832      2.00000
     47      -0.0277      2.00000
     48       0.0056      2.00000
     49       0.3985      2.00000
     50       0.6563      2.00000
     51       1.0873      2.00000
     52       1.3056      2.00000
     53       1.4021      2.00000
     54       1.6881      2.00000
     55       1.8398      2.00000
     56       1.9544      2.00000
     57       2.4198      2.00000
     58       2.4449      2.00000
     59       2.6629      2.00000
     60       2.9409      2.00000
     61       3.8880      2.00000
     62       3.9424      2.00000
     63       6.2932      0.00000
     64       6.3443      0.00000
     65       6.6111      0.00000
     66       6.6489      0.00000
     67       7.8970      0.00000
     68       7.9121      0.00000
     69       8.5387      0.00000
     70       8.8654      0.00000
     71       9.4382      0.00000
     72       9.6575      0.00000
     73       9.8284      0.00000
     74       9.9284      0.00000
     75      10.2297      0.00000
     76      10.3829      0.00000
     77      10.5876      0.00000
     78      10.8347      0.00000
     79      11.0095      0.00000
     80      11.2445      0.00000

 k-point    34 :       0.3889    0.2222    0.0000
  band No.  band energies     occupation 
      1     -11.2224      2.00000
      2     -11.2224      2.00000
      3     -10.8669      2.00000
      4     -10.8668      2.00000
      5     -10.7402      2.00000
      6     -10.7401      2.00000
      7     -10.6522      2.00000
      8     -10.6521      2.00000
      9     -10.6125      2.00000
     10     -10.6124      2.00000
     11     -10.5809      2.00000
     12     -10.5808      2.00000
     13     -10.3534      2.00000
     14     -10.3533      2.00000
     15     -10.1524      2.00000
     16     -10.1524      2.00000
     17     -10.1025      2.00000
     18     -10.1024      2.00000
     19     -10.0992      2.00000
     20     -10.0991      2.00000
     21      -8.0388      2.00000
     22      -8.0346      2.00000
     23      -7.9099      2.00000
     24      -7.9042      2.00000
     25      -7.4130      2.00000
     26      -7.4114      2.00000
     27      -6.7672      2.00000
     28      -6.7672      2.00000
     29      -2.3804      2.00000
     30      -2.3662      2.00000
     31      -1.9402      2.00000
     32      -1.9185      2.00000
     33      -1.3663      2.00000
     34      -1.3643      2.00000
     35      -1.3461      2.00000
     36      -1.3404      2.00000
     37      -1.2247      2.00000
     38      -1.2200      2.00000
     39      -1.1323      2.00000
     40      -1.1322      2.00000
     41      -0.8329      2.00000
     42      -0.8274      2.00000
     43      -0.3302      2.00000
     44      -0.2704      2.00000
     45      -0.1321      2.00000
     46      -0.1212      2.00000
     47      -0.0744      2.00000
     48      -0.0448      2.00000
     49       0.3535      2.00000
     50       0.6448      2.00000
     51       1.1264      2.00000
     52       1.1790      2.00000
     53       1.4681      2.00000
     54       1.6554      2.00000
     55       1.7530      2.00000
     56       1.9128      2.00000
     57       2.3927      2.00000
     58       2.4061      2.00000
     59       2.6546      2.00000
     60       2.9600      2.00000
     61       3.8711      2.00000
     62       3.9317      2.00000
     63       6.2761      0.00000
     64       6.3150      0.00000
     65       6.6285      0.00000
     66       6.6512      0.00000
     67       7.8804      0.00000
     68       7.8844      0.00000
     69       8.5231      0.00000
     70       8.8883      0.00000
     71       9.4470      0.00000
     72       9.6792      0.00000
     73       9.7861      0.00000
     74       9.9214      0.00000
     75      10.2162      0.00000
     76      10.3818      0.00000
     77      10.5776      0.00000
     78      10.8457      0.00000
     79      11.0373      0.00000
     80      11.2031      0.00000

 k-point    35 :       0.2778    0.2778    0.0000
  band No.  band energies     occupation 
      1     -11.2173      2.00000
      2     -11.2172      2.00000
      3     -10.8650      2.00000
      4     -10.8649      2.00000
      5     -10.7418      2.00000
      6     -10.7417      2.00000
      7     -10.6476      2.00000
      8     -10.6476      2.00000
      9     -10.6178      2.00000
     10     -10.6178      2.00000
     11     -10.5685      2.00000
     12     -10.5685      2.00000
     13     -10.3666      2.00000
     14     -10.3665      2.00000
     15     -10.1424      2.00000
     16     -10.1424      2.00000
     17     -10.1227      2.00000
     18     -10.1226      2.00000
     19     -10.0914      2.00000
     20     -10.0914      2.00000
     21      -8.0951      2.00000
     22      -8.0904      2.00000
     23      -7.9190      2.00000
     24      -7.9117      2.00000
     25      -7.4204      2.00000
     26      -7.4173      2.00000
     27      -6.7782      2.00000
     28      -6.7780      2.00000
     29      -2.3133      2.00000
     30      -2.3054      2.00000
     31      -1.8699      2.00000
     32      -1.8498      2.00000
     33      -1.3656      2.00000
     34      -1.3649      2.00000
     35      -1.3480      2.00000
     36      -1.3463      2.00000
     37      -1.2095      2.00000
     38      -1.1992      2.00000
     39      -1.1491      2.00000
     40      -1.1485      2.00000
     41      -0.8970      2.00000
     42      -0.8905      2.00000
     43      -0.2060      2.00000
     44      -0.1711      2.00000
     45      -0.1606      2.00000
     46      -0.1231      2.00000
     47      -0.0972      2.00000
     48      -0.0841      2.00000
     49       0.4502      2.00000
     50       0.6643      2.00000
     51       1.1406      2.00000
     52       1.2537      2.00000
     53       1.2974      2.00000
     54       1.6460      2.00000
     55       1.8208      2.00000
     56       1.9119      2.00000
     57       2.3241      2.00000
     58       2.3673      2.00000
     59       2.6567      2.00000
     60       2.9508      2.00000
     61       3.9059      2.00000
     62       3.9339      2.00000
     63       6.3660      0.00000
     64       6.4058      0.00000
     65       6.6652      0.00000
     66       6.6987      0.00000
     67       8.0041      0.00000
     68       8.0261      0.00000
     69       8.4865      0.00000
     70       8.8403      0.00000
     71       9.5538      0.00000
     72       9.6835      0.00000
     73       9.9531      0.00000
     74      10.0551      0.00000
     75      10.4752      0.00000
     76      10.6775      0.00000
     77      10.7237      0.00000
     78      10.9087      0.00000
     79      11.0568      0.00000
     80      11.2350      0.00000

 k-point    36 :       0.3333    0.2778    0.0000
  band No.  band energies     occupation 
      1     -11.2228      2.00000
      2     -11.2227      2.00000
      3     -10.8631      2.00000
      4     -10.8630      2.00000
      5     -10.7427      2.00000
      6     -10.7427      2.00000
      7     -10.6428      2.00000
      8     -10.6428      2.00000
      9     -10.6217      2.00000
     10     -10.6216      2.00000
     11     -10.5665      2.00000
     12     -10.5664      2.00000
     13     -10.3841      2.00000
     14     -10.3840      2.00000
     15     -10.1384      2.00000
     16     -10.1383      2.00000
     17     -10.1157      2.00000
     18     -10.1157      2.00000
     19     -10.0998      2.00000
     20     -10.0998      2.00000
     21      -7.9791      2.00000
     22      -7.9770      2.00000
     23      -7.8480      2.00000
     24      -7.8452      2.00000
     25      -7.4432      2.00000
     26      -7.4425      2.00000
     27      -6.7558      2.00000
     28      -6.7557      2.00000
     29      -2.3361      2.00000
     30      -2.3269      2.00000
     31      -1.9370      2.00000
     32      -1.9223      2.00000
     33      -1.3610      2.00000
     34      -1.3598      2.00000
     35      -1.3475      2.00000
     36      -1.3464      2.00000
     37      -1.2070      2.00000
     38      -1.2032      2.00000
     39      -1.1429      2.00000
     40      -1.1422      2.00000
     41      -0.8074      2.00000
     42      -0.8034      2.00000
     43      -0.3130      2.00000
     44      -0.3062      2.00000
     45      -0.3034      2.00000
     46      -0.2197      2.00000
     47      -0.1502      2.00000
     48      -0.1348      2.00000
     49       0.4073      2.00000
     50       0.7230      2.00000
     51       1.0505      2.00000
     52       1.1152      2.00000
     53       1.3206      2.00000
     54       1.5827      2.00000
     55       1.6444      2.00000
     56       1.8893      2.00000
     57       2.2252      2.00000
     58       2.2572      2.00000
     59       2.6567      2.00000
     60       2.9871      2.00000
     61       3.8891      2.00000
     62       3.9100      2.00000
     63       6.3621      0.00000
     64       6.3763      0.00000
     65       6.7306      0.00000
     66       6.7389      0.00000
     67       7.9997      0.00000
     68       8.0109      0.00000
     69       8.4486      0.00000
     70       8.8824      0.00000
     71       9.6001      0.00000
     72       9.7565      0.00000
     73       9.9424      0.00000
     74      10.1628      0.00000
     75      10.5266      0.00000
     76      10.6300      0.00000
     77      10.8914      0.00000
     78      11.0605      0.00000
     79      11.3751      0.00000
     80      11.5455      0.00000

 k-point    37 :       0.3333    0.3333    0.0000
  band No.  band energies     occupation 
      1     -11.2242      2.00000
      2     -11.2242      2.00000
      3     -10.8614      2.00000
      4     -10.8614      2.00000
      5     -10.7437      2.00000
      6     -10.7437      2.00000
      7     -10.6332      2.00000
      8     -10.6331      2.00000
      9     -10.6311      2.00000
     10     -10.6310      2.00000
     11     -10.5604      2.00000
     12     -10.5603      2.00000
     13     -10.3985      2.00000
     14     -10.3985      2.00000
     15     -10.1273      2.00000
     16     -10.1272      2.00000
     17     -10.1220      2.00000
     18     -10.1220      2.00000
     19     -10.1040      2.00000
     20     -10.1039      2.00000
     21      -7.9316      2.00000
     22      -7.9313      2.00000
     23      -7.8046      2.00000
     24      -7.8045      2.00000
     25      -7.4670      2.00000
     26      -7.4666      2.00000
     27      -6.7471      2.00000
     28      -6.7471      2.00000
     29      -2.3220      2.00000
     30      -2.3219      2.00000
     31      -1.9485      2.00000
     32      -1.9484      2.00000
     33      -1.3592      2.00000
     34      -1.3573      2.00000
     35      -1.3489      2.00000
     36      -1.3489      2.00000
     37      -1.1995      2.00000
     38      -1.1995      2.00000
     39      -1.1436      2.00000
     40      -1.1436      2.00000
     41      -0.7677      2.00000
     42      -0.7677      2.00000
     43      -0.3930      2.00000
     44      -0.3929      2.00000
     45      -0.3430      2.00000
     46      -0.2544      2.00000
     47      -0.1685      2.00000
     48      -0.1685      2.00000
     49       0.4397      2.00000
     50       0.8272      2.00000
     51       0.9698      2.00000
     52       0.9699      2.00000
     53       1.3501      2.00000
     54       1.5297      2.00000
     55       1.5298      2.00000
     56       1.9343      2.00000
     57       2.1582      2.00000
     58       2.1582      2.00000
     59       2.6645      2.00000
     60       3.0041      2.00000
     61       3.8928      2.00000
     62       3.8928      2.00000
     63       6.3767      0.00000
     64       6.3768      0.00000
     65       6.7781      0.00000
     66       6.7781      0.00000
     67       8.0200      0.00000
     68       8.0200      0.00000
     69       8.4222      0.00000
     70       8.8976      0.00000
     71       9.6620      0.00000
     72       9.8822      0.00000
     73       9.8822      0.00000
     74      10.2574      0.00000
     75      10.6809      0.00000
     76      10.6810      0.00000
     77      11.1297      0.00000
     78      11.1324      0.00000
     79      11.6084      0.00000
     80      11.6300      0.00000

 k-point    38 :       0.0000    0.0000    0.1667
  band No.  band energies     occupation 
      1     -11.0011      2.00000
      2     -11.0011      2.00000
      3     -10.7989      2.00000
      4     -10.7989      2.00000
      5     -10.7989      2.00000
      6     -10.7989      2.00000
      7     -10.6208      2.00000
      8     -10.6208      2.00000
      9     -10.6208      2.00000
     10     -10.6207      2.00000
     11     -10.2755      2.00000
     12     -10.2755      2.00000
     13     -10.2754      2.00000
     14     -10.2754      2.00000
     15     -10.2564      2.00000
     16     -10.2562      2.00000
     17     -10.1235      2.00000
     18     -10.1235      2.00000
     19     -10.1234      2.00000
     20     -10.1234      2.00000
     21      -9.7297      2.00000
     22      -9.7221      2.00000
     23      -9.1512      2.00000
     24      -9.1258      2.00000
     25      -8.1871      2.00000
     26      -8.1407      2.00000
     27      -7.4319      2.00000
     28      -7.3991      2.00000
     29      -2.0749      2.00000
     30      -2.0351      2.00000
     31      -1.5674      2.00000
     32      -1.5674      2.00000
     33      -1.5674      2.00000
     34      -1.5674      2.00000
     35      -1.3353      2.00000
     36      -1.1224      2.00000
     37      -1.1224      2.00000
     38      -1.1224      2.00000
     39      -1.1224      2.00000
     40      -1.1067      2.00000
     41      -0.0934      2.00000
     42       0.3971      2.00000
     43       1.4548      2.00000
     44       2.0638      2.00000
     45       2.0638      2.00000
     46       2.0655      2.00000
     47       2.0655      2.00000
     48       2.0979      2.00000
     49       2.7001      2.00000
     50       2.7001      2.00000
     51       2.7085      2.00000
     52       2.7085      2.00000
     53       2.9824      2.00000
     54       2.9824      2.00000
     55       2.9898      2.00000
     56       2.9898      2.00000
     57       3.1687      2.00000
     58       3.8389      2.00000
     59       4.5043      2.00000
     60       4.5043      2.00000
     61       4.5048      2.00000
     62       4.5048      2.00000
     63       4.8421      0.00000
     64       5.4407      0.00000
     65       6.1038      0.00000
     66       6.3396      0.00000
     67       7.1994      0.00000
     68       7.2486      0.00000
     69       7.7065      0.00000
     70       7.8573      0.00000
     71       8.9811      0.00000
     72       8.9811      0.00000
     73       9.0000      0.00000
     74       9.0000      0.00000
     75       9.0211      0.00000
     76       9.0694      0.00000
     77       9.5833      0.00000
     78       9.5833      0.00000
     79       9.6182      0.00000
     80       9.6182      0.00000

 k-point    39 :       0.0556    0.0000    0.1667
  band No.  band energies     occupation 
      1     -11.0046      2.00000
      2     -11.0046      2.00000
      3     -10.8082      2.00000
      4     -10.8081      2.00000
      5     -10.7960      2.00000
      6     -10.7960      2.00000
      7     -10.6237      2.00000
      8     -10.6237      2.00000
      9     -10.6206      2.00000
     10     -10.6206      2.00000
     11     -10.2957      2.00000
     12     -10.2956      2.00000
     13     -10.2730      2.00000
     14     -10.2730      2.00000
     15     -10.2447      2.00000
     16     -10.2445      2.00000
     17     -10.1263      2.00000
     18     -10.1262      2.00000
     19     -10.1230      2.00000
     20     -10.1230      2.00000
     21      -9.6916      2.00000
     22      -9.6835      2.00000
     23      -9.1274      2.00000
     24      -9.1019      2.00000
     25      -8.1578      2.00000
     26      -8.1116      2.00000
     27      -7.4147      2.00000
     28      -7.3819      2.00000
     29      -2.0649      2.00000
     30      -2.0221      2.00000
     31      -1.5674      2.00000
     32      -1.5672      2.00000
     33      -1.5608      2.00000
     34      -1.5608      2.00000
     35      -1.3318      2.00000
     36      -1.1325      2.00000
     37      -1.1260      2.00000
     38      -1.1226      2.00000
     39      -1.1225      2.00000
     40      -1.0980      2.00000
     41      -0.0908      2.00000
     42       0.3706      2.00000
     43       1.4428      2.00000
     44       1.8387      2.00000
     45       1.9055      2.00000
     46       2.0232      2.00000
     47       2.0256      2.00000
     48       2.0966      2.00000
     49       2.4494      2.00000
     50       2.5052      2.00000
     51       2.6158      2.00000
     52       2.6251      2.00000
     53       2.8811      2.00000
     54       2.9007      2.00000
     55       3.0185      2.00000
     56       3.0266      2.00000
     57       3.3750      2.00000
     58       3.8804      2.00000
     59       4.2652      2.00000
     60       4.3233      2.00000
     61       4.4598      2.00000
     62       4.4609      2.00000
     63       5.0537      0.00000
     64       5.5313      0.00000
     65       6.2112      0.00000
     66       6.4380      0.00000
     67       7.3560      0.00000
     68       7.4043      0.00000
     69       7.8551      0.00000
     70       7.9860      0.00000
     71       8.7402      0.00000
     72       8.7610      0.00000
     73       9.0343      0.00000
     74       9.0543      0.00000
     75       9.1400      0.00000
     76       9.1481      0.00000
     77       9.5735      0.00000
     78       9.6248      0.00000
     79       9.6604      0.00000
     80       9.6969      0.00000

 k-point    40 :       0.1111    0.0000    0.1667
  band No.  band energies     occupation 
      1     -11.0175      2.00000
      2     -11.0174      2.00000
      3     -10.8294      2.00000
      4     -10.8293      2.00000
      5     -10.7879      2.00000
      6     -10.7878      2.00000
      7     -10.6308      2.00000
      8     -10.6307      2.00000
      9     -10.6199      2.00000
     10     -10.6198      2.00000
     11     -10.3398      2.00000
     12     -10.3397      2.00000
     13     -10.2662      2.00000
     14     -10.2662      2.00000
     15     -10.2248      2.00000
     16     -10.2247      2.00000
     17     -10.1327      2.00000
     18     -10.1326      2.00000
     19     -10.1215      2.00000
     20     -10.1214      2.00000
     21      -9.5842      2.00000
     22      -9.5754      2.00000
     23      -9.0563      2.00000
     24      -9.0307      2.00000
     25      -8.0750      2.00000
     26      -8.0297      2.00000
     27      -7.3643      2.00000
     28      -7.3323      2.00000
     29      -2.0382      2.00000
     30      -1.9877      2.00000
     31      -1.5661      2.00000
     32      -1.5654      2.00000
     33      -1.5418      2.00000
     34      -1.5418      2.00000
     35      -1.3216      2.00000
     36      -1.1506      2.00000
     37      -1.1362      2.00000
     38      -1.1227      2.00000
     39      -1.1227      2.00000
     40      -1.0854      2.00000
     41      -0.0971      2.00000
     42       0.2702      2.00000
     43       1.3119      2.00000
     44       1.3971      2.00000
     45       1.5911      2.00000
     46       1.9004      2.00000
     47       1.9100      2.00000
     48       1.9141      2.00000
     49       2.0818      2.00000
     50       2.1546      2.00000
     51       2.4353      2.00000
     52       2.4469      2.00000
     53       2.5873      2.00000
     54       2.6532      2.00000
     55       3.0628      2.00000
     56       3.0730      2.00000
     57       3.6314      2.00000
     58       3.7415      2.00000
     59       3.9117      2.00000
     60       4.0270      2.00000
     61       4.3359      2.00000
     62       4.3386      2.00000
     63       5.4066      0.00000
     64       5.7122      0.00000
     65       6.4583      0.00000
     66       6.6444      0.00000
     67       7.6912      0.00000
     68       7.7664      0.00000
     69       8.0904      0.00000
     70       8.2162      0.00000
     71       8.5020      0.00000
     72       8.6165      0.00000
     73       9.0287      0.00000
     74       9.1630      0.00000
     75       9.1792      0.00000
     76       9.2009      0.00000
     77       9.6060      0.00000
     78       9.8367      0.00000
     79       9.8794      0.00000
     80       9.9193      0.00000

 k-point    41 :       0.1667    0.0000    0.1667
  band No.  band energies     occupation 
      1     -11.0441      2.00000
      2     -11.0440      2.00000
      3     -10.8492      2.00000
      4     -10.8491      2.00000
      5     -10.7758      2.00000
      6     -10.7758      2.00000
      7     -10.6392      2.00000
      8     -10.6391      2.00000
      9     -10.6182      2.00000
     10     -10.6182      2.00000
     11     -10.3987      2.00000
     12     -10.3986      2.00000
     13     -10.2568      2.00000
     14     -10.2567      2.00000
     15     -10.2022      2.00000
     16     -10.2021      2.00000
     17     -10.1392      2.00000
     18     -10.1391      2.00000
     19     -10.1180      2.00000
     20     -10.1180      2.00000
     21      -9.4225      2.00000
     22      -9.4128      2.00000
     23      -8.9397      2.00000
     24      -8.9143      2.00000
     25      -7.9520      2.00000
     26      -7.9088      2.00000
     27      -7.2857      2.00000
     28      -7.2555      2.00000
     29      -2.0057      2.00000
     30      -1.9461      2.00000
     31      -1.5607      2.00000
     32      -1.5584      2.00000
     33      -1.5124      2.00000
     34      -1.5124      2.00000
     35      -1.3076      2.00000
     36      -1.1730      2.00000
     37      -1.1518      2.00000
     38      -1.1224      2.00000
     39      -1.1224      2.00000
     40      -1.0792      2.00000
     41      -0.1658      2.00000
     42       0.0428      2.00000
     43       0.8487      2.00000
     44       0.9761      2.00000
     45       1.2929      2.00000
     46       1.5531      2.00000
     47       1.7459      2.00000
     48       1.7460      2.00000
     49       1.7521      2.00000
     50       1.9442      2.00000
     51       2.2200      2.00000
     52       2.2249      2.00000
     53       2.2347      2.00000
     54       2.3393      2.00000
     55       3.0756      2.00000
     56       3.0897      2.00000
     57       3.2629      2.00000
     58       3.4244      2.00000
     59       3.8418      2.00000
     60       4.0329      2.00000
     61       4.1563      2.00000
     62       4.1623      2.00000
     63       5.7398      0.00000
     64       5.8755      0.00000
     65       6.6353      0.00000
     66       6.7396      0.00000
     67       7.7589      0.00000
     68       7.8432      0.00000
     69       8.2519      0.00000
     70       8.3659      0.00000
     71       8.7017      0.00000
     72       8.8039      0.00000
     73       9.0827      0.00000
     74       9.2855      0.00000
     75       9.3739      0.00000
     76       9.3937      0.00000
     77       9.8120      0.00000
     78      10.1583      0.00000
     79      10.2042      0.00000
     80      10.2463      0.00000

 k-point    42 :       0.2222    0.0000    0.1667
  band No.  band energies     occupation 
      1     -11.0830      2.00000
      2     -11.0830      2.00000
      3     -10.8607      2.00000
      4     -10.8607      2.00000
      5     -10.7620      2.00000
      6     -10.7620      2.00000
      7     -10.6477      2.00000
      8     -10.6476      2.00000
      9     -10.6150      2.00000
     10     -10.6150      2.00000
     11     -10.4625      2.00000
     12     -10.4624      2.00000
     13     -10.2469      2.00000
     14     -10.2468      2.00000
     15     -10.1827      2.00000
     16     -10.1826      2.00000
     17     -10.1418      2.00000
     18     -10.1417      2.00000
     19     -10.1119      2.00000
     20     -10.1119      2.00000
     21      -9.2208      2.00000
     22      -9.2108      2.00000
     23      -8.7838      2.00000
     24      -8.7592      2.00000
     25      -7.8064      2.00000
     26      -7.7672      2.00000
     27      -7.1869      2.00000
     28      -7.1603      2.00000
     29      -1.9877      2.00000
     30      -1.9248      2.00000
     31      -1.5475      2.00000
     32      -1.5415      2.00000
     33      -1.4760      2.00000
     34      -1.4760      2.00000
     35      -1.2972      2.00000
     36      -1.2007      2.00000
     37      -1.1720      2.00000
     38      -1.1208      2.00000
     39      -1.1208      2.00000
     40      -1.0945      2.00000
     41      -0.3977      2.00000
     42      -0.3259      2.00000
     43       0.4249      2.00000
     44       0.5860      2.00000
     45       0.9207      2.00000
     46       1.1681      2.00000
     47       1.5575      2.00000
     48       1.5661      2.00000
     49       1.6147      2.00000
     50       1.6696      2.00000
     51       1.8767      2.00000
     52       1.9985      2.00000
     53       2.0165      2.00000
     54       2.0522      2.00000
     55       2.8440      2.00000
     56       3.0426      2.00000
     57       3.0569      2.00000
     58       3.0770      2.00000
     59       3.9390      2.00000
     60       3.9507      2.00000
     61       3.9624      2.00000
     62       4.0140      2.00000
     63       5.9428      0.00000
     64       5.9673      0.00000
     65       6.5780      0.00000
     66       6.6255      0.00000
     67       7.5436      0.00000
     68       7.6093      0.00000
     69       8.4478      0.00000
     70       8.5772      0.00000
     71       8.9568      0.00000
     72       9.0446      0.00000
     73       9.4729      0.00000
     74       9.5611      0.00000
     75       9.5703      0.00000
     76       9.5836      0.00000
     77      10.0402      0.00000
     78      10.4025      0.00000
     79      10.5869      0.00000
     80      10.6259      0.00000

 k-point    43 :       0.2778    0.0000    0.1667
  band No.  band energies     occupation 
      1     -11.1264      2.00000
      2     -11.1263      2.00000
      3     -10.8668      2.00000
      4     -10.8667      2.00000
      5     -10.7489      2.00000
      6     -10.7489      2.00000
      7     -10.6559      2.00000
      8     -10.6558      2.00000
      9     -10.6099      2.00000
     10     -10.6098      2.00000
     11     -10.5215      2.00000
     12     -10.5214      2.00000
     13     -10.2387      2.00000
     14     -10.2386      2.00000
     15     -10.1753      2.00000
     16     -10.1752      2.00000
     17     -10.1336      2.00000
     18     -10.1336      2.00000
     19     -10.1029      2.00000
     20     -10.1029      2.00000
     21      -8.9936      2.00000
     22      -8.9837      2.00000
     23      -8.6006      2.00000
     24      -8.5781      2.00000
     25      -7.6577      2.00000
     26      -7.6252      2.00000
     27      -7.0790      2.00000
     28      -7.0582      2.00000
     29      -2.0163      2.00000
     30      -1.9638      2.00000
     31      -1.5262      2.00000
     32      -1.5129      2.00000
     33      -1.4374      2.00000
     34      -1.4374      2.00000
     35      -1.3131      2.00000
     36      -1.2487      2.00000
     37      -1.1940      2.00000
     38      -1.1423      2.00000
     39      -1.1172      2.00000
     40      -1.1171      2.00000
     41      -0.7792      2.00000
     42      -0.7314      2.00000
     43       0.1177      2.00000
     44       0.2749      2.00000
     45       0.6613      2.00000
     46       0.8365      2.00000
     47       1.2560      2.00000
     48       1.3476      2.00000
     49       1.3701      2.00000
     50       1.3809      2.00000
     51       1.7396      2.00000
     52       1.7909      2.00000
     53       1.8121      2.00000
     54       1.8326      2.00000
     55       2.5886      2.00000
     56       2.7771      2.00000
     57       3.0152      2.00000
     58       3.0437      2.00000
     59       3.7478      2.00000
     60       3.7678      2.00000
     61       3.9601      2.00000
     62       3.9792      2.00000
     63       5.9077      0.00000
     64       5.9993      0.00000
     65       6.3910      0.00000
     66       6.4627      0.00000
     67       7.2963      0.00000
     68       7.3860      0.00000
     69       8.5308      0.00000
     70       8.7253      0.00000
     71       8.9693      0.00000
     72       9.1267      0.00000
     73       9.6817      0.00000
     74       9.6936      0.00000
     75       9.7589      0.00000
     76       9.9212      0.00000
     77      10.1974      0.00000
     78      10.4650      0.00000
     79      10.8300      0.00000
     80      10.9543      0.00000

 k-point    44 :       0.3333    0.0000    0.1667
  band No.  band energies     occupation 
      1     -11.1662      2.00000
      2     -11.1662      2.00000
      3     -10.8720      2.00000
      4     -10.8719      2.00000
      5     -10.7383      2.00000
      6     -10.7383      2.00000
      7     -10.6636      2.00000
      8     -10.6636      2.00000
      9     -10.6031      2.00000
     10     -10.6031      2.00000
     11     -10.5683      2.00000
     12     -10.5682      2.00000
     13     -10.2331      2.00000
     14     -10.2331      2.00000
     15     -10.1776      2.00000
     16     -10.1775      2.00000
     17     -10.1187      2.00000
     18     -10.1186      2.00000
     19     -10.0921      2.00000
     20     -10.0921      2.00000
     21      -8.7580      2.00000
     22      -8.7489      2.00000
     23      -8.4112      2.00000
     24      -8.3920      2.00000
     25      -7.5256      2.00000
     26      -7.5021      2.00000
     27      -6.9758      2.00000
     28      -6.9623      2.00000
     29      -2.1258      2.00000
     30      -2.0956      2.00000
     31      -1.5371      2.00000
     32      -1.4913      2.00000
     33      -1.4099      2.00000
     34      -1.4019      2.00000
     35      -1.4019      2.00000
     36      -1.3698      2.00000
     37      -1.2094      2.00000
     38      -1.1958      2.00000
     39      -1.1110      2.00000
     40      -1.1109      2.00000
     41      -1.0620      2.00000
     42      -1.0063      2.00000
     43      -0.0866      2.00000
     44       0.0395      2.00000
     45       0.4621      2.00000
     46       0.5912      2.00000
     47       0.8774      2.00000
     48       0.9667      2.00000
     49       1.2043      2.00000
     50       1.2169      2.00000
     51       1.6132      2.00000
     52       1.6142      2.00000
     53       1.6371      2.00000
     54       1.7971      2.00000
     55       2.4786      2.00000
     56       2.5941      2.00000
     57       2.9606      2.00000
     58       2.9993      2.00000
     59       3.5717      2.00000
     60       3.6018      2.00000
     61       3.9044      2.00000
     62       3.9603      2.00000
     63       5.7717      0.00000
     64       5.8955      0.00000
     65       6.2361      0.00000
     66       6.3145      0.00000
     67       7.0992      0.00000
     68       7.2278      0.00000
     69       8.5149      0.00000
     70       8.7084      0.00000
     71       8.8832      0.00000
     72       9.0533      0.00000
     73       9.7059      0.00000
     74       9.7218      0.00000
     75       9.7591      0.00000
     76       9.9246      0.00000
     77      10.2807      0.00000
     78      10.6099      0.00000
     79      10.8222      0.00000
     80      11.1463      0.00000

 k-point    45 :       0.3889    0.0000    0.1667
  band No.  band energies     occupation 
      1     -11.1974      2.00000
      2     -11.1974      2.00000
      3     -10.8781      2.00000
      4     -10.8779      2.00000
      5     -10.7311      2.00000
      6     -10.7310      2.00000
      7     -10.6708      2.00000
      8     -10.6708      2.00000
      9     -10.5994      2.00000
     10     -10.5993      2.00000
     11     -10.5961      2.00000
     12     -10.5961      2.00000
     13     -10.2300      2.00000
     14     -10.2300      2.00000
     15     -10.1817      2.00000
     16     -10.1817      2.00000
     17     -10.1053      2.00000
     18     -10.1053      2.00000
     19     -10.0817      2.00000
     20     -10.0817      2.00000
     21      -8.5385      2.00000
     22      -8.5308      2.00000
     23      -8.2448      2.00000
     24      -8.2301      2.00000
     25      -7.4273      2.00000
     26      -7.4132      2.00000
     27      -6.8913      2.00000
     28      -6.8846      2.00000
     29      -2.3026      2.00000
     30      -2.2914      2.00000
     31      -1.7243      2.00000
     32      -1.6888      2.00000
     33      -1.4258      2.00000
     34      -1.3982      2.00000
     35      -1.3742      2.00000
     36      -1.3742      2.00000
     37      -1.2483      2.00000
     38      -1.2307      2.00000
     39      -1.1031      2.00000
     40      -1.1030      2.00000
     41      -1.0828      2.00000
     42      -1.0479      2.00000
     43      -0.2344      2.00000
     44      -0.1522      2.00000
     45       0.2363      2.00000
     46       0.3773      2.00000
     47       0.5920      2.00000
     48       0.7664      2.00000
     49       1.0753      2.00000
     50       1.0895      2.00000
     51       1.4776      2.00000
     52       1.5037      2.00000
     53       1.5675      2.00000
     54       1.7602      2.00000
     55       2.4490      2.00000
     56       2.4629      2.00000
     57       2.9053      2.00000
     58       2.9538      2.00000
     59       3.4396      2.00000
     60       3.4794      2.00000
     61       3.8435      2.00000
     62       3.9255      2.00000
     63       5.6239      0.00000
     64       5.7738      0.00000
     65       6.1000      0.00000
     66       6.1923      0.00000
     67       6.9694      0.00000
     68       7.1404      0.00000
     69       8.4578      0.00000
     70       8.5769      0.00000
     71       8.8299      0.00000
     72       8.9401      0.00000
     73       9.5666      0.00000
     74       9.7181      0.00000
     75       9.7409      0.00000
     76       9.7772      0.00000
     77      10.2701      0.00000
     78      10.5867      0.00000
     79      10.8438      0.00000
     80      11.1657      0.00000

 k-point    46 :       0.4444    0.0000    0.1667
  band No.  band energies     occupation 
      1     -11.2172      2.00000
      2     -11.2171      2.00000
      3     -10.8835      2.00000
      4     -10.8834      2.00000
      5     -10.7270      2.00000
      6     -10.7270      2.00000
      7     -10.6764      2.00000
      8     -10.6764      2.00000
      9     -10.6156      2.00000
     10     -10.6155      2.00000
     11     -10.5908      2.00000
     12     -10.5907      2.00000
     13     -10.2286      2.00000
     14     -10.2286      2.00000
     15     -10.1848      2.00000
     16     -10.1848      2.00000
     17     -10.0967      2.00000
     18     -10.0967      2.00000
     19     -10.0743      2.00000
     20     -10.0742      2.00000
     21      -8.3711      2.00000
     22      -8.3649      2.00000
     23      -8.1345      2.00000
     24      -8.1240      2.00000
     25      -7.3710      2.00000
     26      -7.3637      2.00000
     27      -6.8367      2.00000
     28      -6.8340      2.00000
     29      -2.4684      2.00000
     30      -2.4571      2.00000
     31      -1.9069      2.00000
     32      -1.8809      2.00000
     33      -1.4102      2.00000
     34      -1.3820      2.00000
     35      -1.3571      2.00000
     36      -1.3571      2.00000
     37      -1.2744      2.00000
     38      -1.2506      2.00000
     39      -1.0961      2.00000
     40      -1.0960      2.00000
     41      -0.9940      2.00000
     42      -0.9768      2.00000
     43      -0.3750      2.00000
     44      -0.3151      2.00000
     45      -0.0052      2.00000
     46       0.1655      2.00000
     47       0.5183      2.00000
     48       0.7512      2.00000
     49       0.9938      2.00000
     50       1.0090      2.00000
     51       1.3928      2.00000
     52       1.4203      2.00000
     53       1.5575      2.00000
     54       1.6986      2.00000
     55       2.3789      2.00000
     56       2.4583      2.00000
     57       2.8635      2.00000
     58       2.9188      2.00000
     59       3.3599      2.00000
     60       3.4064      2.00000
     61       3.7880      2.00000
     62       3.9033      2.00000
     63       5.5253      0.00000
     64       5.6891      0.00000
     65       6.0000      0.00000
     66       6.1065      0.00000
     67       6.8974      0.00000
     68       7.1015      0.00000
     69       8.3999      0.00000
     70       8.4784      0.00000
     71       8.7777      0.00000
     72       8.8830      0.00000
     73       9.4088      0.00000
     74       9.6255      0.00000
     75       9.7025      0.00000
     76       9.7754      0.00000
     77      10.2406      0.00000
     78      10.5028      0.00000
     79      10.8176      0.00000
     80      11.1910      0.00000

 k-point    47 :       0.5000    0.0000    0.1667
  band No.  band energies     occupation 
      1     -11.2239      2.00000
      2     -11.2239      2.00000
      3     -10.8857      2.00000
      4     -10.8856      2.00000
      5     -10.7258      2.00000
      6     -10.7257      2.00000
      7     -10.6786      2.00000
      8     -10.6786      2.00000
      9     -10.6204      2.00000
     10     -10.6203      2.00000
     11     -10.5888      2.00000
     12     -10.5887      2.00000
     13     -10.2282      2.00000
     14     -10.2282      2.00000
     15     -10.1859      2.00000
     16     -10.1859      2.00000
     17     -10.0938      2.00000
     18     -10.0937      2.00000
     19     -10.0716      2.00000
     20     -10.0715      2.00000
     21      -8.3050      2.00000
     22      -8.2996      2.00000
     23      -8.0982      2.00000
     24      -8.0896      2.00000
     25      -7.3536      2.00000
     26      -7.3487      2.00000
     27      -6.8180      2.00000
     28      -6.8165      2.00000
     29      -2.5349      2.00000
     30      -2.5206      2.00000
     31      -1.9736      2.00000
     32      -1.9495      2.00000
     33      -1.4057      2.00000
     34      -1.3760      2.00000
     35      -1.3514      2.00000
     36      -1.3514      2.00000
     37      -1.2818      2.00000
     38      -1.2572      2.00000
     39      -1.0933      2.00000
     40      -1.0932      2.00000
     41      -0.9242      2.00000
     42      -0.9242      2.00000
     43      -0.4508      2.00000
     44      -0.4018      2.00000
     45      -0.1023      2.00000
     46       0.0753      2.00000
     47       0.5257      2.00000
     48       0.7624      2.00000
     49       0.9660      2.00000
     50       0.9815      2.00000
     51       1.3639      2.00000
     52       1.3919      2.00000
     53       1.5582      2.00000
     54       1.6613      2.00000
     55       2.3538      2.00000
     56       2.4644      2.00000
     57       2.8479      2.00000
     58       2.9055      2.00000
     59       3.3336      2.00000
     60       3.3824      2.00000
     61       3.7640      2.00000
     62       3.8974      2.00000
     63       5.4926      0.00000
     64       5.6580      0.00000
     65       5.9639      0.00000
     66       6.0753      0.00000
     67       6.8744      0.00000
     68       7.0908      0.00000
     69       8.3726      0.00000
     70       8.4484      0.00000
     71       8.7513      0.00000
     72       8.8785      0.00000
     73       9.3327      0.00000
     74       9.5918      0.00000
     75       9.6951      0.00000
     76       9.7726      0.00000
     77      10.2352      0.00000
     78      10.4558      0.00000
     79      10.8073      0.00000
     80      11.0999      0.00000

 k-point    48 :       0.0556    0.0556    0.1667
  band No.  band energies     occupation 
      1     -11.0128      2.00000
      2     -11.0128      2.00000
      3     -10.8233      2.00000
      4     -10.8232      2.00000
      5     -10.7905      2.00000
      6     -10.7905      2.00000
      7     -10.6286      2.00000
      8     -10.6285      2.00000
      9     -10.6202      2.00000
     10     -10.6202      2.00000
     11     -10.3248      2.00000
     12     -10.3248      2.00000
     13     -10.2709      2.00000
     14     -10.2709      2.00000
     15     -10.2294      2.00000
     16     -10.2293      2.00000
     17     -10.1308      2.00000
     18     -10.1307      2.00000
     19     -10.1221      2.00000
     20     -10.1220      2.00000
     21      -9.6189      2.00000
     22      -9.6103      2.00000
     23      -9.0799      2.00000
     24      -9.0543      2.00000
     25      -8.1018      2.00000
     26      -8.0562      2.00000
     27      -7.3809      2.00000
     28      -7.3486      2.00000
     29      -2.0465      2.00000
     30      -1.9984      2.00000
     31      -1.5667      2.00000
     32      -1.5663      2.00000
     33      -1.5480      2.00000
     34      -1.5480      2.00000
     35      -1.3249      2.00000
     36      -1.1453      2.00000
     37      -1.1328      2.00000
     38      -1.1228      2.00000
     39      -1.1227      2.00000
     40      -1.0886      2.00000
     41      -0.0924      2.00000
     42       0.3075      2.00000
     43       1.3837      2.00000
     44       1.5235      2.00000
     45       1.6805      2.00000
     46       1.9036      2.00000
     47       1.9380      2.00000
     48       2.0199      2.00000
     49       2.2281      2.00000
     50       2.2718      2.00000
     51       2.3667      2.00000
     52       2.3842      2.00000
     53       2.8652      2.00000
     54       2.8733      2.00000
     55       2.9444      2.00000
     56       2.9774      2.00000
     57       3.5818      2.00000
     58       3.8444      2.00000
     59       4.0404      2.00000
     60       4.0409      2.00000
     61       4.3688      2.00000
     62       4.3694      2.00000
     63       5.3117      0.00000
     64       5.6634      0.00000
     65       6.3915      0.00000
     66       6.5926      0.00000
     67       7.6163      0.00000
     68       7.6698      0.00000
     69       8.0669      0.00000
     70       8.1515      0.00000
     71       8.5715      0.00000
     72       8.5942      0.00000
     73       8.9637      0.00000
     74       9.0505      0.00000
     75       9.2208      0.00000
     76       9.2538      0.00000
     77       9.5623      0.00000
     78       9.7466      0.00000
     79       9.8224      0.00000
     80       9.8562      0.00000

 k-point    49 :       0.1111    0.0556    0.1667
  band No.  band energies     occupation 
      1     -11.0328      2.00000
      2     -11.0327      2.00000
      3     -10.8431      2.00000
      4     -10.8430      2.00000
      5     -10.7806      2.00000
      6     -10.7805      2.00000
      7     -10.6359      2.00000
      8     -10.6358      2.00000
      9     -10.6192      2.00000
     10     -10.6192      2.00000
     11     -10.3736      2.00000
     12     -10.3735      2.00000
     13     -10.2668      2.00000
     14     -10.2667      2.00000
     15     -10.2072      2.00000
     16     -10.2071      2.00000
     17     -10.1371      2.00000
     18     -10.1370      2.00000
     19     -10.1196      2.00000
     20     -10.1195      2.00000
     21      -9.4847      2.00000
     22      -9.4753      2.00000
     23      -8.9856      2.00000
     24      -8.9600      2.00000
     25      -7.9992      2.00000
     26      -7.9551      2.00000
     27      -7.3164      2.00000
     28      -7.2853      2.00000
     29      -2.0166      2.00000
     30      -1.9600      2.00000
     31      -1.5634      2.00000
     32      -1.5618      2.00000
     33      -1.5237      2.00000
     34      -1.5237      2.00000
     35      -1.3127      2.00000
     36      -1.1645      2.00000
     37      -1.1454      2.00000
     38      -1.1228      2.00000
     39      -1.1228      2.00000
     40      -1.0797      2.00000
     41      -0.1268      2.00000
     42       0.1443      2.00000
     43       1.0560      2.00000
     44       1.1203      2.00000
     45       1.4560      2.00000
     46       1.6279      2.00000
     47       1.7813      2.00000
     48       1.8233      2.00000
     49       1.8849      2.00000
     50       2.0286      2.00000
     51       2.0943      2.00000
     52       2.1142      2.00000
     53       2.6339      2.00000
     54       2.6782      2.00000
     55       2.9643      2.00000
     56       2.9741      2.00000
     57       3.4588      2.00000
     58       3.5948      2.00000
     59       3.8109      2.00000
     60       4.0272      2.00000
     61       4.2020      2.00000
     62       4.2059      2.00000
     63       5.6422      0.00000
     64       5.8328      0.00000
     65       6.6173      0.00000
     66       6.7539      0.00000
     67       7.8808      0.00000
     68       7.9823      0.00000
     69       8.1636      0.00000
     70       8.2737      0.00000
     71       8.5861      0.00000
     72       8.6655      0.00000
     73       8.8720      0.00000
     74       9.0668      0.00000
     75       9.4025      0.00000
     76       9.4383      0.00000
     77       9.6673      0.00000
     78       9.9695      0.00000
     79      10.1324      0.00000
     80      10.1703      0.00000

 k-point    50 :       0.1667    0.0556    0.1667
  band No.  band energies     occupation 
      1     -11.0661      2.00000
      2     -11.0661      2.00000
      3     -10.8572      2.00000
      4     -10.8572      2.00000
      5     -10.7679      2.00000
      6     -10.7679      2.00000
      7     -10.6438      2.00000
      8     -10.6437      2.00000
      9     -10.6171      2.00000
     10     -10.6170      2.00000
     11     -10.4330      2.00000
     12     -10.4330      2.00000
     13     -10.2599      2.00000
     14     -10.2598      2.00000
     15     -10.1853      2.00000
     16     -10.1853      2.00000
     17     -10.1423      2.00000
     18     -10.1422      2.00000
     19     -10.1146      2.00000
     20     -10.1145      2.00000
     21      -9.3031      2.00000
     22      -9.2932      2.00000
     23      -8.8482      2.00000
     24      -8.8232      2.00000
     25      -7.8657      2.00000
     26      -7.8246      2.00000
     27      -7.2275      2.00000
     28      -7.1993      2.00000
     29      -1.9903      2.00000
     30      -1.9274      2.00000
     31      -1.5538      2.00000
     32      -1.5496      2.00000
     33      -1.4907      2.00000
     34      -1.4906      2.00000
     35      -1.2998      2.00000
     36      -1.1886      2.00000
     37      -1.1629      2.00000
     38      -1.1221      2.00000
     39      -1.1220      2.00000
     40      -1.0836      2.00000
     41      -0.2730      2.00000
     42      -0.1578      2.00000
     43       0.6092      2.00000
     44       0.7392      2.00000
     45       1.0955      2.00000
     46       1.3285      2.00000
     47       1.5395      2.00000
     48       1.5723      2.00000
     49       1.6922      2.00000
     50       1.7907      2.00000
     51       1.8606      2.00000
     52       1.8856      2.00000
     53       2.3227      2.00000
     54       2.3984      2.00000
     55       2.9200      2.00000
     56       2.9763      2.00000
     57       3.0806      2.00000
     58       3.2061      2.00000
     59       3.9153      2.00000
     60       3.9652      2.00000
     61       4.0059      2.00000
     62       4.0570      2.00000
     63       5.9168      0.00000
     64       5.9615      0.00000
     65       6.6855      0.00000
     66       6.7359      0.00000
     67       7.7536      0.00000
     68       7.8053      0.00000
     69       8.4444      0.00000
     70       8.5102      0.00000
     71       8.8216      0.00000
     72       8.9153      0.00000
     73       9.0939      0.00000
     74       9.2094      0.00000
     75       9.6184      0.00000
     76       9.6620      0.00000
     77       9.9031      0.00000
     78      10.2242      0.00000
     79      10.4668      0.00000
     80      10.5373      0.00000

 k-point    51 :       0.2222    0.0556    0.1667
  band No.  band energies     occupation 
      1     -11.1075      2.00000
      2     -11.1074      2.00000
      3     -10.8645      2.00000
      4     -10.8645      2.00000
      5     -10.7549      2.00000
      6     -10.7548      2.00000
      7     -10.6516      2.00000
      8     -10.6516      2.00000
      9     -10.6133      2.00000
     10     -10.6132      2.00000
     11     -10.4930      2.00000
     12     -10.4929      2.00000
     13     -10.2524      2.00000
     14     -10.2523      2.00000
     15     -10.1723      2.00000
     16     -10.1723      2.00000
     17     -10.1405      2.00000
     18     -10.1404      2.00000
     19     -10.1065      2.00000
     20     -10.1065      2.00000
     21      -9.0881      2.00000
     22      -9.0781      2.00000
     23      -8.6767      2.00000
     24      -8.6532      2.00000
     25      -7.7196      2.00000
     26      -7.6840      2.00000
     27      -7.1240      2.00000
     28      -7.1006      2.00000
     29      -1.9930      2.00000
     30      -1.9338      2.00000
     31      -1.5351      2.00000
     32      -1.5258      2.00000
     33      -1.4530      2.00000
     34      -1.4530      2.00000
     35      -1.2992      2.00000
     36      -1.2225      2.00000
     37      -1.1843      2.00000
     38      -1.1207      2.00000
     39      -1.1193      2.00000
     40      -1.1148      2.00000
     41      -0.5955      2.00000
     42      -0.5525      2.00000
     43       0.2605      2.00000
     44       0.4099      2.00000
     45       0.7694      2.00000
     46       0.9753      2.00000
     47       1.3166      2.00000
     48       1.3329      2.00000
     49       1.4712      2.00000
     50       1.5585      2.00000
     51       1.6216      2.00000
     52       1.7166      2.00000
     53       2.0564      2.00000
     54       2.1101      2.00000
     55       2.6735      2.00000
     56       2.8834      2.00000
     57       2.9670      2.00000
     58       2.9905      2.00000
     59       3.7629      2.00000
     60       3.7729      2.00000
     61       3.9940      2.00000
     62       4.0083      2.00000
     63       5.9909      0.00000
     64       6.0570      0.00000
     65       6.5405      0.00000
     66       6.5976      0.00000
     67       7.5090      0.00000
     68       7.5706      0.00000
     69       8.5971      0.00000
     70       8.7115      0.00000
     71       9.0816      0.00000
     72       9.1504      0.00000
     73       9.3703      0.00000
     74       9.3825      0.00000
     75       9.7831      0.00000
     76       9.8831      0.00000
     77      10.1505      0.00000
     78      10.3743      0.00000
     79      10.6649      0.00000
     80      10.7614      0.00000

 k-point    52 :       0.2778    0.0556    0.1667
  band No.  band energies     occupation 
      1     -11.1487      2.00000
      2     -11.1487      2.00000
      3     -10.8692      2.00000
      4     -10.8691      2.00000
      5     -10.7436      2.00000
      6     -10.7435      2.00000
      7     -10.6590      2.00000
      8     -10.6590      2.00000
      9     -10.6077      2.00000
     10     -10.6076      2.00000
     11     -10.5449      2.00000
     12     -10.5448      2.00000
     13     -10.2462      2.00000
     14     -10.2461      2.00000
     15     -10.1724      2.00000
     16     -10.1724      2.00000
     17     -10.1280      2.00000
     18     -10.1279      2.00000
     19     -10.0962      2.00000
     20     -10.0962      2.00000
     21      -8.8549      2.00000
     22      -8.8455      2.00000
     23      -8.4877      2.00000
     24      -8.4668      2.00000
     25      -7.5808      2.00000
     26      -7.5532      2.00000
     27      -7.0182      2.00000
     28      -7.0016      2.00000
     29      -2.0596      2.00000
     30      -2.0183      2.00000
     31      -1.5166      2.00000
     32      -1.4937      2.00000
     33      -1.4167      2.00000
     34      -1.4160      2.00000
     35      -1.3489      2.00000
     36      -1.3035      2.00000
     37      -1.2025      2.00000
     38      -1.1689      2.00000
     39      -1.1140      2.00000
     40      -1.1138      2.00000
     41      -0.9557      2.00000
     42      -0.9051      2.00000
     43       0.0116      2.00000
     44       0.1512      2.00000
     45       0.5508      2.00000
     46       0.6885      2.00000
     47       1.0349      2.00000
     48       1.0438      2.00000
     49       1.2144      2.00000
     50       1.2821      2.00000
     51       1.4780      2.00000
     52       1.5958      2.00000
     53       1.8471      2.00000
     54       1.9273      2.00000
     55       2.5059      2.00000
     56       2.6779      2.00000
     57       2.9241      2.00000
     58       2.9427      2.00000
     59       3.5666      2.00000
     60       3.5835      2.00000
     61       3.9475      2.00000
     62       4.0001      2.00000
     63       5.9156      0.00000
     64       6.0229      0.00000
     65       6.3714      0.00000
     66       6.4463      0.00000
     67       7.2835      0.00000
     68       7.3751      0.00000
     69       8.6350      0.00000
     70       8.8129      0.00000
     71       9.0206      0.00000
     72       9.1931      0.00000
     73       9.5365      0.00000
     74       9.5564      0.00000
     75       9.7629      0.00000
     76      10.0300      0.00000
     77      10.2586      0.00000
     78      10.5766      0.00000
     79      10.8218      0.00000
     80      10.8801      0.00000

 k-point    53 :       0.3333    0.0556    0.1667
  band No.  band energies     occupation 
      1     -11.1838      2.00000
      2     -11.1837      2.00000
      3     -10.8742      2.00000
      4     -10.8741      2.00000
      5     -10.7352      2.00000
      6     -10.7351      2.00000
      7     -10.6660      2.00000
      8     -10.6659      2.00000
      9     -10.6014      2.00000
     10     -10.6013      2.00000
     11     -10.5828      2.00000
     12     -10.5827      2.00000
     13     -10.2422      2.00000
     14     -10.2421      2.00000
     15     -10.1768      2.00000
     16     -10.1768      2.00000
     17     -10.1135      2.00000
     18     -10.1134      2.00000
     19     -10.0861      2.00000
     20     -10.0861      2.00000
     21      -8.6239      2.00000
     22      -8.6156      2.00000
     23      -8.3064      2.00000
     24      -8.2895      2.00000
     25      -7.4679      2.00000
     26      -7.4498      2.00000
     27      -6.9243      2.00000
     28      -6.9149      2.00000
     29      -2.2061      2.00000
     30      -2.1877      2.00000
     31      -1.6130      2.00000
     32      -1.5678      2.00000
     33      -1.4310      2.00000
     34      -1.4026      2.00000
     35      -1.3847      2.00000
     36      -1.3798      2.00000
     37      -1.2227      2.00000
     38      -1.2160      2.00000
     39      -1.1148      2.00000
     40      -1.1089      2.00000
     41      -1.0867      2.00000
     42      -1.0491      2.00000
     43      -0.1536      2.00000
     44      -0.0542      2.00000
     45       0.3605      2.00000
     46       0.4727      2.00000
     47       0.6928      2.00000
     48       0.7714      2.00000
     49       1.0581      2.00000
     50       1.0886      2.00000
     51       1.3945      2.00000
     52       1.4787      2.00000
     53       1.6698      2.00000
     54       1.8594      2.00000
     55       2.4297      2.00000
     56       2.5252      2.00000
     57       2.8832      2.00000
     58       2.8971      2.00000
     59       3.4072      2.00000
     60       3.4321      2.00000
     61       3.8890      2.00000
     62       3.9666      2.00000
     63       5.7780      0.00000
     64       5.9065      0.00000
     65       6.2353      0.00000
     66       6.3204      0.00000
     67       7.1203      0.00000
     68       7.2477      0.00000
     69       8.5972      0.00000
     70       8.7573      0.00000
     71       8.9255      0.00000
     72       9.0938      0.00000
     73       9.5566      0.00000
     74       9.6046      0.00000
     75       9.6956      0.00000
     76       9.8986      0.00000
     77      10.3025      0.00000
     78      10.6726      0.00000
     79      10.8955      0.00000
     80      11.0438      0.00000

 k-point    54 :       0.3889    0.0556    0.1667
  band No.  band energies     occupation 
      1     -11.2089      2.00000
      2     -11.2088      2.00000
      3     -10.8797      2.00000
      4     -10.8796      2.00000
      5     -10.7300      2.00000
      6     -10.7299      2.00000
      7     -10.6721      2.00000
      8     -10.6721      2.00000
      9     -10.6071      2.00000
     10     -10.6070      2.00000
     11     -10.5942      2.00000
     12     -10.5941      2.00000
     13     -10.2400      2.00000
     14     -10.2400      2.00000
     15     -10.1808      2.00000
     16     -10.1808      2.00000
     17     -10.1017      2.00000
     18     -10.1016      2.00000
     19     -10.0786      2.00000
     20     -10.0786      2.00000
     21      -8.4246      2.00000
     22      -8.4177      2.00000
     23      -8.1655      2.00000
     24      -8.1531      2.00000
     25      -7.3941      2.00000
     26      -7.3843      2.00000
     27      -6.8548      2.00000
     28      -6.8508      2.00000
     29      -2.3842      2.00000
     30      -2.3753      2.00000
     31      -1.8239      2.00000
     32      -1.7951      2.00000
     33      -1.4121      2.00000
     34      -1.3883      2.00000
     35      -1.3635      2.00000
     36      -1.3609      2.00000
     37      -1.2605      2.00000
     38      -1.2398      2.00000
     39      -1.1057      2.00000
     40      -1.1035      2.00000
     41      -1.0353      2.00000
     42      -1.0127      2.00000
     43      -0.2958      2.00000
     44      -0.2280      2.00000
     45       0.1155      2.00000
     46       0.2621      2.00000
     47       0.5080      2.00000
     48       0.6840      2.00000
     49       0.9504      2.00000
     50       0.9627      2.00000
     51       1.3334      2.00000
     52       1.4087      2.00000
     53       1.5829      2.00000
     54       1.7828      2.00000
     55       2.3925      2.00000
     56       2.4265      2.00000
     57       2.8525      2.00000
     58       2.8619      2.00000
     59       3.2977      2.00000
     60       3.3291      2.00000
     61       3.8334      2.00000
     62       3.9300      2.00000
     63       5.6560      0.00000
     64       5.8037      0.00000
     65       6.1223      0.00000
     66       6.2234      0.00000
     67       7.0201      0.00000
     68       7.1811      0.00000
     69       8.5455      0.00000
     70       8.6342      0.00000
     71       8.8869      0.00000
     72       8.9856      0.00000
     73       9.4727      0.00000
     74       9.5626      0.00000
     75       9.6347      0.00000
     76       9.8000      0.00000
     77      10.2938      0.00000
     78      10.6060      0.00000
     79      10.9333      0.00000
     80      11.0301      0.00000

 k-point    55 :       0.4444    0.0556    0.1667
  band No.  band energies     occupation 
      1     -11.2219      2.00000
      2     -11.2218      2.00000
      3     -10.8834      2.00000
      4     -10.8833      2.00000
      5     -10.7275      2.00000
      6     -10.7275      2.00000
      7     -10.6760      2.00000
      8     -10.6759      2.00000
      9     -10.6168      2.00000
     10     -10.6167      2.00000
     11     -10.5910      2.00000
     12     -10.5909      2.00000
     13     -10.2392      2.00000
     14     -10.2391      2.00000
     15     -10.1831      2.00000
     16     -10.1830      2.00000
     17     -10.0950      2.00000
     18     -10.0949      2.00000
     19     -10.0748      2.00000
     20     -10.0747      2.00000
     21      -8.3003      2.00000
     22      -8.2947      2.00000
     23      -8.0929      2.00000
     24      -8.0839      2.00000
     25      -7.3604      2.00000
     26      -7.3551      2.00000
     27      -6.8184      2.00000
     28      -6.8168      2.00000
     29      -2.5056      2.00000
     30      -2.4921      2.00000
     31      -1.9521      2.00000
     32      -1.9276      2.00000
     33      -1.4027      2.00000
     34      -1.3757      2.00000
     35      -1.3526      2.00000
     36      -1.3513      2.00000
     37      -1.2758      2.00000
     38      -1.2525      2.00000
     39      -1.0981      2.00000
     40      -1.0976      2.00000
     41      -0.9398      2.00000
     42      -0.9317      2.00000
     43      -0.4178      2.00000
     44      -0.3648      2.00000
     45      -0.0640      2.00000
     46       0.1014      2.00000
     47       0.4935      2.00000
     48       0.6793      2.00000
     49       0.8947      2.00000
     50       0.8988      2.00000
     51       1.3124      2.00000
     52       1.3627      2.00000
     53       1.5693      2.00000
     54       1.7029      2.00000
     55       2.3533      2.00000
     56       2.4027      2.00000
     57       2.8360      2.00000
     58       2.8461      2.00000
     59       3.2427      2.00000
     60       3.2771      2.00000
     61       3.7930      2.00000
     62       3.9132      2.00000
     63       5.5918      0.00000
     64       5.7442      0.00000
     65       6.0587      0.00000
     66       6.1676      0.00000
     67       6.9730      0.00000
     68       7.1543      0.00000
     69       8.5115      0.00000
     70       8.5597      0.00000
     71       8.8657      0.00000
     72       8.9397      0.00000
     73       9.3713      0.00000
     74       9.5081      0.00000
     75       9.5961      0.00000
     76       9.7940      0.00000
     77      10.2811      0.00000
     78      10.5430      0.00000
     79      10.8556      0.00000
     80      10.9983      0.00000

 k-point    56 :       0.1111    0.1111    0.1667
  band No.  band energies     occupation 
      1     -11.0600      2.00000
      2     -11.0600      2.00000
      3     -10.8557      2.00000
      4     -10.8557      2.00000
      5     -10.7703      2.00000
      6     -10.7702      2.00000
      7     -10.6420      2.00000
      8     -10.6420      2.00000
      9     -10.6181      2.00000
     10     -10.6181      2.00000
     11     -10.4190      2.00000
     12     -10.4189      2.00000
     13     -10.2706      2.00000
     14     -10.2705      2.00000
     15     -10.1845      2.00000
     16     -10.1845      2.00000
     17     -10.1425      2.00000
     18     -10.1424      2.00000
     19     -10.1155      2.00000
     20     -10.1154      2.00000
     21      -9.3309      2.00000
     22      -9.3211      2.00000
     23      -8.8694      2.00000
     24      -8.8443      2.00000
     25      -7.8868      2.00000
     26      -7.8451      2.00000
     27      -7.2416      2.00000
     28      -7.2128      2.00000
     29      -1.9922      2.00000
     30      -1.9296      2.00000
     31      -1.5556      2.00000
     32      -1.5520      2.00000
     33      -1.4957      2.00000
     34      -1.4956      2.00000
     35      -1.3012      2.00000
     36      -1.1844      2.00000
     37      -1.1595      2.00000
     38      -1.1227      2.00000
     39      -1.1226      2.00000
     40      -1.0805      2.00000
     41      -0.2329      2.00000
     42      -0.0951      2.00000
     43       0.7224      2.00000
     44       0.7848      2.00000
     45       1.2733      2.00000
     46       1.2765      2.00000
     47       1.5611      2.00000
     48       1.5668      2.00000
     49       1.6864      2.00000
     50       1.7145      2.00000
     51       1.8376      2.00000
     52       1.8838      2.00000
     53       2.6716      2.00000
     54       2.6761      2.00000
     55       2.7313      2.00000
     56       2.7432      2.00000
     57       3.1504      2.00000
     58       3.2886      2.00000
     59       3.9080      2.00000
     60       3.9344      2.00000
     61       4.0019      2.00000
     62       4.0748      2.00000
     63       5.9120      0.00000
     64       5.9701      0.00000
     65       6.7513      0.00000
     66       6.8050      0.00000
     67       7.9715      0.00000
     68       7.9923      0.00000
     69       8.4615      0.00000
     70       8.5097      0.00000
     71       8.5840      0.00000
     72       8.6291      0.00000
     73       9.0435      0.00000
     74       9.1482      0.00000
     75       9.6016      0.00000
     76       9.6445      0.00000
     77       9.8220      0.00000
     78      10.1627      0.00000
     79      10.4871      0.00000
     80      10.5101      0.00000

 k-point    57 :       0.1667    0.1111    0.1667
  band No.  band energies     occupation 
      1     -11.0964      2.00000
      2     -11.0963      2.00000
      3     -10.8633      2.00000
      4     -10.8633      2.00000
      5     -10.7589      2.00000
      6     -10.7589      2.00000
      7     -10.6483      2.00000
      8     -10.6482      2.00000
      9     -10.6160      2.00000
     10     -10.6160      2.00000
     11     -10.4702      2.00000
     12     -10.4701      2.00000
     13     -10.2719      2.00000
     14     -10.2718      2.00000
     15     -10.1666      2.00000
     16     -10.1665      2.00000
     17     -10.1461      2.00000
     18     -10.1461      2.00000
     19     -10.1079      2.00000
     20     -10.1079      2.00000
     21      -9.1356      2.00000
     22      -9.1257      2.00000
     23      -8.7141      2.00000
     24      -8.6902      2.00000
     25      -7.7542      2.00000
     26      -7.7171      2.00000
     27      -7.1479      2.00000
     28      -7.1232      2.00000
     29      -1.9836      2.00000
     30      -1.9217      2.00000
     31      -1.5397      2.00000
     32      -1.5319      2.00000
     33      -1.4611      2.00000
     34      -1.4609      2.00000
     35      -1.2954      2.00000
     36      -1.2120      2.00000
     37      -1.1778      2.00000
     38      -1.1215      2.00000
     39      -1.1208      2.00000
     40      -1.1006      2.00000
     41      -0.4769      2.00000
     42      -0.4350      2.00000
     43       0.4057      2.00000
     44       0.4843      2.00000
     45       0.9020      2.00000
     46       1.0287      2.00000
     47       1.2527      2.00000
     48       1.2793      2.00000
     49       1.4504      2.00000
     50       1.5038      2.00000
     51       1.6082      2.00000
     52       1.7337      2.00000
     53       2.3471      2.00000
     54       2.4251      2.00000
     55       2.6367      2.00000
     56       2.7219      2.00000
     57       2.9390      2.00000
     58       3.0114      2.00000
     59       3.6889      2.00000
     60       3.7101      2.00000
     61       4.0246      2.00000
     62       4.0395      2.00000
     63       6.0692      0.00000
     64       6.1175      0.00000
     65       6.7209      0.00000
     66       6.7503      0.00000
     67       7.8445      0.00000
     68       7.8595      0.00000
     69       8.6133      0.00000
     70       8.7152      0.00000
     71       8.8801      0.00000
     72       8.9195      0.00000
     73       9.2755      0.00000
     74       9.3169      0.00000
     75       9.7224      0.00000
     76       9.7650      0.00000
     77      10.0934      0.00000
     78      10.3134      0.00000
     79      10.6372      0.00000
     80      10.7569      0.00000

 k-point    58 :       0.2222    0.1111    0.1667
  band No.  band energies     occupation 
      1     -11.1354      2.00000
      2     -11.1353      2.00000
      3     -10.8673      2.00000
      4     -10.8672      2.00000
      5     -10.7485      2.00000
      6     -10.7485      2.00000
      7     -10.6543      2.00000
      8     -10.6542      2.00000
      9     -10.6124      2.00000
     10     -10.6124      2.00000
     11     -10.5194      2.00000
     12     -10.5194      2.00000
     13     -10.2712      2.00000
     14     -10.2711      2.00000
     15     -10.1628      2.00000
     16     -10.1627      2.00000
     17     -10.1392      2.00000
     18     -10.1392      2.00000
     19     -10.0979      2.00000
     20     -10.0979      2.00000
     21      -8.9127      2.00000
     22      -8.9031      2.00000
     23      -8.5325      2.00000
     24      -8.5108      2.00000
     25      -7.6203      2.00000
     26      -7.5903      2.00000
     27      -7.0461      2.00000
     28      -7.0276      2.00000
     29      -2.0188      2.00000
     30      -1.9699      2.00000
     31      -1.5161      2.00000
     32      -1.5011      2.00000
     33      -1.4252      2.00000
     34      -1.4246      2.00000
     35      -1.3174      2.00000
     36      -1.2645      2.00000
     37      -1.1967      2.00000
     38      -1.1460      2.00000
     39      -1.1157      2.00000
     40      -1.1144      2.00000
     41      -0.8197      2.00000
     42      -0.7895      2.00000
     43       0.1359      2.00000
     44       0.2502      2.00000
     45       0.6098      2.00000
     46       0.7473      2.00000
     47       1.0054      2.00000
     48       1.0389      2.00000
     49       1.2237      2.00000
     50       1.2687      2.00000
     51       1.3206      2.00000
     52       1.6112      2.00000
     53       2.0657      2.00000
     54       2.1534      2.00000
     55       2.4934      2.00000
     56       2.6800      2.00000
     57       2.7965      2.00000
     58       2.8726      2.00000
     59       3.4483      2.00000
     60       3.4728      2.00000
     61       3.9928      2.00000
     62       4.0480      2.00000
     63       6.0951      0.00000
     64       6.1911      0.00000
     65       6.5732      0.00000
     66       6.6373      0.00000
     67       7.6357      0.00000
     68       7.6764      0.00000
     69       8.8057      0.00000
     70       8.8502      0.00000
     71       9.1645      0.00000
     72       9.1907      0.00000
     73       9.3586      0.00000
     74       9.4985      0.00000
     75       9.7321      0.00000
     76       9.9160      0.00000
     77      10.2994      0.00000
     78      10.3647      0.00000
     79      10.6796      0.00000
     80      10.7620      0.00000

 k-point    59 :       0.2778    0.1111    0.1667
  band No.  band energies     occupation 
      1     -11.1710      2.00000
      2     -11.1709      2.00000
      3     -10.8705      2.00000
      4     -10.8704      2.00000
      5     -10.7405      2.00000
      6     -10.7404      2.00000
      7     -10.6598      2.00000
      8     -10.6598      2.00000
      9     -10.6078      2.00000
     10     -10.6077      2.00000
     11     -10.5600      2.00000
     12     -10.5599      2.00000
     13     -10.2700      2.00000
     14     -10.2699      2.00000
     15     -10.1672      2.00000
     16     -10.1672      2.00000
     17     -10.1256      2.00000
     18     -10.1255      2.00000
     19     -10.0886      2.00000
     20     -10.0885      2.00000
     21      -8.6795      2.00000
     22      -8.6708      2.00000
     23      -8.3457      2.00000
     24      -8.3275      2.00000
     25      -7.5042      2.00000
     26      -7.4832      2.00000
     27      -6.9492      2.00000
     28      -6.9379      2.00000
     29      -2.1230      2.00000
     30      -2.0961      2.00000
     31      -1.5317      2.00000
     32      -1.4911      2.00000
     33      -1.4147      2.00000
     34      -1.3954      2.00000
     35      -1.3883      2.00000
     36      -1.3660      2.00000
     37      -1.2086      2.00000
     38      -1.1883      2.00000
     39      -1.1121      2.00000
     40      -1.1099      2.00000
     41      -1.0599      2.00000
     42      -1.0206      2.00000
     43      -0.0560      2.00000
     44       0.0487      2.00000
     45       0.4258      2.00000
     46       0.5142      2.00000
     47       0.7167      2.00000
     48       0.7980      2.00000
     49       0.9516      2.00000
     50       1.0270      2.00000
     51       1.2315      2.00000
     52       1.4638      2.00000
     53       1.8206      2.00000
     54       2.0057      2.00000
     55       2.3594      2.00000
     56       2.5679      2.00000
     57       2.7159      2.00000
     58       2.8394      2.00000
     59       3.2506      2.00000
     60       3.2755      2.00000
     61       3.9396      2.00000
     62       4.0255      2.00000
     63       6.0369      0.00000
     64       6.1349      0.00000
     65       6.4450      0.00000
     66       6.5163      0.00000
     67       7.4527      0.00000
     68       7.5185      0.00000
     69       8.8508      0.00000
     70       8.9235      0.00000
     71       9.1790      0.00000
     72       9.2888      0.00000
     73       9.3885      0.00000
     74       9.5155      0.00000
     75       9.7331      0.00000
     76      10.0372      0.00000
     77      10.3096      0.00000
     78      10.5892      0.00000
     79      10.8088      0.00000
     80      10.8339      0.00000

 k-point    60 :       0.3333    0.1111    0.1667
  band No.  band energies     occupation 
      1     -11.1989      2.00000
      2     -11.1989      2.00000
      3     -10.8742      2.00000
      4     -10.8741      2.00000
      5     -10.7350      2.00000
      6     -10.7350      2.00000
      7     -10.6650      2.00000
      8     -10.6649      2.00000
      9     -10.6036      2.00000
     10     -10.6035      2.00000
     11     -10.5873      2.00000
     12     -10.5872      2.00000
     13     -10.2692      2.00000
     14     -10.2692      2.00000
     15     -10.1720      2.00000
     16     -10.1719      2.00000
     17     -10.1118      2.00000
     18     -10.1118      2.00000
     19     -10.0826      2.00000
     20     -10.0826      2.00000
     21      -8.4601      2.00000
     22      -8.4527      2.00000
     23      -8.1831      2.00000
     24      -8.1692      2.00000
     25      -7.4217      2.00000
     26      -7.4096      2.00000
     27      -6.8703      2.00000
     28      -6.8651      2.00000
     29      -2.2806      2.00000
     30      -2.2714      2.00000
     31      -1.7186      2.00000
     32      -1.6872      2.00000
     33      -1.4094      2.00000
     34      -1.3949      2.00000
     35      -1.3683      2.00000
     36      -1.3594      2.00000
     37      -1.2349      2.00000
     38      -1.2238      2.00000
     39      -1.1255      2.00000
     40      -1.1167      2.00000
     41      -1.0508      2.00000
     42      -1.0315      2.00000
     43      -0.1986      2.00000
     44      -0.1249      2.00000
     45       0.2456      2.00000
     46       0.3361      2.00000
     47       0.4557      2.00000
     48       0.5804      2.00000
     49       0.7883      2.00000
     50       0.8586      2.00000
     51       1.1825      2.00000
     52       1.3904      2.00000
     53       1.6413      2.00000
     54       1.8987      2.00000
     55       2.2697      2.00000
     56       2.4303      2.00000
     57       2.6950      2.00000
     58       2.8367      2.00000
     59       3.1084      2.00000
     60       3.1289      2.00000
     61       3.8899      2.00000
     62       3.9789      2.00000
     63       5.9287      0.00000
     64       6.0414      0.00000
     65       6.3414      0.00000
     66       6.4304      0.00000
     67       7.3237      0.00000
     68       7.4117      0.00000
     69       8.7941      0.00000
     70       8.9508      0.00000
     71       9.0512      0.00000
     72       9.2554      0.00000
     73       9.3747      0.00000
     74       9.4586      0.00000
     75       9.7419      0.00000
     76       9.9278      0.00000
     77      10.3575      0.00000
     78      10.6848      0.00000
     79      10.8179      0.00000
     80      10.9991      0.00000

 k-point    61 :       0.3889    0.1111    0.1667
  band No.  band energies     occupation 
      1     -11.2166      2.00000
      2     -11.2166      2.00000
      3     -10.8777      2.00000
      4     -10.8776      2.00000
      5     -10.7321      2.00000
      6     -10.7320      2.00000
      7     -10.6690      2.00000
      8     -10.6689      2.00000
      9     -10.6066      2.00000
     10     -10.6065      2.00000
     11     -10.5958      2.00000
     12     -10.5958      2.00000
     13     -10.2689      2.00000
     14     -10.2688      2.00000
     15     -10.1752      2.00000
     16     -10.1752      2.00000
     17     -10.1004      2.00000
     18     -10.1003      2.00000
     19     -10.0809      2.00000
     20     -10.0809      2.00000
     21      -8.2901      2.00000
     22      -8.2841      2.00000
     23      -8.0775      2.00000
     24      -8.0676      2.00000
     25      -7.3781      2.00000
     26      -7.3722      2.00000
     27      -6.8194      2.00000
     28      -6.8177      2.00000
     29      -2.4275      2.00000
     30      -2.4165      2.00000
     31      -1.8930      2.00000
     32      -1.8678      2.00000
     33      -1.3948      2.00000
     34      -1.3769      2.00000
     35      -1.3551      2.00000
     36      -1.3483      2.00000
     37      -1.2591      2.00000
     38      -1.2402      2.00000
     39      -1.1127      2.00000
     40      -1.1102      2.00000
     41      -0.9650      2.00000
     42      -0.9522      2.00000
     43      -0.3326      2.00000
     44      -0.2737      2.00000
     45       0.0304      2.00000
     46       0.1538      2.00000
     47       0.3821      2.00000
     48       0.4859      2.00000
     49       0.6995      2.00000
     50       0.7572      2.00000
     51       1.1711      2.00000
     52       1.3676      2.00000
     53       1.5684      2.00000
     54       1.7826      2.00000
     55       2.2216      2.00000
     56       2.3235      2.00000
     57       2.6928      2.00000
     58       2.8511      2.00000
     59       3.0236      2.00000
     60       3.0361      2.00000
     61       3.8459      2.00000
     62       3.9433      2.00000
     63       5.8433      0.00000
     64       5.9639      0.00000
     65       6.2752      0.00000
     66       6.3715      0.00000
     67       7.2497      0.00000
     68       7.3538      0.00000
     69       8.7456      0.00000
     70       8.8962      0.00000
     71       9.0168      0.00000
     72       9.1932      0.00000
     73       9.3330      0.00000
     74       9.4054      0.00000
     75       9.6642      0.00000
     76       9.8801      0.00000
     77      10.3776      0.00000
     78      10.6225      0.00000
     79      10.7723      0.00000
     80      10.9797      0.00000

 k-point    62 :       0.4444    0.1111    0.1667
  band No.  band energies     occupation 
      1     -11.2227      2.00000
      2     -11.2226      2.00000
      3     -10.8791      2.00000
      4     -10.8790      2.00000
      5     -10.7311      2.00000
      6     -10.7311      2.00000
      7     -10.6706      2.00000
      8     -10.6705      2.00000
      9     -10.6104      2.00000
     10     -10.6103      2.00000
     11     -10.5954      2.00000
     12     -10.5953      2.00000
     13     -10.2688      2.00000
     14     -10.2687      2.00000
     15     -10.1764      2.00000
     16     -10.1763      2.00000
     17     -10.0952      2.00000
     18     -10.0951      2.00000
     19     -10.0815      2.00000
     20     -10.0815      2.00000
     21      -8.2213      2.00000
     22      -8.2159      2.00000
     23      -8.0443      2.00000
     24      -8.0362      2.00000
     25      -7.3657      2.00000
     26      -7.3619      2.00000
     27      -6.8020      2.00000
     28      -6.8012      2.00000
     29      -2.4864      2.00000
     30      -2.4722      2.00000
     31      -1.9568      2.00000
     32      -1.9331      2.00000
     33      -1.3909      2.00000
     34      -1.3708      2.00000
     35      -1.3500      2.00000
     36      -1.3454      2.00000
     37      -1.2660      2.00000
     38      -1.2459      2.00000
     39      -1.1073      2.00000
     40      -1.1063      2.00000
     41      -0.8997      2.00000
     42      -0.8967      2.00000
     43      -0.4079      2.00000
     44      -0.3567      2.00000
     45      -0.0497      2.00000
     46       0.0768      2.00000
     47       0.3736      2.00000
     48       0.4594      2.00000
     49       0.6720      2.00000
     50       0.7213      2.00000
     51       1.1922      2.00000
     52       1.3332      2.00000
     53       1.5987      2.00000
     54       1.6980      2.00000
     55       2.2088      2.00000
     56       2.2805      2.00000
     57       2.6955      2.00000
     58       2.8599      2.00000
     59       2.9963      2.00000
     60       3.0024      2.00000
     61       3.8254      2.00000
     62       3.9326      2.00000
     63       5.8136      0.00000
     64       5.9328      0.00000
     65       6.2534      0.00000
     66       6.3493      0.00000
     67       7.2257      0.00000
     68       7.3359      0.00000
     69       8.7286      0.00000
     70       8.8571      0.00000
     71       9.0361      0.00000
     72       9.1549      0.00000
     73       9.3437      0.00000
     74       9.3508      0.00000
     75       9.6147      0.00000
     76       9.8860      0.00000
     77      10.3808      0.00000
     78      10.5837      0.00000
     79      10.7530      0.00000
     80      10.9683      0.00000

 k-point    63 :       0.1667    0.1667    0.1667
  band No.  band energies     occupation 
      1     -11.1303      2.00000
      2     -11.1302      2.00000
      3     -10.8667      2.00000
      4     -10.8666      2.00000
      5     -10.7506      2.00000
      6     -10.7505      2.00000
      7     -10.6521      2.00000
      8     -10.6521      2.00000
      9     -10.6146      2.00000
     10     -10.6146      2.00000
     11     -10.5072      2.00000
     12     -10.5071      2.00000
     13     -10.2845      2.00000
     14     -10.2844      2.00000
     15     -10.1519      2.00000
     16     -10.1518      2.00000
     17     -10.1504      2.00000
     18     -10.1504      2.00000
     19     -10.0984      2.00000
     20     -10.0983      2.00000
     21      -8.9318      2.00000
     22      -8.9222      2.00000
     23      -8.5471      2.00000
     24      -8.5251      2.00000
     25      -7.6347      2.00000
     26      -7.6039      2.00000
     27      -7.0558      2.00000
     28      -7.0367      2.00000
     29      -2.0054      2.00000
     30      -1.9538      2.00000
     31      -1.5171      2.00000
     32      -1.5038      2.00000
     33      -1.4278      2.00000
     34      -1.4274      2.00000
     35      -1.3089      2.00000
     36      -1.2539      2.00000
     37      -1.1940      2.00000
     38      -1.1373      2.00000
     39      -1.1164      2.00000
     40      -1.1136      2.00000
     41      -0.7487      2.00000
     42      -0.7438      2.00000
     43       0.2427      2.00000
     44       0.2458      2.00000
     45       0.6710      2.00000
     46       0.7156      2.00000
     47       0.9830      2.00000
     48       1.0104      2.00000
     49       1.1935      2.00000
     50       1.2011      2.00000
     51       1.3233      2.00000
     52       1.6465      2.00000
     53       2.2086      2.00000
     54       2.3814      2.00000
     55       2.4322      2.00000
     56       2.4514      2.00000
     57       2.8345      2.00000
     58       2.8488      2.00000
     59       3.3692      2.00000
     60       3.4104      2.00000
     61       4.0109      2.00000
     62       4.0667      2.00000
     63       6.1704      0.00000
     64       6.2634      0.00000
     65       6.6825      0.00000
     66       6.7363      0.00000
     67       7.8982      0.00000
     68       7.9123      0.00000
     69       8.6003      0.00000
     70       8.7853      0.00000
     71       9.1725      0.00000
     72       9.2012      0.00000
     73       9.4140      0.00000
     74       9.5214      0.00000
     75       9.7347      0.00000
     76       9.7862      0.00000
     77      10.3175      0.00000
     78      10.4126      0.00000
     79      10.7243      0.00000
     80      10.8219      0.00000

 k-point    64 :       0.2222    0.1667    0.1667
  band No.  band energies     occupation 
      1     -11.1630      2.00000
      2     -11.1630      2.00000
      3     -10.8684      2.00000
      4     -10.8684      2.00000
      5     -10.7440      2.00000
      6     -10.7440      2.00000
      7     -10.6552      2.00000
      8     -10.6552      2.00000
      9     -10.6126      2.00000
     10     -10.6125      2.00000
     11     -10.5408      2.00000
     12     -10.5407      2.00000
     13     -10.2949      2.00000
     14     -10.2948      2.00000
     15     -10.1555      2.00000
     16     -10.1554      2.00000
     17     -10.1387      2.00000
     18     -10.1386      2.00000
     19     -10.0895      2.00000
     20     -10.0894      2.00000
     21      -8.7066      2.00000
     22      -8.6979      2.00000
     23      -8.3640      2.00000
     24      -8.3450      2.00000
     25      -7.5256      2.00000
     26      -7.5032      2.00000
     27      -6.9627      2.00000
     28      -6.9504      2.00000
     29      -2.0761      2.00000
     30      -2.0435      2.00000
     31      -1.5029      2.00000
     32      -1.4783      2.00000
     33      -1.4056      2.00000
     34      -1.3950      2.00000
     35      -1.3619      2.00000
     36      -1.3413      2.00000
     37      -1.2054      2.00000
     38      -1.1689      2.00000
     39      -1.1078      2.00000
     40      -1.1058      2.00000
     41      -1.0046      2.00000
     42      -0.9862      2.00000
     43       0.0451      2.00000
     44       0.1012      2.00000
     45       0.4229      2.00000
     46       0.4999      2.00000
     47       0.6907      2.00000
     48       0.7463      2.00000
     49       0.9173      2.00000
     50       0.9810      2.00000
     51       1.1598      2.00000
     52       1.4962      2.00000
     53       1.9692      2.00000
     54       2.1651      2.00000
     55       2.2601      2.00000
     56       2.4042      2.00000
     57       2.7029      2.00000
     58       2.8030      2.00000
     59       3.0868      2.00000
     60       3.1486      2.00000
     61       3.9705      2.00000
     62       4.0615      2.00000
     63       6.2313      0.00000
     64       6.3078      0.00000
     65       6.6104      0.00000
     66       6.6551      0.00000
     67       7.8350      0.00000
     68       7.8535      0.00000
     69       8.7256      0.00000
     70       8.8411      0.00000
     71       9.3243      0.00000
     72       9.3811      0.00000
     73       9.5532      0.00000
     74       9.6997      0.00000
     75       9.7929      0.00000
     76       9.9447      0.00000
     77      10.3686      0.00000
     78      10.4651      0.00000
     79      10.7497      0.00000
     80      10.8223      0.00000

 k-point    65 :       0.2778    0.1667    0.1667
  band No.  band energies     occupation 
      1     -11.1907      2.00000
      2     -11.1907      2.00000
      3     -10.8699      2.00000
      4     -10.8698      2.00000
      5     -10.7397      2.00000
      6     -10.7396      2.00000
      7     -10.6578      2.00000
      8     -10.6578      2.00000
      9     -10.6101      2.00000
     10     -10.6100      2.00000
     11     -10.5675      2.00000
     12     -10.5674      2.00000
     13     -10.3025      2.00000
     14     -10.3024      2.00000
     15     -10.1601      2.00000
     16     -10.1600      2.00000
     17     -10.1254      2.00000
     18     -10.1253      2.00000
     19     -10.0845      2.00000
     20     -10.0844      2.00000
     21      -8.4802      2.00000
     22      -8.4727      2.00000
     23      -8.1897      2.00000
     24      -8.1748      2.00000
     25      -7.4442      2.00000
     26      -7.4306      2.00000
     27      -6.8807      2.00000
     28      -6.8748      2.00000
     29      -2.1960      2.00000
     30      -2.1834      2.00000
     31      -1.6235      2.00000
     32      -1.5957      2.00000
     33      -1.4056      2.00000
     34      -1.3956      2.00000
     35      -1.3687      2.00000
     36      -1.3581      2.00000
     37      -1.2129      2.00000
     38      -1.1997      2.00000
     39      -1.1348      2.00000
     40      -1.1246      2.00000
     41      -1.0527      2.00000
     42      -1.0411      2.00000
     43      -0.1033      2.00000
     44      -0.0390      2.00000
     45       0.2585      2.00000
     46       0.2979      2.00000
     47       0.4289      2.00000
     48       0.4960      2.00000
     49       0.6653      2.00000
     50       0.7914      2.00000
     51       1.1252      2.00000
     52       1.3697      2.00000
     53       1.7266      2.00000
     54       1.9854      2.00000
     55       2.1321      2.00000
     56       2.3189      2.00000
     57       2.6079      2.00000
     58       2.8097      2.00000
     59       2.8904      2.00000
     60       2.9557      2.00000
     61       3.9295      2.00000
     62       4.0190      2.00000
     63       6.2123      0.00000
     64       6.2770      0.00000
     65       6.5280      0.00000
     66       6.5852      0.00000
     67       7.7246      0.00000
     68       7.7571      0.00000
     69       8.7859      0.00000
     70       8.8548      0.00000
     71       9.3164      0.00000
     72       9.4448      0.00000
     73       9.5862      0.00000
     74       9.7729      0.00000
     75       9.8669      0.00000
     76      10.0706      0.00000
     77      10.4214      0.00000
     78      10.6445      0.00000
     79      10.8412      0.00000
     80      10.9094      0.00000

 k-point    66 :       0.3333    0.1667    0.1667
  band No.  band energies     occupation 
      1     -11.2105      2.00000
      2     -11.2105      2.00000
      3     -10.8715      2.00000
      4     -10.8714      2.00000
      5     -10.7372      2.00000
      6     -10.7371      2.00000
      7     -10.6602      2.00000
      8     -10.6602      2.00000
      9     -10.6072      2.00000
     10     -10.6072      2.00000
     11     -10.5855      2.00000
     12     -10.5854      2.00000
     13     -10.3075      2.00000
     14     -10.3074      2.00000
     15     -10.1636      2.00000
     16     -10.1635      2.00000
     17     -10.1119      2.00000
     18     -10.1119      2.00000
     19     -10.0844      2.00000
     20     -10.0844      2.00000
     21      -8.2809      2.00000
     22      -8.2747      2.00000
     23      -8.0560      2.00000
     24      -8.0454      2.00000
     25      -7.3997      2.00000
     26      -7.3930      2.00000
     27      -6.8205      2.00000
     28      -6.8187      2.00000
     29      -2.3311      2.00000
     30      -2.3239      2.00000
     31      -1.8145      2.00000
     32      -1.7901      2.00000
     33      -1.3857      2.00000
     34      -1.3791      2.00000
     35      -1.3555      2.00000
     36      -1.3454      2.00000
     37      -1.2327      2.00000
     38      -1.2243      2.00000
     39      -1.1328      2.00000
     40      -1.1279      2.00000
     41      -0.9825      2.00000
     42      -0.9721      2.00000
     43      -0.2257      2.00000
     44      -0.1689      2.00000
     45       0.0818      2.00000
     46       0.1550      2.00000
     47       0.2246      2.00000
     48       0.2913      2.00000
     49       0.5202      2.00000
     50       0.6861      2.00000
     51       1.0923      2.00000
     52       1.3611      2.00000
     53       1.5526      2.00000
     54       1.8366      2.00000
     55       2.0305      2.00000
     56       2.1923      2.00000
     57       2.5874      2.00000
     58       2.7408      2.00000
     59       2.8181      2.00000
     60       2.8758      2.00000
     61       3.8922      2.00000
     62       3.9681      2.00000
     63       6.1373      0.00000
     64       6.2182      0.00000
     65       6.4786      0.00000
     66       6.5468      0.00000
     67       7.6345      0.00000
     68       7.6750      0.00000
     69       8.7216      0.00000
     70       8.9056      0.00000
     71       9.3035      0.00000
     72       9.4112      0.00000
     73       9.5602      0.00000
     74       9.7116      0.00000
     75       9.9099      0.00000
     76      10.0134      0.00000
     77      10.5065      0.00000
     78      10.6898      0.00000
     79      10.8041      0.00000
     80      11.0402      0.00000

 k-point    67 :       0.3889    0.1667    0.1667
  band No.  band energies     occupation 
      1     -11.2208      2.00000
      2     -11.2208      2.00000
      3     -10.8726      2.00000
      4     -10.8726      2.00000
      5     -10.7361      2.00000
      6     -10.7360      2.00000
      7     -10.6618      2.00000
      8     -10.6618      2.00000
      9     -10.6044      2.00000
     10     -10.6043      2.00000
     11     -10.5953      2.00000
     12     -10.5952      2.00000
     13     -10.3100      2.00000
     14     -10.3099      2.00000
     15     -10.1655      2.00000
     16     -10.1654      2.00000
     17     -10.1001      2.00000
     18     -10.1001      2.00000
     19     -10.0891      2.00000
     20     -10.0890      2.00000
     21      -8.1520      2.00000
     22      -8.1469      2.00000
     23      -7.9905      2.00000
     24      -7.9829      2.00000
     25      -7.3852      2.00000
     26      -7.3821      2.00000
     27      -6.7892      2.00000
     28      -6.7887      2.00000
     29      -2.4221      2.00000
     30      -2.4091      2.00000
     31      -1.9289      2.00000
     32      -1.9062      2.00000
     33      -1.3781      2.00000
     34      -1.3690      2.00000
     35      -1.3486      2.00000
     36      -1.3404      2.00000
     37      -1.2462      2.00000
     38      -1.2333      2.00000
     39      -1.1218      2.00000
     40      -1.1202      2.00000
     41      -0.8895      2.00000
     42      -0.8828      2.00000
     43      -0.3421      2.00000
     44      -0.2884      2.00000
     45      -0.0118      2.00000
     46       0.0461      2.00000
     47       0.1429      2.00000
     48       0.1835      2.00000
     49       0.4586      2.00000
     50       0.6206      2.00000
     51       1.1235      2.00000
     52       1.3095      2.00000
     53       1.5723      2.00000
     54       1.7002      2.00000
     55       1.9662      2.00000
     56       2.1034      2.00000
     57       2.5936      2.00000
     58       2.6827      2.00000
     59       2.7535      2.00000
     60       2.8990      2.00000
     61       3.8609      2.00000
     62       3.9418      2.00000
     63       6.0883      0.00000
     64       6.1645      0.00000
     65       6.4659      0.00000
     66       6.5248      0.00000
     67       7.5863      0.00000
     68       7.6294      0.00000
     69       8.6808      0.00000
     70       8.9278      0.00000
     71       9.2963      0.00000
     72       9.4200      0.00000
     73       9.5152      0.00000
     74       9.6083      0.00000
     75       9.9120      0.00000
     76       9.9743      0.00000
     77      10.5551      0.00000
     78      10.6184      0.00000
     79      10.7759      0.00000
     80      10.9901      0.00000

 k-point    68 :       0.2222    0.2222    0.1667
  band No.  band energies     occupation 
      1     -11.1875      2.00000
      2     -11.1874      2.00000
      3     -10.8684      2.00000
      4     -10.8683      2.00000
      5     -10.7415      2.00000
      6     -10.7415      2.00000
      7     -10.6546      2.00000
      8     -10.6546      2.00000
      9     -10.6133      2.00000
     10     -10.6132      2.00000
     11     -10.5573      2.00000
     12     -10.5572      2.00000
     13     -10.3181      2.00000
     14     -10.3180      2.00000
     15     -10.1511      2.00000
     16     -10.1511      2.00000
     17     -10.1349      2.00000
     18     -10.1349      2.00000
     19     -10.0849      2.00000
     20     -10.0849      2.00000
     21      -8.4867      2.00000
     22      -8.4792      2.00000
     23      -8.1909      2.00000
     24      -8.1757      2.00000
     25      -7.4529      2.00000
     26      -7.4388      2.00000
     27      -6.8843      2.00000
     28      -6.8782      2.00000
     29      -2.1634      2.00000
     30      -2.1489      2.00000
     31      -1.5827      2.00000
     32      -1.5631      2.00000
     33      -1.4047      2.00000
     34      -1.3908      2.00000
     35      -1.3677      2.00000
     36      -1.3595      2.00000
     37      -1.2090      2.00000
     38      -1.1819      2.00000
     39      -1.1302      2.00000
     40      -1.1271      2.00000
     41      -1.0513      2.00000
     42      -1.0469      2.00000
     43      -0.0477      2.00000
     44      -0.0237      2.00000
     45       0.2322      2.00000
     46       0.2899      2.00000
     47       0.3778      2.00000
     48       0.4176      2.00000
     49       0.7192      2.00000
     50       0.7395      2.00000
     51       1.1397      2.00000
     52       1.3545      2.00000
     53       1.7828      2.00000
     54       1.9814      2.00000
     55       2.1459      2.00000
     56       2.1925      2.00000
     57       2.5932      2.00000
     58       2.7457      2.00000
     59       2.8393      2.00000
     60       2.8903      2.00000
     61       3.9436      2.00000
     62       4.0338      2.00000
     63       6.3519      0.00000
     64       6.3576      0.00000
     65       6.6135      0.00000
     66       6.6271      0.00000
     67       7.9503      0.00000
     68       7.9654      0.00000
     69       8.7094      0.00000
     70       8.7206      0.00000
     71       9.4206      0.00000
     72       9.5371      0.00000
     73       9.6876      0.00000
     74       9.8361      0.00000
     75      10.1388      0.00000
     76      10.2066      0.00000
     77      10.4312      0.00000
     78      10.4638      0.00000
     79      10.8942      0.00000
     80      11.0065      0.00000

 k-point    69 :       0.2778    0.2222    0.1667
  band No.  band energies     occupation 
      1     -11.2064      2.00000
      2     -11.2064      2.00000
      3     -10.8677      2.00000
      4     -10.8677      2.00000
      5     -10.7404      2.00000
      6     -10.7404      2.00000
      7     -10.6534      2.00000
      8     -10.6534      2.00000
      9     -10.6136      2.00000
     10     -10.6135      2.00000
     11     -10.5697      2.00000
     12     -10.5696      2.00000
     13     -10.3370      2.00000
     14     -10.3369      2.00000
     15     -10.1510      2.00000
     16     -10.1509      2.00000
     17     -10.1253      2.00000
     18     -10.1252      2.00000
     19     -10.0855      2.00000
     20     -10.0855      2.00000
     21      -8.2761      2.00000
     22      -8.2701      2.00000
     23      -8.0398      2.00000
     24      -8.0289      2.00000
     25      -7.4147      2.00000
     26      -7.4076      2.00000
     27      -6.8213      2.00000
     28      -6.8194      2.00000
     29      -2.2622      2.00000
     30      -2.2597      2.00000
     31      -1.7529      2.00000
     32      -1.7327      2.00000
     33      -1.3811      2.00000
     34      -1.3783      2.00000
     35      -1.3532      2.00000
     36      -1.3477      2.00000
     37      -1.2125      2.00000
     38      -1.2004      2.00000
     39      -1.1485      2.00000
     40      -1.1462      2.00000
     41      -0.9904      2.00000
     42      -0.9850      2.00000
     43      -0.1433      2.00000
     44      -0.1044      2.00000
     45       0.0363      2.00000
     46       0.0725      2.00000
     47       0.1261      2.00000
     48       0.1586      2.00000
     49       0.5405      2.00000
     50       0.6602      2.00000
     51       1.1308      2.00000
     52       1.2854      2.00000
     53       1.5558      2.00000
     54       1.7921      2.00000
     55       1.9942      2.00000
     56       2.0562      2.00000
     57       2.5016      2.00000
     58       2.5440      2.00000
     59       2.7385      2.00000
     60       2.8784      2.00000
     61       3.9184      2.00000
     62       3.9814      2.00000
     63       6.3374      0.00000
     64       6.3910      0.00000
     65       6.5839      0.00000
     66       6.6373      0.00000
     67       7.9418      0.00000
     68       7.9602      0.00000
     69       8.6077      0.00000
     70       8.7817      0.00000
     71       9.4524      0.00000
     72       9.6216      0.00000
     73       9.8138      0.00000
     74       9.9054      0.00000
     75      10.2575      0.00000
     76      10.3645      0.00000
     77      10.5432      0.00000
     78      10.7926      0.00000
     79      10.9206      0.00000
     80      10.9850      0.00000

 k-point    70 :       0.3333    0.2222    0.1667
  band No.  band energies     occupation 
      1     -11.2183      2.00000
      2     -11.2183      2.00000
      3     -10.8671      2.00000
      4     -10.8671      2.00000
      5     -10.7402      2.00000
      6     -10.7401      2.00000
      7     -10.6525      2.00000
      8     -10.6524      2.00000
      9     -10.6130      2.00000
     10     -10.6130      2.00000
     11     -10.5779      2.00000
     12     -10.5778      2.00000
     13     -10.3492      2.00000
     14     -10.3491      2.00000
     15     -10.1520      2.00000
     16     -10.1519      2.00000
     17     -10.1130      2.00000
     18     -10.1129      2.00000
     19     -10.0911      2.00000
     20     -10.0910      2.00000
     21      -8.1088      2.00000
     22      -8.1043      2.00000
     23      -7.9404      2.00000
     24      -7.9336      2.00000
     25      -7.4090      2.00000
     26      -7.4061      2.00000
     27      -6.7810      2.00000
     28      -6.7807      2.00000
     29      -2.3473      2.00000
     30      -2.3377      2.00000
     31      -1.8887      2.00000
     32      -1.8689      2.00000
     33      -1.3690      2.00000
     34      -1.3668      2.00000
     35      -1.3481      2.00000
     36      -1.3424      2.00000
     37      -1.2198      2.00000
     38      -1.2164      2.00000
     39      -1.1388      2.00000
     40      -1.1372      2.00000
     41      -0.8930      2.00000
     42      -0.8870      2.00000
     43      -0.2485      2.00000
     44      -0.1966      2.00000
     45      -0.1003      2.00000
     46      -0.0838      2.00000
     47      -0.0276      2.00000
     48       0.0005      2.00000
     49       0.4155      2.00000
     50       0.6366      2.00000
     51       1.0997      2.00000
     52       1.2732      2.00000
     53       1.4452      2.00000
     54       1.6812      2.00000
     55       1.8388      2.00000
     56       1.9361      2.00000
     57       2.4228      2.00000
     58       2.4442      2.00000
     59       2.6858      2.00000
     60       2.9248      2.00000
     61       3.8919      2.00000
     62       3.9389      2.00000
     63       6.2975      0.00000
     64       6.3421      0.00000
     65       6.6124      0.00000
     66       6.6455      0.00000
     67       7.8983      0.00000
     68       7.9113      0.00000
     69       8.5540      0.00000
     70       8.8306      0.00000
     71       9.4763      0.00000
     72       9.6646      0.00000
     73       9.8182      0.00000
     74       9.9020      0.00000
     75      10.2410      0.00000
     76      10.3727      0.00000
     77      10.6149      0.00000
     78      10.8272      0.00000
     79      11.0226      0.00000
     80      11.2529      0.00000

 k-point    71 :       0.3889    0.2222    0.1667
  band No.  band energies     occupation 
      1     -11.2224      2.00000
      2     -11.2224      2.00000
      3     -10.8669      2.00000
      4     -10.8668      2.00000
      5     -10.7402      2.00000
      6     -10.7401      2.00000
      7     -10.6522      2.00000
      8     -10.6521      2.00000
      9     -10.6125      2.00000
     10     -10.6124      2.00000
     11     -10.5809      2.00000
     12     -10.5808      2.00000
     13     -10.3534      2.00000
     14     -10.3533      2.00000
     15     -10.1524      2.00000
     16     -10.1524      2.00000
     17     -10.1025      2.00000
     18     -10.1024      2.00000
     19     -10.0992      2.00000
     20     -10.0991      2.00000
     21      -8.0385      2.00000
     22      -8.0349      2.00000
     23      -7.9095      2.00000
     24      -7.9046      2.00000
     25      -7.4129      2.00000
     26      -7.4115      2.00000
     27      -6.7672      2.00000
     28      -6.7672      2.00000
     29      -2.3795      2.00000
     30      -2.3672      2.00000
     31      -1.9387      2.00000
     32      -1.9200      2.00000
     33      -1.3662      2.00000
     34      -1.3644      2.00000
     35      -1.3457      2.00000
     36      -1.3408      2.00000
     37      -1.2244      2.00000
     38      -1.2203      2.00000
     39      -1.1323      2.00000
     40      -1.1322      2.00000
     41      -0.8326      2.00000
     42      -0.8278      2.00000
     43      -0.3262      2.00000
     44      -0.2742      2.00000
     45      -0.1316      2.00000
     46      -0.1229      2.00000
     47      -0.0735      2.00000
     48      -0.0480      2.00000
     49       0.3713      2.00000
     50       0.6204      2.00000
     51       1.1374      2.00000
     52       1.1794      2.00000
     53       1.4841      2.00000
     54       1.6483      2.00000
     55       1.7549      2.00000
     56       1.8902      2.00000
     57       2.3938      2.00000
     58       2.4041      2.00000
     59       2.6822      2.00000
     60       2.9433      2.00000
     61       3.8751      2.00000
     62       3.9275      2.00000
     63       6.2801      0.00000
     64       6.3141      0.00000
     65       6.6285      0.00000
     66       6.6485      0.00000
     67       7.8810      0.00000
     68       7.8844      0.00000
     69       8.5397      0.00000
     70       8.8480      0.00000
     71       9.4875      0.00000
     72       9.6919      0.00000
     73       9.7705      0.00000
     74       9.9017      0.00000
     75      10.2248      0.00000
     76      10.3686      0.00000
     77      10.6072      0.00000
     78      10.8407      0.00000
     79      11.0469      0.00000
     80      11.1990      0.00000

 k-point    72 :       0.2778    0.2778    0.1667
  band No.  band energies     occupation 
      1     -11.2173      2.00000
      2     -11.2172      2.00000
      3     -10.8650      2.00000
      4     -10.8649      2.00000
      5     -10.7418      2.00000
      6     -10.7417      2.00000
      7     -10.6476      2.00000
      8     -10.6476      2.00000
      9     -10.6178      2.00000
     10     -10.6178      2.00000
     11     -10.5685      2.00000
     12     -10.5685      2.00000
     13     -10.3666      2.00000
     14     -10.3665      2.00000
     15     -10.1424      2.00000
     16     -10.1424      2.00000
     17     -10.1227      2.00000
     18     -10.1226      2.00000
     19     -10.0914      2.00000
     20     -10.0914      2.00000
     21      -8.0948      2.00000
     22      -8.0907      2.00000
     23      -7.9185      2.00000
     24      -7.9121      2.00000
     25      -7.4202      2.00000
     26      -7.4175      2.00000
     27      -6.7782      2.00000
     28      -6.7780      2.00000
     29      -2.3127      2.00000
     30      -2.3060      2.00000
     31      -1.8686      2.00000
     32      -1.8511      2.00000
     33      -1.3656      2.00000
     34      -1.3650      2.00000
     35      -1.3479      2.00000
     36      -1.3464      2.00000
     37      -1.2088      2.00000
     38      -1.1998      2.00000
     39      -1.1491      2.00000
     40      -1.1485      2.00000
     41      -0.8966      2.00000
     42      -0.8910      2.00000
     43      -0.2033      2.00000
     44      -0.1702      2.00000
     45      -0.1600      2.00000
     46      -0.1214      2.00000
     47      -0.1003      2.00000
     48      -0.0901      2.00000
     49       0.4657      2.00000
     50       0.6512      2.00000
     51       1.1385      2.00000
     52       1.1981      2.00000
     53       1.3747      2.00000
     54       1.6424      2.00000
     55       1.8170      2.00000
     56       1.8907      2.00000
     57       2.3276      2.00000
     58       2.3640      2.00000
     59       2.6821      2.00000
     60       2.9341      2.00000
     61       3.9081      2.00000
     62       3.9322      2.00000
     63       6.3699      0.00000
     64       6.4048      0.00000
     65       6.6656      0.00000
     66       6.6950      0.00000
     67       8.0059      0.00000
     68       8.0249      0.00000
     69       8.5038      0.00000
     70       8.8048      0.00000
     71       9.5948      0.00000
     72       9.6941      0.00000
     73       9.9307      0.00000
     74      10.0311      0.00000
     75      10.5031      0.00000
     76      10.6695      0.00000
     77      10.7284      0.00000
     78      10.8951      0.00000
     79      11.0911      0.00000
     80      11.2847      0.00000

 k-point    73 :       0.3333    0.2778    0.1667
  band No.  band energies     occupation 
      1     -11.2228      2.00000
      2     -11.2228      2.00000
      3     -10.8631      2.00000
      4     -10.8630      2.00000
      5     -10.7427      2.00000
      6     -10.7427      2.00000
      7     -10.6428      2.00000
      8     -10.6428      2.00000
      9     -10.6217      2.00000
     10     -10.6216      2.00000
     11     -10.5665      2.00000
     12     -10.5664      2.00000
     13     -10.3841      2.00000
     14     -10.3840      2.00000
     15     -10.1384      2.00000
     16     -10.1383      2.00000
     17     -10.1157      2.00000
     18     -10.1157      2.00000
     19     -10.0998      2.00000
     20     -10.0998      2.00000
     21      -7.9790      2.00000
     22      -7.9771      2.00000
     23      -7.8478      2.00000
     24      -7.8454      2.00000
     25      -7.4431      2.00000
     26      -7.4426      2.00000
     27      -6.7558      2.00000
     28      -6.7557      2.00000
     29      -2.3355      2.00000
     30      -2.3275      2.00000
     31      -1.9360      2.00000
     32      -1.9233      2.00000
     33      -1.3609      2.00000
     34      -1.3599      2.00000
     35      -1.3475      2.00000
     36      -1.3465      2.00000
     37      -1.2067      2.00000
     38      -1.2035      2.00000
     39      -1.1428      2.00000
     40      -1.1422      2.00000
     41      -0.8072      2.00000
     42      -0.8037      2.00000
     43      -0.3121      2.00000
     44      -0.3071      2.00000
     45      -0.2980      2.00000
     46      -0.2263      2.00000
     47      -0.1499      2.00000
     48      -0.1368      2.00000
     49       0.4263      2.00000
     50       0.6973      2.00000
     51       1.0516      2.00000
     52       1.0996      2.00000
     53       1.3679      2.00000
     54       1.5814      2.00000
     55       1.6439      2.00000
     56       1.8568      2.00000
     57       2.2269      2.00000
     58       2.2526      2.00000
     59       2.6880      2.00000
     60       2.9698      2.00000
     61       3.8904      2.00000
     62       3.9084      2.00000
     63       6.3652      0.00000
     64       6.3777      0.00000
     65       6.7285      0.00000
     66       6.7359      0.00000
     67       8.0010      0.00000
     68       8.0107      0.00000
     69       8.4693      0.00000
     70       8.8365      0.00000
     71       9.6495      0.00000
     72       9.7697      0.00000
     73       9.9240      0.00000
     74      10.1347      0.00000
     75      10.5471      0.00000
     76      10.6320      0.00000
     77      10.9004      0.00000
     78      11.0440      0.00000
     79      11.3722      0.00000
     80      11.5052      0.00000

 k-point    74 :       0.3333    0.3333    0.1667
  band No.  band energies     occupation 
      1     -11.2242      2.00000
      2     -11.2242      2.00000
      3     -10.8614      2.00000
      4     -10.8614      2.00000
      5     -10.7437      2.00000
      6     -10.7437      2.00000
      7     -10.6332      2.00000
      8     -10.6331      2.00000
      9     -10.6311      2.00000
     10     -10.6310      2.00000
     11     -10.5604      2.00000
     12     -10.5603      2.00000
     13     -10.3985      2.00000
     14     -10.3985      2.00000
     15     -10.1273      2.00000
     16     -10.1272      2.00000
     17     -10.1220      2.00000
     18     -10.1220      2.00000
     19     -10.1040      2.00000
     20     -10.1039      2.00000
     21      -7.9316      2.00000
     22      -7.9314      2.00000
     23      -7.8046      2.00000
     24      -7.8045      2.00000
     25      -7.4670      2.00000
     26      -7.4666      2.00000
     27      -6.7471      2.00000
     28      -6.7471      2.00000
     29      -2.3220      2.00000
     30      -2.3219      2.00000
     31      -1.9485      2.00000
     32      -1.9484      2.00000
     33      -1.3591      2.00000
     34      -1.3574      2.00000
     35      -1.3490      2.00000
     36      -1.3490      2.00000
     37      -1.1994      2.00000
     38      -1.1994      2.00000
     39      -1.1436      2.00000
     40      -1.1435      2.00000
     41      -0.7678      2.00000
     42      -0.7678      2.00000
     43      -0.3926      2.00000
     44      -0.3926      2.00000
     45      -0.3381      2.00000
     46      -0.2618      2.00000
     47      -0.1689      2.00000
     48      -0.1689      2.00000
     49       0.4601      2.00000
     50       0.7872      2.00000
     51       0.9705      2.00000
     52       0.9706      2.00000
     53       1.3989      2.00000
     54       1.5285      2.00000
     55       1.5286      2.00000
     56       1.8920      2.00000
     57       2.1590      2.00000
     58       2.1590      2.00000
     59       2.6972      2.00000
     60       2.9867      2.00000
     61       3.8925      2.00000
     62       3.8925      2.00000
     63       6.3793      0.00000
     64       6.3794      0.00000
     65       6.7749      0.00000
     66       6.7749      0.00000
     67       8.0208      0.00000
     68       8.0209      0.00000
     69       8.4452      0.00000
     70       8.8475      0.00000
     71       9.7197      0.00000
     72       9.8816      0.00000
     73       9.8816      0.00000
     74      10.2260      0.00000
     75      10.6876      0.00000
     76      10.6876      0.00000
     77      11.1340      0.00000
     78      11.1396      0.00000
     79      11.5701      0.00000
     80      11.7209      0.00000

 k-point    75 :       0.0000    0.0000    0.3333
  band No.  band energies     occupation 
      1     -11.0011      2.00000
      2     -11.0011      2.00000
      3     -10.7989      2.00000
      4     -10.7989      2.00000
      5     -10.7989      2.00000
      6     -10.7989      2.00000
      7     -10.6208      2.00000
      8     -10.6208      2.00000
      9     -10.6208      2.00000
     10     -10.6207      2.00000
     11     -10.2755      2.00000
     12     -10.2755      2.00000
     13     -10.2754      2.00000
     14     -10.2754      2.00000
     15     -10.2564      2.00000
     16     -10.2563      2.00000
     17     -10.1235      2.00000
     18     -10.1235      2.00000
     19     -10.1234      2.00000
     20     -10.1234      2.00000
     21      -9.7281      2.00000
     22      -9.7237      2.00000
     23      -9.1459      2.00000
     24      -9.1312      2.00000
     25      -8.1775      2.00000
     26      -8.1507      2.00000
     27      -7.4247      2.00000
     28      -7.4057      2.00000
     29      -2.0675      2.00000
     30      -2.0446      2.00000
     31      -1.5674      2.00000
     32      -1.5674      2.00000
     33      -1.5674      2.00000
     34      -1.5674      2.00000
     35      -1.2929      2.00000
     36      -1.1630      2.00000
     37      -1.1224      2.00000
     38      -1.1224      2.00000
     39      -1.1224      2.00000
     40      -1.1224      2.00000
     41       0.0038      2.00000
     42       0.2788      2.00000
     43       1.5940      2.00000
     44       1.9510      2.00000
     45       2.0642      2.00000
     46       2.0642      2.00000
     47       2.0651      2.00000
     48       2.0651      2.00000
     49       2.7019      2.00000
     50       2.7019      2.00000
     51       2.7067      2.00000
     52       2.7067      2.00000
     53       2.9840      2.00000
     54       2.9840      2.00000
     55       2.9883      2.00000
     56       2.9883      2.00000
     57       3.3183      2.00000
     58       3.6888      2.00000
     59       4.5044      2.00000
     60       4.5044      2.00000
     61       4.5047      2.00000
     62       4.5047      2.00000
     63       4.9815      0.00000
     64       5.3121      0.00000
     65       6.1744      0.00000
     66       6.3040      0.00000
     67       7.2068      0.00000
     68       7.2346      0.00000
     69       7.7415      0.00000
     70       7.8280      0.00000
     71       8.9849      0.00000
     72       8.9850      0.00000
     73       8.9959      0.00000
     74       8.9959      0.00000
     75       9.0310      0.00000
     76       9.0589      0.00000
     77       9.5908      0.00000
     78       9.5908      0.00000
     79       9.6109      0.00000
     80       9.6109      0.00000

 k-point    76 :       0.0556    0.0000    0.3333
  band No.  band energies     occupation 
      1     -11.0046      2.00000
      2     -11.0046      2.00000
      3     -10.8082      2.00000
      4     -10.8081      2.00000
      5     -10.7960      2.00000
      6     -10.7960      2.00000
      7     -10.6237      2.00000
      8     -10.6237      2.00000
      9     -10.6206      2.00000
     10     -10.6206      2.00000
     11     -10.2957      2.00000
     12     -10.2956      2.00000
     13     -10.2730      2.00000
     14     -10.2730      2.00000
     15     -10.2446      2.00000
     16     -10.2445      2.00000
     17     -10.1263      2.00000
     18     -10.1262      2.00000
     19     -10.1230      2.00000
     20     -10.1230      2.00000
     21      -9.6899      2.00000
     22      -9.6853      2.00000
     23      -9.1221      2.00000
     24      -9.1074      2.00000
     25      -8.1482      2.00000
     26      -8.1216      2.00000
     27      -7.4075      2.00000
     28      -7.3886      2.00000
     29      -2.0569      2.00000
     30      -2.0324      2.00000
     31      -1.5674      2.00000
     32      -1.5673      2.00000
     33      -1.5608      2.00000
     34      -1.5608      2.00000
     35      -1.2894      2.00000
     36      -1.1635      2.00000
     37      -1.1258      2.00000
     38      -1.1226      2.00000
     39      -1.1225      2.00000
     40      -1.1224      2.00000
     41       0.0019      2.00000
     42       0.2616      2.00000
     43       1.5608      2.00000
     44       1.8021      2.00000
     45       1.9123      2.00000
     46       1.9957      2.00000
     47       2.0237      2.00000
     48       2.0251      2.00000
     49       2.4770      2.00000
     50       2.5020      2.00000
     51       2.6177      2.00000
     52       2.6231      2.00000
     53       2.8887      2.00000
     54       2.8991      2.00000
     55       3.0202      2.00000
     56       3.0249      2.00000
     57       3.4731      2.00000
     58       3.7561      2.00000
     59       4.2904      2.00000
     60       4.3182      2.00000
     61       4.4601      2.00000
     62       4.4607      2.00000
     63       5.1537      0.00000
     64       5.4221      0.00000
     65       6.2764      0.00000
     66       6.4023      0.00000
     67       7.3637      0.00000
     68       7.3912      0.00000
     69       7.8855      0.00000
     70       7.9606      0.00000
     71       8.7446      0.00000
     72       8.7566      0.00000
     73       9.0384      0.00000
     74       9.0499      0.00000
     75       9.1409      0.00000
     76       9.1455      0.00000
     77       9.5848      0.00000
     78       9.6144      0.00000
     79       9.6682      0.00000
     80       9.6893      0.00000

 k-point    77 :       0.1111    0.0000    0.3333
  band No.  band energies     occupation 
      1     -11.0175      2.00000
      2     -11.0175      2.00000
      3     -10.8294      2.00000
      4     -10.8293      2.00000
      5     -10.7878      2.00000
      6     -10.7878      2.00000
      7     -10.6308      2.00000
      8     -10.6307      2.00000
      9     -10.6199      2.00000
     10     -10.6198      2.00000
     11     -10.3398      2.00000
     12     -10.3397      2.00000
     13     -10.2662      2.00000
     14     -10.2662      2.00000
     15     -10.2248      2.00000
     16     -10.2247      2.00000
     17     -10.1327      2.00000
     18     -10.1326      2.00000
     19     -10.1215      2.00000
     20     -10.1214      2.00000
     21      -9.5824      2.00000
     22      -9.5773      2.00000
     23      -9.0509      2.00000
     24      -9.0361      2.00000
     25      -8.0656      2.00000
     26      -8.0395      2.00000
     27      -7.3573      2.00000
     28      -7.3388      2.00000
     29      -2.0288      2.00000
     30      -1.9998      2.00000
     31      -1.5661      2.00000
     32      -1.5657      2.00000
     33      -1.5418      2.00000
     34      -1.5418      2.00000
     35      -1.2799      2.00000
     36      -1.1693      2.00000
     37      -1.1352      2.00000
     38      -1.1227      2.00000
     39      -1.1227      2.00000
     40      -1.1195      2.00000
     41      -0.0191      2.00000
     42       0.1897      2.00000
     43       1.3377      2.00000
     44       1.3832      2.00000
     45       1.6522      2.00000
     46       1.8288      2.00000
     47       1.9109      2.00000
     48       1.9132      2.00000
     49       2.1008      2.00000
     50       2.1396      2.00000
     51       2.4377      2.00000
     52       2.4444      2.00000
     53       2.6055      2.00000
     54       2.6427      2.00000
     55       3.0649      2.00000
     56       3.0708      2.00000
     57       3.6606      2.00000
     58       3.7243      2.00000
     59       3.9286      2.00000
     60       3.9946      2.00000
     61       4.3365      2.00000
     62       4.3380      2.00000
     63       5.4675      0.00000
     64       5.6414      0.00000
     65       6.5068      0.00000
     66       6.6121      0.00000
     67       7.7042      0.00000
     68       7.7468      0.00000
     69       8.1181      0.00000
     70       8.1889      0.00000
     71       8.5307      0.00000
     72       8.5961      0.00000
     73       9.0482      0.00000
     74       9.1224      0.00000
     75       9.1836      0.00000
     76       9.1961      0.00000
     77       9.6646      0.00000
     78       9.7946      0.00000
     79       9.8880      0.00000
     80       9.9110      0.00000

 k-point    78 :       0.1667    0.0000    0.3333
  band No.  band energies     occupation 
      1     -11.0441      2.00000
      2     -11.0441      2.00000
      3     -10.8492      2.00000
      4     -10.8491      2.00000
      5     -10.7758      2.00000
      6     -10.7758      2.00000
      7     -10.6392      2.00000
      8     -10.6391      2.00000
      9     -10.6182      2.00000
     10     -10.6182      2.00000
     11     -10.3987      2.00000
     12     -10.3986      2.00000
     13     -10.2568      2.00000
     14     -10.2567      2.00000
     15     -10.2022      2.00000
     16     -10.2021      2.00000
     17     -10.1392      2.00000
     18     -10.1391      2.00000
     19     -10.1180      2.00000
     20     -10.1180      2.00000
     21      -9.4205      2.00000
     22      -9.4149      2.00000
     23      -8.9344      2.00000
     24      -8.9197      2.00000
     25      -7.9431      2.00000
     26      -7.9181      2.00000
     27      -7.2791      2.00000
     28      -7.2616      2.00000
     29      -1.9947      2.00000
     30      -1.9606      2.00000
     31      -1.5604      2.00000
     32      -1.5592      2.00000
     33      -1.5124      2.00000
     34      -1.5124      2.00000
     35      -1.2686      2.00000
     36      -1.1842      2.00000
     37      -1.1492      2.00000
     38      -1.1224      2.00000
     39      -1.1224      2.00000
     40      -1.1154      2.00000
     41      -0.1167      2.00000
     42       0.0028      2.00000
     43       0.8683      2.00000
     44       0.9384      2.00000
     45       1.3475      2.00000
     46       1.4864      2.00000
     47       1.7472      2.00000
     48       1.7508      2.00000
     49       1.8053      2.00000
     50       1.9112      2.00000
     51       2.2231      2.00000
     52       2.2316      2.00000
     53       2.2511      2.00000
     54       2.3167      2.00000
     55       3.0786      2.00000
     56       3.0867      2.00000
     57       3.2908      2.00000
     58       3.3814      2.00000
     59       3.8910      2.00000
     60       3.9987      2.00000
     61       4.1576      2.00000
     62       4.1610      2.00000
     63       5.7667      0.00000
     64       5.8446      0.00000
     65       6.6600      0.00000
     66       6.7199      0.00000
     67       7.7739      0.00000
     68       7.8220      0.00000
     69       8.2785      0.00000
     70       8.3434      0.00000
     71       8.7237      0.00000
     72       8.7819      0.00000
     73       9.1165      0.00000
     74       9.2286      0.00000
     75       9.3779      0.00000
     76       9.3894      0.00000
     77       9.8959      0.00000
     78      10.0906      0.00000
     79      10.2165      0.00000
     80      10.2426      0.00000

 k-point    79 :       0.2222    0.0000    0.3333
  band No.  band energies     occupation 
      1     -11.0830      2.00000
      2     -11.0830      2.00000
      3     -10.8607      2.00000
      4     -10.8607      2.00000
      5     -10.7620      2.00000
      6     -10.7620      2.00000
      7     -10.6477      2.00000
      8     -10.6476      2.00000
      9     -10.6150      2.00000
     10     -10.6150      2.00000
     11     -10.4625      2.00000
     12     -10.4624      2.00000
     13     -10.2469      2.00000
     14     -10.2468      2.00000
     15     -10.1826      2.00000
     16     -10.1826      2.00000
     17     -10.1418      2.00000
     18     -10.1417      2.00000
     19     -10.1119      2.00000
     20     -10.1119      2.00000
     21      -9.2187      2.00000
     22      -9.2129      2.00000
     23      -8.7786      2.00000
     24      -8.7644      2.00000
     25      -7.7983      2.00000
     26      -7.7757      2.00000
     27      -7.1810      2.00000
     28      -7.1657      2.00000
     29      -1.9759      2.00000
     30      -1.9398      2.00000
     31      -1.5467      2.00000
     32      -1.5434      2.00000
     33      -1.4760      2.00000
     34      -1.4760      2.00000
     35      -1.2652      2.00000
     36      -1.2083      2.00000
     37      -1.1671      2.00000
     38      -1.1244      2.00000
     39      -1.1208      2.00000
     40      -1.1208      2.00000
     41      -0.3802      2.00000
     42      -0.3392      2.00000
     43       0.4527      2.00000
     44       0.5423      2.00000
     45       0.9797      2.00000
     46       1.1188      2.00000
     47       1.5593      2.00000
     48       1.5642      2.00000
     49       1.6214      2.00000
     50       1.6548      2.00000
     51       1.9193      2.00000
     52       2.0023      2.00000
     53       2.0127      2.00000
     54       2.0187      2.00000
     55       2.8876      2.00000
     56       3.0017      2.00000
     57       3.0612      2.00000
     58       3.0728      2.00000
     59       3.9532      2.00000
     60       3.9562      2.00000
     61       3.9600      2.00000
     62       3.9994      2.00000
     63       5.9480      0.00000
     64       5.9622      0.00000
     65       6.5881      0.00000
     66       6.6156      0.00000
     67       7.5567      0.00000
     68       7.5945      0.00000
     69       8.4741      0.00000
     70       8.5483      0.00000
     71       8.9761      0.00000
     72       9.0262      0.00000
     73       9.4911      0.00000
     74       9.5526      0.00000
     75       9.5630      0.00000
     76       9.5683      0.00000
     77      10.1155      0.00000
     78      10.3176      0.00000
     79      10.5920      0.00000
     80      10.6429      0.00000

 k-point    80 :       0.2778    0.0000    0.3333
  band No.  band energies     occupation 
      1     -11.1264      2.00000
      2     -11.1263      2.00000
      3     -10.8668      2.00000
      4     -10.8667      2.00000
      5     -10.7489      2.00000
      6     -10.7489      2.00000
      7     -10.6559      2.00000
      8     -10.6558      2.00000
      9     -10.6099      2.00000
     10     -10.6098      2.00000
     11     -10.5215      2.00000
     12     -10.5214      2.00000
     13     -10.2387      2.00000
     14     -10.2386      2.00000
     15     -10.1753      2.00000
     16     -10.1752      2.00000
     17     -10.1336      2.00000
     18     -10.1336      2.00000
     19     -10.1029      2.00000
     20     -10.1029      2.00000
     21      -8.9915      2.00000
     22      -8.9858      2.00000
     23      -8.5959      2.00000
     24      -8.5829      2.00000
     25      -7.6509      2.00000
     26      -7.6322      2.00000
     27      -7.0744      2.00000
     28      -7.0625      2.00000
     29      -2.0061      2.00000
     30      -1.9759      2.00000
     31      -1.5243      2.00000
     32      -1.5169      2.00000
     33      -1.4374      2.00000
     34      -1.4374      2.00000
     35      -1.2927      2.00000
     36      -1.2560      2.00000
     37      -1.1882      2.00000
     38      -1.1584      2.00000
     39      -1.1172      2.00000
     40      -1.1172      2.00000
     41      -0.7692      2.00000
     42      -0.7417      2.00000
     43       0.1451      2.00000
     44       0.2332      2.00000
     45       0.7067      2.00000
     46       0.8050      2.00000
     47       1.2786      2.00000
     48       1.3338      2.00000
     49       1.3723      2.00000
     50       1.3785      2.00000
     51       1.7494      2.00000
     52       1.7954      2.00000
     53       1.8027      2.00000
     54       1.8076      2.00000
     55       2.6362      2.00000
     56       2.7438      2.00000
     57       3.0211      2.00000
     58       3.0376      2.00000
     59       3.7522      2.00000
     60       3.7637      2.00000
     61       3.9628      2.00000
     62       3.9740      2.00000
     63       5.9269      0.00000
     64       5.9797      0.00000
     65       6.4066      0.00000
     66       6.4479      0.00000
     67       7.3149      0.00000
     68       7.3666      0.00000
     69       8.5627      0.00000
     70       8.6696      0.00000
     71       9.0173      0.00000
     72       9.1032      0.00000
     73       9.6842      0.00000
     74       9.6911      0.00000
     75       9.7883      0.00000
     76       9.8803      0.00000
     77      10.2457      0.00000
     78      10.3877      0.00000
     79      10.9223      0.00000
     80      10.9386      0.00000

 k-point    81 :       0.3333    0.0000    0.3333
  band No.  band energies     occupation 
      1     -11.1662      2.00000
      2     -11.1662      2.00000
      3     -10.8720      2.00000
      4     -10.8719      2.00000
      5     -10.7383      2.00000
      6     -10.7383      2.00000
      7     -10.6636      2.00000
      8     -10.6636      2.00000
      9     -10.6031      2.00000
     10     -10.6031      2.00000
     11     -10.5683      2.00000
     12     -10.5682      2.00000
     13     -10.2331      2.00000
     14     -10.2331      2.00000
     15     -10.1776      2.00000
     16     -10.1775      2.00000
     17     -10.1187      2.00000
     18     -10.1186      2.00000
     19     -10.0921      2.00000
     20     -10.0921      2.00000
     21      -8.7562      2.00000
     22      -8.7509      2.00000
     23      -8.4071      2.00000
     24      -8.3960      2.00000
     25      -7.5207      2.00000
     26      -7.5071      2.00000
     27      -6.9729      2.00000
     28      -6.9651      2.00000
     29      -2.1196      2.00000
     30      -2.1022      2.00000
     31      -1.5301      2.00000
     32      -1.5051      2.00000
     33      -1.4019      2.00000
     34      -1.4019      2.00000
     35      -1.3964      2.00000
     36      -1.3748      2.00000
     37      -1.2073      2.00000
     38      -1.1994      2.00000
     39      -1.1110      2.00000
     40      -1.1109      2.00000
     41      -1.0505      2.00000
     42      -1.0183      2.00000
     43      -0.0624      2.00000
     44       0.0098      2.00000
     45       0.4868      2.00000
     46       0.5595      2.00000
     47       0.9051      2.00000
     48       0.9565      2.00000
     49       1.2068      2.00000
     50       1.2141      2.00000
     51       1.6184      2.00000
     52       1.6322      2.00000
     53       1.6446      2.00000
     54       1.7495      2.00000
     55       2.5111      2.00000
     56       2.5766      2.00000
     57       2.9686      2.00000
     58       2.9909      2.00000
     59       3.5784      2.00000
     60       3.5957      2.00000
     61       3.9143      2.00000
     62       3.9466      2.00000
     63       5.7972      0.00000
     64       5.8685      0.00000
     65       6.2538      0.00000
     66       6.2989      0.00000
     67       7.1255      0.00000
     68       7.1996      0.00000
     69       8.5453      0.00000
     70       8.6496      0.00000
     71       8.9401      0.00000
     72       9.0328      0.00000
     73       9.7294      0.00000
     74       9.7362      0.00000
     75       9.7510      0.00000
     76       9.8594      0.00000
     77      10.3484      0.00000
     78      10.5196      0.00000
     79      10.9546      0.00000
     80      11.1328      0.00000

 k-point    82 :       0.3889    0.0000    0.3333
  band No.  band energies     occupation 
      1     -11.1974      2.00000
      2     -11.1974      2.00000
      3     -10.8780      2.00000
      4     -10.8780      2.00000
      5     -10.7311      2.00000
      6     -10.7310      2.00000
      7     -10.6708      2.00000
      8     -10.6708      2.00000
      9     -10.5994      2.00000
     10     -10.5993      2.00000
     11     -10.5961      2.00000
     12     -10.5961      2.00000
     13     -10.2300      2.00000
     14     -10.2300      2.00000
     15     -10.1817      2.00000
     16     -10.1817      2.00000
     17     -10.1053      2.00000
     18     -10.1053      2.00000
     19     -10.0817      2.00000
     20     -10.0817      2.00000
     21      -8.5369      2.00000
     22      -8.5325      2.00000
     23      -8.2417      2.00000
     24      -8.2331      2.00000
     25      -7.4243      2.00000
     26      -7.4162      2.00000
     27      -6.8899      2.00000
     28      -6.8860      2.00000
     29      -2.3002      2.00000
     30      -2.2938      2.00000
     31      -1.7175      2.00000
     32      -1.6972      2.00000
     33      -1.4191      2.00000
     34      -1.4033      2.00000
     35      -1.3742      2.00000
     36      -1.3742      2.00000
     37      -1.2444      2.00000
     38      -1.2342      2.00000
     39      -1.1030      2.00000
     40      -1.1030      2.00000
     41      -1.0759      2.00000
     42      -1.0558      2.00000
     43      -0.2174      2.00000
     44      -0.1699      2.00000
     45       0.2582      2.00000
     46       0.3355      2.00000
     47       0.6403      2.00000
     48       0.7370      2.00000
     49       1.0782      2.00000
     50       1.0864      2.00000
     51       1.4832      2.00000
     52       1.4983      2.00000
     53       1.6059      2.00000
     54       1.7168      2.00000
     55       2.4558      2.00000
     56       2.4653      2.00000
     57       2.9151      2.00000
     58       2.9430      2.00000
     59       3.4486      2.00000
     60       3.4715      2.00000
     61       3.8589      2.00000
     62       3.9064      2.00000
     63       5.6540      0.00000
     64       5.7403      0.00000
     65       6.1218      0.00000
     66       6.1749      0.00000
     67       7.0033      0.00000
     68       7.1015      0.00000
     69       8.4832      0.00000
     70       8.5557      0.00000
     71       8.8519      0.00000
     72       8.9251      0.00000
     73       9.5951      0.00000
     74       9.6982      0.00000
     75       9.7301      0.00000
     76       9.7641      0.00000
     77      10.3109      0.00000
     78      10.4810      0.00000
     79      10.9570      0.00000
     80      11.2333      0.00000

 k-point    83 :       0.4444    0.0000    0.3333
  band No.  band energies     occupation 
      1     -11.2172      2.00000
      2     -11.2171      2.00000
      3     -10.8835      2.00000
      4     -10.8834      2.00000
      5     -10.7270      2.00000
      6     -10.7270      2.00000
      7     -10.6764      2.00000
      8     -10.6764      2.00000
      9     -10.6156      2.00000
     10     -10.6155      2.00000
     11     -10.5908      2.00000
     12     -10.5907      2.00000
     13     -10.2286      2.00000
     14     -10.2286      2.00000
     15     -10.1848      2.00000
     16     -10.1848      2.00000
     17     -10.0967      2.00000
     18     -10.0967      2.00000
     19     -10.0743      2.00000
     20     -10.0742      2.00000
     21      -8.3699      2.00000
     22      -8.3663      2.00000
     23      -8.1323      2.00000
     24      -8.1262      2.00000
     25      -7.3695      2.00000
     26      -7.3652      2.00000
     27      -6.8361      2.00000
     28      -6.8346      2.00000
     29      -2.4661      2.00000
     30      -2.4595      2.00000
     31      -1.9016      2.00000
     32      -1.8865      2.00000
     33      -1.4044      2.00000
     34      -1.3882      2.00000
     35      -1.3571      2.00000
     36      -1.3571      2.00000
     37      -1.2688      2.00000
     38      -1.2552      2.00000
     39      -1.0961      2.00000
     40      -1.0960      2.00000
     41      -0.9907      2.00000
     42      -0.9807      2.00000
     43      -0.3627      2.00000
     44      -0.3281      2.00000
     45       0.0225      2.00000
     46       0.1168      2.00000
     47       0.5796      2.00000
     48       0.7100      2.00000
     49       0.9969      2.00000
     50       1.0056      2.00000
     51       1.3987      2.00000
     52       1.4146      2.00000
     53       1.5853      2.00000
     54       1.6667      2.00000
     55       2.3992      2.00000
     56       2.4454      2.00000
     57       2.8745      2.00000
     58       2.9063      2.00000
     59       3.3706      2.00000
     60       3.3973      2.00000
     61       3.8102      2.00000
     62       3.8768      2.00000
     63       5.5584      0.00000
     64       5.6526      0.00000
     65       6.0254      0.00000
     66       6.0866      0.00000
     67       6.9368      0.00000
     68       7.0538      0.00000
     69       8.4245      0.00000
     70       8.4791      0.00000
     71       8.7815      0.00000
     72       8.8579      0.00000
     73       9.4619      0.00000
     74       9.5875      0.00000
     75       9.7170      0.00000
     76       9.7591      0.00000
     77      10.2469      0.00000
     78      10.3816      0.00000
     79      10.9656      0.00000
     80      11.1019      0.00000

 k-point    84 :       0.5000    0.0000    0.3333
  band No.  band energies     occupation 
      1     -11.2239      2.00000
      2     -11.2239      2.00000
      3     -10.8857      2.00000
      4     -10.8856      2.00000
      5     -10.7258      2.00000
      6     -10.7257      2.00000
      7     -10.6786      2.00000
      8     -10.6786      2.00000
      9     -10.6204      2.00000
     10     -10.6204      2.00000
     11     -10.5888      2.00000
     12     -10.5887      2.00000
     13     -10.2282      2.00000
     14     -10.2282      2.00000
     15     -10.1859      2.00000
     16     -10.1859      2.00000
     17     -10.0938      2.00000
     18     -10.0937      2.00000
     19     -10.0716      2.00000
     20     -10.0715      2.00000
     21      -8.3039      2.00000
     22      -8.3008      2.00000
     23      -8.0963      2.00000
     24      -8.0914      2.00000
     25      -7.3526      2.00000
     26      -7.3497      2.00000
     27      -6.8177      2.00000
     28      -6.8168      2.00000
     29      -2.5319      2.00000
     30      -2.5237      2.00000
     31      -1.9686      2.00000
     32      -1.9547      2.00000
     33      -1.3998      2.00000
     34      -1.3828      2.00000
     35      -1.3514      2.00000
     36      -1.3514      2.00000
     37      -1.2760      2.00000
     38      -1.2619      2.00000
     39      -1.0933      2.00000
     40      -1.0932      2.00000
     41      -0.9244      2.00000
     42      -0.9244      2.00000
     43      -0.4405      2.00000
     44      -0.4122      2.00000
     45      -0.0729      2.00000
     46       0.0261      2.00000
     47       0.5874      2.00000
     48       0.7208      2.00000
     49       0.9691      2.00000
     50       0.9781      2.00000
     51       1.3699      2.00000
     52       1.3861      2.00000
     53       1.5764      2.00000
     54       1.6362      2.00000
     55       2.3813      2.00000
     56       2.4452      2.00000
     57       2.8593      2.00000
     58       2.8924      2.00000
     59       3.3449      2.00000
     60       3.3729      2.00000
     61       3.7898      2.00000
     62       3.8669      2.00000
     63       5.5265      0.00000
     64       5.6217      0.00000
     65       5.9901      0.00000
     66       6.0543      0.00000
     67       6.9158      0.00000
     68       7.0398      0.00000
     69       8.3996      0.00000
     70       8.4535      0.00000
     71       8.7534      0.00000
     72       8.8402      0.00000
     73       9.4047      0.00000
     74       9.5520      0.00000
     75       9.7105      0.00000
     76       9.7552      0.00000
     77      10.2258      0.00000
     78      10.3324      0.00000
     79      10.9566      0.00000
     80      11.0872      0.00000

 k-point    85 :       0.0556    0.0556    0.3333
  band No.  band energies     occupation 
      1     -11.0128      2.00000
      2     -11.0128      2.00000
      3     -10.8233      2.00000
      4     -10.8232      2.00000
      5     -10.7905      2.00000
      6     -10.7905      2.00000
      7     -10.6286      2.00000
      8     -10.6285      2.00000
      9     -10.6202      2.00000
     10     -10.6202      2.00000
     11     -10.3248      2.00000
     12     -10.3248      2.00000
     13     -10.2709      2.00000
     14     -10.2709      2.00000
     15     -10.2294      2.00000
     16     -10.2293      2.00000
     17     -10.1308      2.00000
     18     -10.1307      2.00000
     19     -10.1221      2.00000
     20     -10.1220      2.00000
     21      -9.6172      2.00000
     22      -9.6122      2.00000
     23      -9.0745      2.00000
     24      -9.0597      2.00000
     25      -8.0924      2.00000
     26      -8.0660      2.00000
     27      -7.3737      2.00000
     28      -7.3551      2.00000
     29      -2.0375      2.00000
     30      -2.0099      2.00000
     31      -1.5667      2.00000
     32      -1.5664      2.00000
     33      -1.5480      2.00000
     34      -1.5480      2.00000
     35      -1.2829      2.00000
     36      -1.1669      2.00000
     37      -1.1321      2.00000
     38      -1.1228      2.00000
     39      -1.1227      2.00000
     40      -1.1207      2.00000
     41      -0.0092      2.00000
     42       0.2175      2.00000
     43       1.4382      2.00000
     44       1.5116      2.00000
     45       1.7187      2.00000
     46       1.8679      2.00000
     47       1.9394      2.00000
     48       1.9644      2.00000
     49       2.2504      2.00000
     50       2.2696      2.00000
     51       2.3712      2.00000
     52       2.3812      2.00000
     53       2.8656      2.00000
     54       2.8708      2.00000
     55       2.9558      2.00000
     56       2.9737      2.00000
     57       3.6348      2.00000
     58       3.7859      2.00000
     59       4.0402      2.00000
     60       4.0403      2.00000
     61       4.3690      2.00000
     62       4.3693      2.00000
     63       5.3823      0.00000
     64       5.5817      0.00000
     65       6.4454      0.00000
     66       6.5586      0.00000
     67       7.6256      0.00000
     68       7.6561      0.00000
     69       8.0875      0.00000
     70       8.1359      0.00000
     71       8.5774      0.00000
     72       8.5907      0.00000
     73       8.9765      0.00000
     74       9.0256      0.00000
     75       9.2262      0.00000
     76       9.2444      0.00000
     77       9.6073      0.00000
     78       9.7117      0.00000
     79       9.8300      0.00000
     80       9.8497      0.00000

 k-point    86 :       0.1111    0.0556    0.3333
  band No.  band energies     occupation 
      1     -11.0328      2.00000
      2     -11.0328      2.00000
      3     -10.8431      2.00000
      4     -10.8430      2.00000
      5     -10.7806      2.00000
      6     -10.7805      2.00000
      7     -10.6359      2.00000
      8     -10.6358      2.00000
      9     -10.6192      2.00000
     10     -10.6192      2.00000
     11     -10.3736      2.00000
     12     -10.3735      2.00000
     13     -10.2668      2.00000
     14     -10.2667      2.00000
     15     -10.2072      2.00000
     16     -10.2071      2.00000
     17     -10.1371      2.00000
     18     -10.1370      2.00000
     19     -10.1196      2.00000
     20     -10.1195      2.00000
     21      -9.4828      2.00000
     22      -9.4774      2.00000
     23      -8.9802      2.00000
     24      -8.9655      2.00000
     25      -7.9901      2.00000
     26      -7.9646      2.00000
     27      -7.3095      2.00000
     28      -7.2916      2.00000
     29      -2.0061      2.00000
     30      -1.9737      2.00000
     31      -1.5632      2.00000
     32      -1.5623      2.00000
     33      -1.5237      2.00000
     34      -1.5237      2.00000
     35      -1.2723      2.00000
     36      -1.1778      2.00000
     37      -1.1436      2.00000
     38      -1.1229      2.00000
     39      -1.1228      2.00000
     40      -1.1160      2.00000
     41      -0.0656      2.00000
     42       0.0895      2.00000
     43       1.0658      2.00000
     44       1.1012      2.00000
     45       1.5003      2.00000
     46       1.5972      2.00000
     47       1.7882      2.00000
     48       1.8099      2.00000
     49       1.9154      2.00000
     50       1.9928      2.00000
     51       2.1054      2.00000
     52       2.1144      2.00000
     53       2.6426      2.00000
     54       2.6682      2.00000
     55       2.9673      2.00000
     56       2.9728      2.00000
     57       3.4784      2.00000
     58       3.5511      2.00000
     59       3.8708      2.00000
     60       3.9898      2.00000
     61       4.2029      2.00000
     62       4.2051      2.00000
     63       5.6798      0.00000
     64       5.7890      0.00000
     65       6.6507      0.00000
     66       6.7287      0.00000
     67       7.8971      0.00000
     68       7.9532      0.00000
     69       8.1928      0.00000
     70       8.2534      0.00000
     71       8.6063      0.00000
     72       8.6515      0.00000
     73       8.9045      0.00000
     74       9.0146      0.00000
     75       9.4073      0.00000
     76       9.4261      0.00000
     77       9.7431      0.00000
     78       9.9126      0.00000
     79      10.1403      0.00000
     80      10.1622      0.00000

 k-point    87 :       0.1667    0.0556    0.3333
  band No.  band energies     occupation 
      1     -11.0661      2.00000
      2     -11.0661      2.00000
      3     -10.8572      2.00000
      4     -10.8572      2.00000
      5     -10.7679      2.00000
      6     -10.7679      2.00000
      7     -10.6438      2.00000
      8     -10.6437      2.00000
      9     -10.6171      2.00000
     10     -10.6170      2.00000
     11     -10.4330      2.00000
     12     -10.4330      2.00000
     13     -10.2599      2.00000
     14     -10.2598      2.00000
     15     -10.1853      2.00000
     16     -10.1853      2.00000
     17     -10.1423      2.00000
     18     -10.1422      2.00000
     19     -10.1146      2.00000
     20     -10.1145      2.00000
     21      -9.3011      2.00000
     22      -9.2953      2.00000
     23      -8.8429      2.00000
     24      -8.8285      2.00000
     25      -7.8572      2.00000
     26      -7.8335      2.00000
     27      -7.2213      2.00000
     28      -7.2050      2.00000
     29      -1.9786      2.00000
     30      -1.9425      2.00000
     31      -1.5532      2.00000
     32      -1.5509      2.00000
     33      -1.4907      2.00000
     34      -1.4906      2.00000
     35      -1.2643      2.00000
     36      -1.1972      2.00000
     37      -1.1589      2.00000
     38      -1.1223      2.00000
     39      -1.1220      2.00000
     40      -1.1168      2.00000
     41      -0.2446      2.00000
     42      -0.1787      2.00000
     43       0.6317      2.00000
     44       0.7050      2.00000
     45       1.1434      2.00000
     46       1.2724      2.00000
     47       1.5541      2.00000
     48       1.5696      2.00000
     49       1.7124      2.00000
     50       1.7693      2.00000
     51       1.8693      2.00000
     52       1.8854      2.00000
     53       2.3371      2.00000
     54       2.3808      2.00000
     55       2.9384      2.00000
     56       2.9698      2.00000
     57       3.1001      2.00000
     58       3.1732      2.00000
     59       3.9306      2.00000
     60       3.9587      2.00000
     61       4.0144      2.00000
     62       4.0446      2.00000
     63       5.9257      0.00000
     64       5.9515      0.00000
     65       6.6969      0.00000
     66       6.7260      0.00000
     67       7.7637      0.00000
     68       7.7935      0.00000
     69       8.4592      0.00000
     70       8.4971      0.00000
     71       8.8401      0.00000
     72       8.8937      0.00000
     73       9.1155      0.00000
     74       9.1804      0.00000
     75       9.6244      0.00000
     76       9.6475      0.00000
     77       9.9776      0.00000
     78      10.1595      0.00000
     79      10.4829      0.00000
     80      10.5179      0.00000

 k-point    88 :       0.2222    0.0556    0.3333
  band No.  band energies     occupation 
      1     -11.1075      2.00000
      2     -11.1074      2.00000
      3     -10.8645      2.00000
      4     -10.8645      2.00000
      5     -10.7549      2.00000
      6     -10.7548      2.00000
      7     -10.6516      2.00000
      8     -10.6516      2.00000
      9     -10.6133      2.00000
     10     -10.6132      2.00000
     11     -10.4930      2.00000
     12     -10.4929      2.00000
     13     -10.2524      2.00000
     14     -10.2523      2.00000
     15     -10.1723      2.00000
     16     -10.1723      2.00000
     17     -10.1405      2.00000
     18     -10.1404      2.00000
     19     -10.1065      2.00000
     20     -10.1065      2.00000
     21      -9.0860      2.00000
     22      -9.0803      2.00000
     23      -8.6717      2.00000
     24      -8.6581      2.00000
     25      -7.7122      2.00000
     26      -7.6917      2.00000
     27      -7.1188      2.00000
     28      -7.1053      2.00000
     29      -1.9817      2.00000
     30      -1.9477      2.00000
     31      -1.5339      2.00000
     32      -1.5287      2.00000
     33      -1.4530      2.00000
     34      -1.4530      2.00000
     35      -1.2735      2.00000
     36      -1.2295      2.00000
     37      -1.1782      2.00000
     38      -1.1395      2.00000
     39      -1.1193      2.00000
     40      -1.1191      2.00000
     41      -0.5857      2.00000
     42      -0.5611      2.00000
     43       0.2864      2.00000
     44       0.3698      2.00000
     45       0.8210      2.00000
     46       0.9368      2.00000
     47       1.3219      2.00000
     48       1.3308      2.00000
     49       1.4911      2.00000
     50       1.5472      2.00000
     51       1.6316      2.00000
     52       1.6869      2.00000
     53       2.0689      2.00000
     54       2.0994      2.00000
     55       2.7197      2.00000
     56       2.8377      2.00000
     57       2.9773      2.00000
     58       2.9893      2.00000
     59       3.7641      2.00000
     60       3.7699      2.00000
     61       3.9972      2.00000
     62       4.0056      2.00000
     63       6.0049      0.00000
     64       6.0430      0.00000
     65       6.5528      0.00000
     66       6.5857      0.00000
     67       7.5219      0.00000
     68       7.5574      0.00000
     69       8.6186      0.00000
     70       8.6840      0.00000
     71       9.1004      0.00000
     72       9.1398      0.00000
     73       9.3677      0.00000
     74       9.3759      0.00000
     75       9.8086      0.00000
     76       9.8660      0.00000
     77      10.1915      0.00000
     78      10.3204      0.00000
     79      10.6744      0.00000
     80      10.7345      0.00000

 k-point    89 :       0.2778    0.0556    0.3333
  band No.  band energies     occupation 
      1     -11.1487      2.00000
      2     -11.1487      2.00000
      3     -10.8692      2.00000
      4     -10.8691      2.00000
      5     -10.7436      2.00000
      6     -10.7435      2.00000
      7     -10.6590      2.00000
      8     -10.6590      2.00000
      9     -10.6077      2.00000
     10     -10.6076      2.00000
     11     -10.5449      2.00000
     12     -10.5448      2.00000
     13     -10.2462      2.00000
     14     -10.2461      2.00000
     15     -10.1724      2.00000
     16     -10.1724      2.00000
     17     -10.1280      2.00000
     18     -10.1279      2.00000
     19     -10.0962      2.00000
     20     -10.0962      2.00000
     21      -8.8530      2.00000
     22      -8.8475      2.00000
     23      -8.4832      2.00000
     24      -8.4712      2.00000
     25      -7.5750      2.00000
     26      -7.5591      2.00000
     27      -7.0146      2.00000
     28      -7.0050      2.00000
     29      -2.0514      2.00000
     30      -2.0275      2.00000
     31      -1.5130      2.00000
     32      -1.5002      2.00000
     33      -1.4164      2.00000
     34      -1.4161      2.00000
     35      -1.3354      2.00000
     36      -1.3097      2.00000
     37      -1.1974      2.00000
     38      -1.1779      2.00000
     39      -1.1140      2.00000
     40      -1.1138      2.00000
     41      -0.9452      2.00000
     42      -0.9161      2.00000
     43       0.0369      2.00000
     44       0.1161      2.00000
     45       0.5826      2.00000
     46       0.6603      2.00000
     47       1.0409      2.00000
     48       1.0466      2.00000
     49       1.2337      2.00000
     50       1.2738      2.00000
     51       1.4939      2.00000
     52       1.5626      2.00000
     53       1.8605      2.00000
     54       1.9055      2.00000
     55       2.5488      2.00000
     56       2.6464      2.00000
     57       2.9298      2.00000
     58       2.9406      2.00000
     59       3.5698      2.00000
     60       3.5796      2.00000
     61       3.9574      2.00000
     62       3.9878      2.00000
     63       5.9378      0.00000
     64       5.9995      0.00000
     65       6.3882      0.00000
     66       6.4312      0.00000
     67       7.3026      0.00000
     68       7.3554      0.00000
     69       8.6623      0.00000
     70       8.7584      0.00000
     71       9.0750      0.00000
     72       9.1689      0.00000
     73       9.5374      0.00000
     74       9.5499      0.00000
     75       9.8071      0.00000
     76       9.9507      0.00000
     77      10.3396      0.00000
     78      10.5086      0.00000
     79      10.8478      0.00000
     80      10.9126      0.00000

 k-point    90 :       0.3333    0.0556    0.3333
  band No.  band energies     occupation 
      1     -11.1838      2.00000
      2     -11.1838      2.00000
      3     -10.8742      2.00000
      4     -10.8741      2.00000
      5     -10.7352      2.00000
      6     -10.7352      2.00000
      7     -10.6660      2.00000
      8     -10.6660      2.00000
      9     -10.6014      2.00000
     10     -10.6013      2.00000
     11     -10.5828      2.00000
     12     -10.5827      2.00000
     13     -10.2422      2.00000
     14     -10.2421      2.00000
     15     -10.1768      2.00000
     16     -10.1768      2.00000
     17     -10.1135      2.00000
     18     -10.1134      2.00000
     19     -10.0861      2.00000
     20     -10.0861      2.00000
     21      -8.6222      2.00000
     22      -8.6174      2.00000
     23      -8.3028      2.00000
     24      -8.2931      2.00000
     25      -7.4641      2.00000
     26      -7.4537      2.00000
     27      -6.9222      2.00000
     28      -6.9168      2.00000
     29      -2.2023      2.00000
     30      -2.1916      2.00000
     31      -1.6052      2.00000
     32      -1.5796      2.00000
     33      -1.4220      2.00000
     34      -1.4061      2.00000
     35      -1.3841      2.00000
     36      -1.3813      2.00000
     37      -1.2214      2.00000
     38      -1.2173      2.00000
     39      -1.1126      2.00000
     40      -1.1095      2.00000
     41      -1.0803      2.00000
     42      -1.0582      2.00000
     43      -0.1336      2.00000
     44      -0.0764      2.00000
     45       0.3798      2.00000
     46       0.4433      2.00000
     47       0.7157      2.00000
     48       0.7605      2.00000
     49       1.0667      2.00000
     50       1.0840      2.00000
     51       1.4073      2.00000
     52       1.4547      2.00000
     53       1.7098      2.00000
     54       1.8167      2.00000
     55       2.4558      2.00000
     56       2.5102      2.00000
     57       2.8859      2.00000
     58       2.8942      2.00000
     59       3.4126      2.00000
     60       3.4270      2.00000
     61       3.9041      2.00000
     62       3.9490      2.00000
     63       5.8039      0.00000
     64       5.8780      0.00000
     65       6.2549      0.00000
     66       6.3039      0.00000
     67       7.1461      0.00000
     68       7.2195      0.00000
     69       8.6240      0.00000
     70       8.7129      0.00000
     71       8.9729      0.00000
     72       9.0695      0.00000
     73       9.5682      0.00000
     74       9.6012      0.00000
     75       9.7214      0.00000
     76       9.8350      0.00000
     77      10.3766      0.00000
     78      10.5728      0.00000
     79      10.9714      0.00000
     80      11.1365      0.00000

 k-point    91 :       0.3889    0.0556    0.3333
  band No.  band energies     occupation 
      1     -11.2089      2.00000
      2     -11.2088      2.00000
      3     -10.8797      2.00000
      4     -10.8796      2.00000
      5     -10.7300      2.00000
      6     -10.7299      2.00000
      7     -10.6721      2.00000
      8     -10.6721      2.00000
      9     -10.6071      2.00000
     10     -10.6070      2.00000
     11     -10.5942      2.00000
     12     -10.5941      2.00000
     13     -10.2401      2.00000
     14     -10.2400      2.00000
     15     -10.1808      2.00000
     16     -10.1808      2.00000
     17     -10.1017      2.00000
     18     -10.1016      2.00000
     19     -10.0786      2.00000
     20     -10.0786      2.00000
     21      -8.4232      2.00000
     22      -8.4192      2.00000
     23      -8.1628      2.00000
     24      -8.1557      2.00000
     25      -7.3920      2.00000
     26      -7.3863      2.00000
     27      -6.8540      2.00000
     28      -6.8517      2.00000
     29      -2.3824      2.00000
     30      -2.3772      2.00000
     31      -1.8181      2.00000
     32      -1.8015      2.00000
     33      -1.4067      2.00000
     34      -1.3930      2.00000
     35      -1.3631      2.00000
     36      -1.3617      2.00000
     37      -1.2558      2.00000
     38      -1.2438      2.00000
     39      -1.1052      2.00000
     40      -1.1039      2.00000
     41      -1.0310      2.00000
     42      -1.0179      2.00000
     43      -0.2818      2.00000
     44      -0.2426      2.00000
     45       0.1385      2.00000
     46       0.2190      2.00000
     47       0.5575      2.00000
     48       0.6549      2.00000
     49       0.9544      2.00000
     50       0.9612      2.00000
     51       1.3419      2.00000
     52       1.3818      2.00000
     53       1.6321      2.00000
     54       1.7436      2.00000
     55       2.4046      2.00000
     56       2.4244      2.00000
     57       2.8523      2.00000
     58       2.8582      2.00000
     59       3.3051      2.00000
     60       3.3231      2.00000
     61       3.8524      2.00000
     62       3.9083      2.00000
     63       5.6857      0.00000
     64       5.7707      0.00000
     65       6.1460      0.00000
     66       6.2042      0.00000
     67       7.0518      0.00000
     68       7.1442      0.00000
     69       8.5703      0.00000
     70       8.6296      0.00000
     71       8.8901      0.00000
     72       8.9625      0.00000
     73       9.5093      0.00000
     74       9.5648      0.00000
     75       9.6451      0.00000
     76       9.7437      0.00000
     77      10.3359      0.00000
     78      10.4961      0.00000
     79      11.0195      0.00000
     80      11.0874      0.00000

 k-point    92 :       0.4444    0.0556    0.3333
  band No.  band energies     occupation 
      1     -11.2219      2.00000
      2     -11.2218      2.00000
      3     -10.8834      2.00000
      4     -10.8833      2.00000
      5     -10.7275      2.00000
      6     -10.7275      2.00000
      7     -10.6760      2.00000
      8     -10.6759      2.00000
      9     -10.6168      2.00000
     10     -10.6167      2.00000
     11     -10.5910      2.00000
     12     -10.5909      2.00000
     13     -10.2392      2.00000
     14     -10.2391      2.00000
     15     -10.1831      2.00000
     16     -10.1830      2.00000
     17     -10.0950      2.00000
     18     -10.0949      2.00000
     19     -10.0748      2.00000
     20     -10.0747      2.00000
     21      -8.2992      2.00000
     22      -8.2960      2.00000
     23      -8.0910      2.00000
     24      -8.0858      2.00000
     25      -7.3592      2.00000
     26      -7.3562      2.00000
     27      -6.8180      2.00000
     28      -6.8172      2.00000
     29      -2.5028      2.00000
     30      -2.4950      2.00000
     31      -1.9470      2.00000
     32      -1.9329      2.00000
     33      -1.3972      2.00000
     34      -1.3816      2.00000
     35      -1.3524      2.00000
     36      -1.3517      2.00000
     37      -1.2704      2.00000
     38      -1.2570      2.00000
     39      -1.0980      2.00000
     40      -1.0977      2.00000
     41      -0.9383      2.00000
     42      -0.9336      2.00000
     43      -0.4069      2.00000
     44      -0.3763      2.00000
     45      -0.0365      2.00000
     46       0.0558      2.00000
     47       0.5444      2.00000
     48       0.6486      2.00000
     49       0.8967      2.00000
     50       0.8990      2.00000
     51       1.3181      2.00000
     52       1.3460      2.00000
     53       1.5981      2.00000
     54       1.6743      2.00000
     55       2.3698      2.00000
     56       2.3983      2.00000
     57       2.8350      2.00000
     58       2.8411      2.00000
     59       3.2511      2.00000
     60       3.2709      2.00000
     61       3.8164      2.00000
     62       3.8859      2.00000
     63       5.6231      0.00000
     64       5.7109      0.00000
     65       6.0838      0.00000
     66       6.1466      0.00000
     67       7.0081      0.00000
     68       7.1120      0.00000
     69       8.5366      0.00000
     70       8.5754      0.00000
     71       8.8455      0.00000
     72       8.9058      0.00000
     73       9.4420      0.00000
     74       9.5099      0.00000
     75       9.6038      0.00000
     76       9.7241      0.00000
     77      10.3030      0.00000
     78      10.4308      0.00000
     79      10.9910      0.00000
     80      11.0808      0.00000

 k-point    93 :       0.1111    0.1111    0.3333
  band No.  band energies     occupation 
      1     -11.0600      2.00000
      2     -11.0600      2.00000
      3     -10.8557      2.00000
      4     -10.8557      2.00000
      5     -10.7703      2.00000
      6     -10.7702      2.00000
      7     -10.6420      2.00000
      8     -10.6420      2.00000
      9     -10.6181      2.00000
     10     -10.6181      2.00000
     11     -10.4190      2.00000
     12     -10.4189      2.00000
     13     -10.2706      2.00000
     14     -10.2705      2.00000
     15     -10.1845      2.00000
     16     -10.1845      2.00000
     17     -10.1425      2.00000
     18     -10.1424      2.00000
     19     -10.1155      2.00000
     20     -10.1154      2.00000
     21      -9.3289      2.00000
     22      -9.3232      2.00000
     23      -8.8641      2.00000
     24      -8.8497      2.00000
     25      -7.8781      2.00000
     26      -7.8541      2.00000
     27      -7.2352      2.00000
     28      -7.2186      2.00000
     29      -1.9806      2.00000
     30      -1.9447      2.00000
     31      -1.5552      2.00000
     32      -1.5532      2.00000
     33      -1.4956      2.00000
     34      -1.4956      2.00000
     35      -1.2647      2.00000
     36      -1.1936      2.00000
     37      -1.1558      2.00000
     38      -1.1229      2.00000
     39      -1.1226      2.00000
     40      -1.1147      2.00000
     41      -0.1991      2.00000
     42      -0.1202      2.00000
     43       0.7342      2.00000
     44       0.7701      2.00000
     45       1.2746      2.00000
     46       1.2765      2.00000
     47       1.5631      2.00000
     48       1.5667      2.00000
     49       1.6867      2.00000
     50       1.7017      2.00000
     51       1.8537      2.00000
     52       1.8790      2.00000
     53       2.6677      2.00000
     54       2.6704      2.00000
     55       2.7396      2.00000
     56       2.7462      2.00000
     57       3.1761      2.00000
     58       3.2555      2.00000
     59       3.9156      2.00000
     60       3.9301      2.00000
     61       4.0183      2.00000
     62       4.0606      2.00000
     63       5.9235      0.00000
     64       5.9569      0.00000
     65       6.7636      0.00000
     66       6.7946      0.00000
     67       7.9755      0.00000
     68       7.9874      0.00000
     69       8.4708      0.00000
     70       8.4986      0.00000
     71       8.5955      0.00000
     72       8.6215      0.00000
     73       9.0600      0.00000
     74       9.1192      0.00000
     75       9.6078      0.00000
     76       9.6298      0.00000
     77       9.8983      0.00000
     78      10.0892      0.00000
     79      10.4969      0.00000
     80      10.5355      0.00000

 k-point    94 :       0.1667    0.1111    0.3333
  band No.  band energies     occupation 
      1     -11.0964      2.00000
      2     -11.0963      2.00000
      3     -10.8633      2.00000
      4     -10.8633      2.00000
      5     -10.7589      2.00000
      6     -10.7589      2.00000
      7     -10.6483      2.00000
      8     -10.6482      2.00000
      9     -10.6160      2.00000
     10     -10.6160      2.00000
     11     -10.4702      2.00000
     12     -10.4701      2.00000
     13     -10.2719      2.00000
     14     -10.2718      2.00000
     15     -10.1666      2.00000
     16     -10.1665      2.00000
     17     -10.1461      2.00000
     18     -10.1461      2.00000
     19     -10.1079      2.00000
     20     -10.1079      2.00000
     21      -9.1336      2.00000
     22      -9.1278      2.00000
     23      -8.7090      2.00000
     24      -8.6952      2.00000
     25      -7.7465      2.00000
     26      -7.7251      2.00000
     27      -7.1425      2.00000
     28      -7.1282      2.00000
     29      -1.9719      2.00000
     30      -1.9364      2.00000
     31      -1.5386      2.00000
     32      -1.5344      2.00000
     33      -1.4610      2.00000
     34      -1.4610      2.00000
     35      -1.2670      2.00000
     36      -1.2190      2.00000
     37      -1.1716      2.00000
     38      -1.1293      2.00000
     39      -1.1207      2.00000
     40      -1.1195      2.00000
     41      -0.4665      2.00000
     42      -0.4425      2.00000
     43       0.4210      2.00000
     44       0.4659      2.00000
     45       0.9292      2.00000
     46       1.0011      2.00000
     47       1.2636      2.00000
     48       1.2775      2.00000
     49       1.4606      2.00000
     50       1.4930      2.00000
     51       1.6275      2.00000
     52       1.6979      2.00000
     53       2.3693      2.00000
     54       2.4125      2.00000
     55       2.6587      2.00000
     56       2.7083      2.00000
     57       2.9515      2.00000
     58       2.9934      2.00000
     59       3.6917      2.00000
     60       3.7037      2.00000
     61       4.0292      2.00000
     62       4.0377      2.00000
     63       6.0794      0.00000
     64       6.1073      0.00000
     65       6.7272      0.00000
     66       6.7442      0.00000
     67       7.8479      0.00000
     68       7.8566      0.00000
     69       8.6331      0.00000
     70       8.6920      0.00000
     71       8.8864      0.00000
     72       8.9089      0.00000
     73       9.2851      0.00000
     74       9.3096      0.00000
     75       9.7363      0.00000
     76       9.7609      0.00000
     77      10.1311      0.00000
     78      10.2573      0.00000
     79      10.6596      0.00000
     80      10.7497      0.00000

 k-point    95 :       0.2222    0.1111    0.3333
  band No.  band energies     occupation 
      1     -11.1354      2.00000
      2     -11.1353      2.00000
      3     -10.8672      2.00000
      4     -10.8672      2.00000
      5     -10.7485      2.00000
      6     -10.7485      2.00000
      7     -10.6543      2.00000
      8     -10.6542      2.00000
      9     -10.6124      2.00000
     10     -10.6124      2.00000
     11     -10.5194      2.00000
     12     -10.5194      2.00000
     13     -10.2712      2.00000
     14     -10.2711      2.00000
     15     -10.1628      2.00000
     16     -10.1627      2.00000
     17     -10.1392      2.00000
     18     -10.1392      2.00000
     19     -10.0979      2.00000
     20     -10.0979      2.00000
     21      -8.9107      2.00000
     22      -8.9052      2.00000
     23      -8.5279      2.00000
     24      -8.5154      2.00000
     25      -7.6140      2.00000
     26      -7.5967      2.00000
     27      -7.0421      2.00000
     28      -7.0314      2.00000
     29      -2.0092      2.00000
     30      -1.9810      2.00000
     31      -1.5139      2.00000
     32      -1.5056      2.00000
     33      -1.4250      2.00000
     34      -1.4247      2.00000
     35      -1.3007      2.00000
     36      -1.2708      2.00000
     37      -1.1895      2.00000
     38      -1.1598      2.00000
     39      -1.1156      2.00000
     40      -1.1150      2.00000
     41      -0.8133      2.00000
     42      -0.7959      2.00000
     43       0.1562      2.00000
     44       0.2209      2.00000
     45       0.6418      2.00000
     46       0.7194      2.00000
     47       1.0106      2.00000
     48       1.0286      2.00000
     49       1.2379      2.00000
     50       1.2627      2.00000
     51       1.3746      2.00000
     52       1.5401      2.00000
     53       2.0922      2.00000
     54       2.1401      2.00000
     55       2.5303      2.00000
     56       2.6336      2.00000
     57       2.8234      2.00000
     58       2.8633      2.00000
     59       3.4525      2.00000
     60       3.4668      2.00000
     61       4.0041      2.00000
     62       4.0360      2.00000
     63       6.1147      0.00000
     64       6.1699      0.00000
     65       6.5879      0.00000
     66       6.6246      0.00000
     67       7.6447      0.00000
     68       7.6682      0.00000
     69       8.8138      0.00000
     70       8.8396      0.00000
     71       9.1620      0.00000
     72       9.1834      0.00000
     73       9.3879      0.00000
     74       9.4689      0.00000
     75       9.7774      0.00000
     76       9.8825      0.00000
     77      10.3174      0.00000
     78      10.3554      0.00000
     79      10.6787      0.00000
     80      10.7345      0.00000

 k-point    96 :       0.2778    0.1111    0.3333
  band No.  band energies     occupation 
      1     -11.1710      2.00000
      2     -11.1709      2.00000
      3     -10.8704      2.00000
      4     -10.8704      2.00000
      5     -10.7405      2.00000
      6     -10.7404      2.00000
      7     -10.6598      2.00000
      8     -10.6598      2.00000
      9     -10.6078      2.00000
     10     -10.6077      2.00000
     11     -10.5600      2.00000
     12     -10.5599      2.00000
     13     -10.2700      2.00000
     14     -10.2699      2.00000
     15     -10.1672      2.00000
     16     -10.1672      2.00000
     17     -10.1256      2.00000
     18     -10.1255      2.00000
     19     -10.0886      2.00000
     20     -10.0885      2.00000
     21      -8.6777      2.00000
     22      -8.6727      2.00000
     23      -8.3419      2.00000
     24      -8.3313      2.00000
     25      -7.4998      2.00000
     26      -7.4877      2.00000
     27      -6.9468      2.00000
     28      -6.9403      2.00000
     29      -2.1175      2.00000
     30      -2.1019      2.00000
     31      -1.5253      2.00000
     32      -1.5029      2.00000
     33      -1.4074      2.00000
     34      -1.3982      2.00000
     35      -1.3825      2.00000
     36      -1.3696      2.00000
     37      -1.2046      2.00000
     38      -1.1928      2.00000
     39      -1.1114      2.00000
     40      -1.1102      2.00000
     41      -1.0521      2.00000
     42      -1.0293      2.00000
     43      -0.0360      2.00000
     44       0.0240      2.00000
     45       0.4451      2.00000
     46       0.4957      2.00000
     47       0.7296      2.00000
     48       0.7729      2.00000
     49       0.9767      2.00000
     50       1.0173      2.00000
     51       1.2742      2.00000
     52       1.4060      2.00000
     53       1.8638      2.00000
     54       1.9663      2.00000
     55       2.4024      2.00000
     56       2.5154      2.00000
     57       2.7553      2.00000
     58       2.8215      2.00000
     59       3.2558      2.00000
     60       3.2703      2.00000
     61       3.9575      2.00000
     62       4.0071      2.00000
     63       6.0567      0.00000
     64       6.1131      0.00000
     65       6.4611      0.00000
     66       6.5021      0.00000
     67       7.4667      0.00000
     68       7.5047      0.00000
     69       8.8622      0.00000
     70       8.9035      0.00000
     71       9.2017      0.00000
     72       9.2625      0.00000
     73       9.4214      0.00000
     74       9.4934      0.00000
     75       9.7822      0.00000
     76       9.9462      0.00000
     77      10.4017      0.00000
     78      10.5623      0.00000
     79      10.7572      0.00000
     80      10.8013      0.00000

 k-point    97 :       0.3333    0.1111    0.3333
  band No.  band energies     occupation 
      1     -11.1989      2.00000
      2     -11.1989      2.00000
      3     -10.8742      2.00000
      4     -10.8741      2.00000
      5     -10.7350      2.00000
      6     -10.7350      2.00000
      7     -10.6649      2.00000
      8     -10.6649      2.00000
      9     -10.6036      2.00000
     10     -10.6035      2.00000
     11     -10.5873      2.00000
     12     -10.5872      2.00000
     13     -10.2692      2.00000
     14     -10.2692      2.00000
     15     -10.1720      2.00000
     16     -10.1719      2.00000
     17     -10.1118      2.00000
     18     -10.1118      2.00000
     19     -10.0826      2.00000
     20     -10.0826      2.00000
     21      -8.4586      2.00000
     22      -8.4543      2.00000
     23      -8.1802      2.00000
     24      -8.1721      2.00000
     25      -7.4192      2.00000
     26      -7.4122      2.00000
     27      -6.8692      2.00000
     28      -6.8662      2.00000
     29      -2.2787      2.00000
     30      -2.2734      2.00000
     31      -1.7125      2.00000
     32      -1.6944      2.00000
     33      -1.4053      2.00000
     34      -1.3971      2.00000
     35      -1.3668      2.00000
     36      -1.3616      2.00000
     37      -1.2323      2.00000
     38      -1.2259      2.00000
     39      -1.1234      2.00000
     40      -1.1183      2.00000
     41      -1.0473      2.00000
     42      -1.0363      2.00000
     43      -0.1833      2.00000
     44      -0.1408      2.00000
     45       0.2585      2.00000
     46       0.3074      2.00000
     47       0.4902      2.00000
     48       0.5575      2.00000
     49       0.8055      2.00000
     50       0.8454      2.00000
     51       1.2160      2.00000
     52       1.3291      2.00000
     53       1.7088      2.00000
     54       1.8489      2.00000
     55       2.3058      2.00000
     56       2.3953      2.00000
     57       2.7294      2.00000
     58       2.8099      2.00000
     59       3.1137      2.00000
     60       3.1256      2.00000
     61       3.9087      2.00000
     62       3.9601      2.00000
     63       5.9512      0.00000
     64       6.0160      0.00000
     65       6.3616      0.00000
     66       6.4128      0.00000
     67       7.3419      0.00000
     68       7.3925      0.00000
     69       8.8194      0.00000
     70       8.9049      0.00000
     71       9.0971      0.00000
     72       9.2055      0.00000
     73       9.4165      0.00000
     74       9.4561      0.00000
     75       9.7645      0.00000
     76       9.8708      0.00000
     77      10.4217      0.00000
     78      10.5980      0.00000
     79      10.8528      0.00000
     80      11.0136      0.00000

 k-point    98 :       0.3889    0.1111    0.3333
  band No.  band energies     occupation 
      1     -11.2166      2.00000
      2     -11.2166      2.00000
      3     -10.8777      2.00000
      4     -10.8776      2.00000
      5     -10.7321      2.00000
      6     -10.7320      2.00000
      7     -10.6690      2.00000
      8     -10.6689      2.00000
      9     -10.6066      2.00000
     10     -10.6065      2.00000
     11     -10.5958      2.00000
     12     -10.5958      2.00000
     13     -10.2689      2.00000
     14     -10.2688      2.00000
     15     -10.1752      2.00000
     16     -10.1752      2.00000
     17     -10.1004      2.00000
     18     -10.1003      2.00000
     19     -10.0809      2.00000
     20     -10.0809      2.00000
     21      -8.2889      2.00000
     22      -8.2854      2.00000
     23      -8.0754      2.00000
     24      -8.0696      2.00000
     25      -7.3768      2.00000
     26      -7.3734      2.00000
     27      -6.8190      2.00000
     28      -6.8180      2.00000
     29      -2.4252      2.00000
     30      -2.4189      2.00000
     31      -1.8878      2.00000
     32      -1.8732      2.00000
     33      -1.3907      2.00000
     34      -1.3803      2.00000
     35      -1.3540      2.00000
     36      -1.3502      2.00000
     37      -1.2548      2.00000
     38      -1.2439      2.00000
     39      -1.1122      2.00000
     40      -1.1107      2.00000
     41      -0.9626      2.00000
     42      -0.9552      2.00000
     43      -0.3205      2.00000
     44      -0.2865      2.00000
     45       0.0510      2.00000
     46       0.1198      2.00000
     47       0.4118      2.00000
     48       0.4691      2.00000
     49       0.7125      2.00000
     50       0.7457      2.00000
     51       1.2027      2.00000
     52       1.3096      2.00000
     53       1.6263      2.00000
     54       1.7428      2.00000
     55       2.2447      2.00000
     56       2.3026      2.00000
     57       2.7276      2.00000
     58       2.8187      2.00000
     59       3.0279      2.00000
     60       3.0351      2.00000
     61       3.8659      2.00000
     62       3.9221      2.00000
     63       5.8683      0.00000
     64       5.9379      0.00000
     65       6.2963      0.00000
     66       6.3520      0.00000
     67       7.2707      0.00000
     68       7.3306      0.00000
     69       8.7828      0.00000
     70       8.8807      0.00000
     71       9.0159      0.00000
     72       9.1217      0.00000
     73       9.3839      0.00000
     74       9.4213      0.00000
     75       9.6942      0.00000
     76       9.8231      0.00000
     77      10.4106      0.00000
     78      10.5403      0.00000
     79      10.8579      0.00000
     80      11.0467      0.00000

 k-point    99 :       0.4444    0.1111    0.3333
  band No.  band energies     occupation 
      1     -11.2227      2.00000
      2     -11.2226      2.00000
      3     -10.8791      2.00000
      4     -10.8790      2.00000
      5     -10.7311      2.00000
      6     -10.7311      2.00000
      7     -10.6706      2.00000
      8     -10.6705      2.00000
      9     -10.6104      2.00000
     10     -10.6103      2.00000
     11     -10.5953      2.00000
     12     -10.5953      2.00000
     13     -10.2688      2.00000
     14     -10.2687      2.00000
     15     -10.1764      2.00000
     16     -10.1763      2.00000
     17     -10.0952      2.00000
     18     -10.0951      2.00000
     19     -10.0815      2.00000
     20     -10.0815      2.00000
     21      -8.2202      2.00000
     22      -8.2171      2.00000
     23      -8.0425      2.00000
     24      -8.0379      2.00000
     25      -7.3649      2.00000
     26      -7.3627      2.00000
     27      -6.8018      2.00000
     28      -6.8013      2.00000
     29      -2.4835      2.00000
     30      -2.4753      2.00000
     31      -1.9518      2.00000
     32      -1.9381      2.00000
     33      -1.3865      2.00000
     34      -1.3748      2.00000
     35      -1.3494      2.00000
     36      -1.3468      2.00000
     37      -1.2613      2.00000
     38      -1.2498      2.00000
     39      -1.1071      2.00000
     40      -1.1065      2.00000
     41      -0.8993      2.00000
     42      -0.8976      2.00000
     43      -0.3973      2.00000
     44      -0.3677      2.00000
     45      -0.0278      2.00000
     46       0.0436      2.00000
     47       0.3978      2.00000
     48       0.4456      2.00000
     49       0.6832      2.00000
     50       0.7117      2.00000
     51       1.2203      2.00000
     52       1.3020      2.00000
     53       1.6175      2.00000
     54       1.6749      2.00000
     55       2.2248      2.00000
     56       2.2661      2.00000
     57       2.7314      2.00000
     58       2.8262      2.00000
     59       2.9994      2.00000
     60       3.0030      2.00000
     61       3.8470      2.00000
     62       3.9089      2.00000
     63       5.8391      0.00000
     64       5.9081      0.00000
     65       6.2737      0.00000
     66       6.3293      0.00000
     67       7.2478      0.00000
     68       7.3112      0.00000
     69       8.7728      0.00000
     70       8.8620      0.00000
     71       9.0025      0.00000
     72       9.0761      0.00000
     73       9.3765      0.00000
     74       9.3988      0.00000
     75       9.6538      0.00000
     76       9.8161      0.00000
     77      10.4047      0.00000
     78      10.5127      0.00000
     79      10.8500      0.00000
     80      11.0590      0.00000

 k-point   100 :       0.1667    0.1667    0.3333
  band No.  band energies     occupation 
      1     -11.1303      2.00000
      2     -11.1302      2.00000
      3     -10.8666      2.00000
      4     -10.8666      2.00000
      5     -10.7506      2.00000
      6     -10.7505      2.00000
      7     -10.6521      2.00000
      8     -10.6521      2.00000
      9     -10.6146      2.00000
     10     -10.6146      2.00000
     11     -10.5072      2.00000
     12     -10.5071      2.00000
     13     -10.2845      2.00000
     14     -10.2844      2.00000
     15     -10.1519      2.00000
     16     -10.1518      2.00000
     17     -10.1504      2.00000
     18     -10.1504      2.00000
     19     -10.0984      2.00000
     20     -10.0983      2.00000
     21      -8.9298      2.00000
     22      -8.9243      2.00000
     23      -8.5424      2.00000
     24      -8.5297      2.00000
     25      -7.6282      2.00000
     26      -7.6105      2.00000
     27      -7.0516      2.00000
     28      -7.0406      2.00000
     29      -1.9954      2.00000
     30      -1.9656      2.00000
     31      -1.5152      2.00000
     32      -1.5079      2.00000
     33      -1.4276      2.00000
     34      -1.4274      2.00000
     35      -1.2911      2.00000
     36      -1.2602      2.00000
     37      -1.1861      2.00000
     38      -1.1525      2.00000
     39      -1.1162      2.00000
     40      -1.1151      2.00000
     41      -0.7474      2.00000
     42      -0.7447      2.00000
     43       0.2433      2.00000
     44       0.2451      2.00000
     45       0.6785      2.00000
     46       0.7039      2.00000
     47       0.9876      2.00000
     48       1.0031      2.00000
     49       1.1951      2.00000
     50       1.1989      2.00000
     51       1.3863      2.00000
     52       1.5672      2.00000
     53       2.2636      2.00000
     54       2.3611      2.00000
     55       2.4308      2.00000
     56       2.4435      2.00000
     57       2.8380      2.00000
     58       2.8457      2.00000
     59       3.3770      2.00000
     60       3.4009      2.00000
     61       4.0226      2.00000
     62       4.0548      2.00000
     63       6.1892      0.00000
     64       6.2428      0.00000
     65       6.6950      0.00000
     66       6.7258      0.00000
     67       7.9012      0.00000
     68       7.9094      0.00000
     69       8.6342      0.00000
     70       8.7397      0.00000
     71       9.1766      0.00000
     72       9.1937      0.00000
     73       9.4477      0.00000
     74       9.5078      0.00000
     75       9.7452      0.00000
     76       9.7751      0.00000
     77      10.3383      0.00000
     78      10.3968      0.00000
     79      10.7144      0.00000
     80      10.7667      0.00000

 k-point   101 :       0.2222    0.1667    0.3333
  band No.  band energies     occupation 
      1     -11.1630      2.00000
      2     -11.1630      2.00000
      3     -10.8684      2.00000
      4     -10.8684      2.00000
      5     -10.7440      2.00000
      6     -10.7440      2.00000
      7     -10.6552      2.00000
      8     -10.6552      2.00000
      9     -10.6126      2.00000
     10     -10.6126      2.00000
     11     -10.5408      2.00000
     12     -10.5407      2.00000
     13     -10.2949      2.00000
     14     -10.2948      2.00000
     15     -10.1555      2.00000
     16     -10.1554      2.00000
     17     -10.1387      2.00000
     18     -10.1386      2.00000
     19     -10.0895      2.00000
     20     -10.0894      2.00000
     21      -8.7049      2.00000
     22      -8.6998      2.00000
     23      -8.3600      2.00000
     24      -8.3490      2.00000
     25      -7.5209      2.00000
     26      -7.5079      2.00000
     27      -6.9600      2.00000
     28      -6.9529      2.00000
     29      -2.0695      2.00000
     30      -2.0507      2.00000
     31      -1.4991      2.00000
     32      -1.4856      2.00000
     33      -1.4015      2.00000
     34      -1.3961      2.00000
     35      -1.3565      2.00000
     36      -1.3446      2.00000
     37      -1.1980      2.00000
     38      -1.1768      2.00000
     39      -1.1075      2.00000
     40      -1.1064      2.00000
     41      -1.0008      2.00000
     42      -0.9902      2.00000
     43       0.0559      2.00000
     44       0.0882      2.00000
     45       0.4391      2.00000
     46       0.4834      2.00000
     47       0.6984      2.00000
     48       0.7289      2.00000
     49       0.9291      2.00000
     50       0.9627      2.00000
     51       1.2327      2.00000
     52       1.4187      2.00000
     53       2.0220      2.00000
     54       2.1281      2.00000
     55       2.2925      2.00000
     56       2.3726      2.00000
     57       2.7257      2.00000
     58       2.7830      2.00000
     59       3.1015      2.00000
     60       3.1371      2.00000
     61       3.9901      2.00000
     62       4.0425      2.00000
     63       6.2467      0.00000
     64       6.2907      0.00000
     65       6.6207      0.00000
     66       6.6464      0.00000
     67       7.8390      0.00000
     68       7.8498      0.00000
     69       8.7472      0.00000
     70       8.8133      0.00000
     71       9.3394      0.00000
     72       9.3741      0.00000
     73       9.5764      0.00000
     74       9.6582      0.00000
     75       9.8320      0.00000
     76       9.9130      0.00000
     77      10.4058      0.00000
     78      10.4620      0.00000
     79      10.7356      0.00000
     80      10.8052      0.00000

 k-point   102 :       0.2778    0.1667    0.3333
  band No.  band energies     occupation 
      1     -11.1907      2.00000
      2     -11.1907      2.00000
      3     -10.8699      2.00000
      4     -10.8699      2.00000
      5     -10.7397      2.00000
      6     -10.7396      2.00000
      7     -10.6578      2.00000
      8     -10.6578      2.00000
      9     -10.6101      2.00000
     10     -10.6100      2.00000
     11     -10.5675      2.00000
     12     -10.5674      2.00000
     13     -10.3025      2.00000
     14     -10.3024      2.00000
     15     -10.1601      2.00000
     16     -10.1600      2.00000
     17     -10.1254      2.00000
     18     -10.1253      2.00000
     19     -10.0845      2.00000
     20     -10.0844      2.00000
     21      -8.4786      2.00000
     22      -8.4743      2.00000
     23      -8.1865      2.00000
     24      -8.1779      2.00000
     25      -7.4414      2.00000
     26      -7.4335      2.00000
     27      -6.8794      2.00000
     28      -6.8760      2.00000
     29      -2.1933      2.00000
     30      -2.1861      2.00000
     31      -1.6182      2.00000
     32      -1.6022      2.00000
     33      -1.4028      2.00000
     34      -1.3972      2.00000
     35      -1.3664      2.00000
     36      -1.3603      2.00000
     37      -1.2098      2.00000
     38      -1.2021      2.00000
     39      -1.1327      2.00000
     40      -1.1267      2.00000
     41      -1.0507      2.00000
     42      -1.0440      2.00000
     43      -0.0904      2.00000
     44      -0.0533      2.00000
     45       0.2665      2.00000
     46       0.2889      2.00000
     47       0.4400      2.00000
     48       0.4767      2.00000
     49       0.6958      2.00000
     50       0.7665      2.00000
     51       1.1690      2.00000
     52       1.3041      2.00000
     53       1.7916      2.00000
     54       1.9311      2.00000
     55       2.1757      2.00000
     56       2.2768      2.00000
     57       2.6526      2.00000
     58       2.7630      2.00000
     59       2.9135      2.00000
     60       2.9473      2.00000
     61       3.9495      2.00000
     62       4.0010      2.00000
     63       6.2252      0.00000
     64       6.2625      0.00000
     65       6.5407      0.00000
     66       6.5736      0.00000
     67       7.7317      0.00000
     68       7.7505      0.00000
     69       8.7964      0.00000
     70       8.8355      0.00000
     71       9.3516      0.00000
     72       9.4257      0.00000
     73       9.6176      0.00000
     74       9.7231      0.00000
     75       9.9043      0.00000
     76      10.0127      0.00000
     77      10.4931      0.00000
     78      10.6224      0.00000
     79      10.8459      0.00000
     80      10.8628      0.00000

 k-point   103 :       0.3333    0.1667    0.3333
  band No.  band energies     occupation 
      1     -11.2105      2.00000
      2     -11.2105      2.00000
      3     -10.8715      2.00000
      4     -10.8714      2.00000
      5     -10.7372      2.00000
      6     -10.7371      2.00000
      7     -10.6602      2.00000
      8     -10.6602      2.00000
      9     -10.6072      2.00000
     10     -10.6072      2.00000
     11     -10.5855      2.00000
     12     -10.5854      2.00000
     13     -10.3075      2.00000
     14     -10.3074      2.00000
     15     -10.1636      2.00000
     16     -10.1635      2.00000
     17     -10.1119      2.00000
     18     -10.1119      2.00000
     19     -10.0844      2.00000
     20     -10.0844      2.00000
     21      -8.2796      2.00000
     22      -8.2761      2.00000
     23      -8.0537      2.00000
     24      -8.0476      2.00000
     25      -7.3983      2.00000
     26      -7.3944      2.00000
     27      -6.8201      2.00000
     28      -6.8191      2.00000
     29      -2.3296      2.00000
     30      -2.3254      2.00000
     31      -1.8095      2.00000
     32      -1.7954      2.00000
     33      -1.3840      2.00000
     34      -1.3802      2.00000
     35      -1.3535      2.00000
     36      -1.3476      2.00000
     37      -1.2307      2.00000
     38      -1.2259      2.00000
     39      -1.1318      2.00000
     40      -1.1289      2.00000
     41      -0.9805      2.00000
     42      -0.9745      2.00000
     43      -0.2139      2.00000
     44      -0.1810      2.00000
     45       0.0920      2.00000
     46       0.1309      2.00000
     47       0.2445      2.00000
     48       0.2790      2.00000
     49       0.5552      2.00000
     50       0.6492      2.00000
     51       1.1388      2.00000
     52       1.2805      2.00000
     53       1.6356      2.00000
     54       1.7850      2.00000
     55       2.0643      2.00000
     56       2.1533      2.00000
     57       2.6348      2.00000
     58       2.7242      2.00000
     59       2.8235      2.00000
     60       2.8545      2.00000
     61       3.9089      2.00000
     62       3.9527      2.00000
     63       6.1540      0.00000
     64       6.2008      0.00000
     65       6.4932      0.00000
     66       6.5326      0.00000
     67       7.6434      0.00000
     68       7.6667      0.00000
     69       8.7505      0.00000
     70       8.8523      0.00000
     71       9.3541      0.00000
     72       9.4129      0.00000
     73       9.5736      0.00000
     74       9.6570      0.00000
     75       9.9349      0.00000
     76       9.9937      0.00000
     77      10.5360      0.00000
     78      10.6346      0.00000
     79      10.8652      0.00000
     80      11.0085      0.00000

 k-point   104 :       0.3889    0.1667    0.3333
  band No.  band energies     occupation 
      1     -11.2208      2.00000
      2     -11.2208      2.00000
      3     -10.8726      2.00000
      4     -10.8726      2.00000
      5     -10.7361      2.00000
      6     -10.7360      2.00000
      7     -10.6618      2.00000
      8     -10.6618      2.00000
      9     -10.6044      2.00000
     10     -10.6043      2.00000
     11     -10.5953      2.00000
     12     -10.5952      2.00000
     13     -10.3100      2.00000
     14     -10.3099      2.00000
     15     -10.1655      2.00000
     16     -10.1654      2.00000
     17     -10.1001      2.00000
     18     -10.1001      2.00000
     19     -10.0891      2.00000
     20     -10.0890      2.00000
     21      -8.1510      2.00000
     22      -8.1480      2.00000
     23      -7.9889      2.00000
     24      -7.9845      2.00000
     25      -7.3845      2.00000
     26      -7.3827      2.00000
     27      -6.7891      2.00000
     28      -6.7888      2.00000
     29      -2.4195      2.00000
     30      -2.4119      2.00000
     31      -1.9241      2.00000
     32      -1.9111      2.00000
     33      -1.3759      2.00000
     34      -1.3706      2.00000
     35      -1.3471      2.00000
     36      -1.3424      2.00000
     37      -1.2433      2.00000
     38      -1.2359      2.00000
     39      -1.1214      2.00000
     40      -1.1205      2.00000
     41      -0.8883      2.00000
     42      -0.8844      2.00000
     43      -0.3311      2.00000
     44      -0.3000      2.00000
     45      -0.0023      2.00000
     46       0.0301      2.00000
     47       0.1541      2.00000
     48       0.1765      2.00000
     49       0.4894      2.00000
     50       0.5813      2.00000
     51       1.1682      2.00000
     52       1.2738      2.00000
     53       1.5991      2.00000
     54       1.6725      2.00000
     55       1.9889      2.00000
     56       2.0659      2.00000
     57       2.6320      2.00000
     58       2.6779      2.00000
     59       2.7746      2.00000
     60       2.8619      2.00000
     61       3.8779      2.00000
     62       3.9245      2.00000
     63       6.1057      0.00000
     64       6.1501      0.00000
     65       6.4769      0.00000
     66       6.5113      0.00000
     67       7.5957      0.00000
     68       7.6206      0.00000
     69       8.7195      0.00000
     70       8.8556      0.00000
     71       9.3431      0.00000
     72       9.4268      0.00000
     73       9.5173      0.00000
     74       9.5791      0.00000
     75       9.9331      0.00000
     76       9.9662      0.00000
     77      10.5472      0.00000
     78      10.5833      0.00000
     79      10.8571      0.00000
     80      11.0087      0.00000

 k-point   105 :       0.2222    0.2222    0.3333
  band No.  band energies     occupation 
      1     -11.1875      2.00000
      2     -11.1874      2.00000
      3     -10.8684      2.00000
      4     -10.8683      2.00000
      5     -10.7415      2.00000
      6     -10.7415      2.00000
      7     -10.6546      2.00000
      8     -10.6546      2.00000
      9     -10.6133      2.00000
     10     -10.6132      2.00000
     11     -10.5573      2.00000
     12     -10.5572      2.00000
     13     -10.3181      2.00000
     14     -10.3180      2.00000
     15     -10.1511      2.00000
     16     -10.1511      2.00000
     17     -10.1349      2.00000
     18     -10.1349      2.00000
     19     -10.0849      2.00000
     20     -10.0849      2.00000
     21      -8.4852      2.00000
     22      -8.4808      2.00000
     23      -8.1877      2.00000
     24      -8.1789      2.00000
     25      -7.4499      2.00000
     26      -7.4418      2.00000
     27      -6.8830      2.00000
     28      -6.8795      2.00000
     29      -2.1603      2.00000
     30      -2.1520      2.00000
     31      -1.5790      2.00000
     32      -1.5677      2.00000
     33      -1.4016      2.00000
     34      -1.3937      2.00000
     35      -1.3658      2.00000
     36      -1.3612      2.00000
     37      -1.2029      2.00000
     38      -1.1872      2.00000
     39      -1.1297      2.00000
     40      -1.1279      2.00000
     41      -1.0504      2.00000
     42      -1.0478      2.00000
     43      -0.0429      2.00000
     44      -0.0290      2.00000
     45       0.2447      2.00000
     46       0.2783      2.00000
     47       0.3828      2.00000
     48       0.4050      2.00000
     49       0.7278      2.00000
     50       0.7408      2.00000
     51       1.1734      2.00000
     52       1.2935      2.00000
     53       1.8438      2.00000
     54       1.9576      2.00000
     55       2.1436      2.00000
     56       2.1744      2.00000
     57       2.6259      2.00000
     58       2.7131      2.00000
     59       2.8528      2.00000
     60       2.8818      2.00000
     61       3.9640      2.00000
     62       4.0160      2.00000
     63       6.3532      0.00000
     64       6.3564      0.00000
     65       6.6160      0.00000
     66       6.6239      0.00000
     67       7.9534      0.00000
     68       7.9621      0.00000
     69       8.7108      0.00000
     70       8.7171      0.00000
     71       9.4583      0.00000
     72       9.5371      0.00000
     73       9.6816      0.00000
     74       9.7741      0.00000
     75      10.1694      0.00000
     76      10.2018      0.00000
     77      10.4590      0.00000
     78      10.4801      0.00000
     79      10.8529      0.00000
     80      10.8969      0.00000

 k-point   106 :       0.2778    0.2222    0.3333
  band No.  band energies     occupation 
      1     -11.2064      2.00000
      2     -11.2064      2.00000
      3     -10.8677      2.00000
      4     -10.8677      2.00000
      5     -10.7404      2.00000
      6     -10.7404      2.00000
      7     -10.6534      2.00000
      8     -10.6534      2.00000
      9     -10.6136      2.00000
     10     -10.6135      2.00000
     11     -10.5697      2.00000
     12     -10.5696      2.00000
     13     -10.3370      2.00000
     14     -10.3369      2.00000
     15     -10.1510      2.00000
     16     -10.1509      2.00000
     17     -10.1253      2.00000
     18     -10.1252      2.00000
     19     -10.0855      2.00000
     20     -10.0855      2.00000
     21      -8.2749      2.00000
     22      -8.2714      2.00000
     23      -8.0374      2.00000
     24      -8.0312      2.00000
     25      -7.4132      2.00000
     26      -7.4091      2.00000
     27      -6.8209      2.00000
     28      -6.8198      2.00000
     29      -2.2617      2.00000
     30      -2.2603      2.00000
     31      -1.7488      2.00000
     32      -1.7371      2.00000
     33      -1.3805      2.00000
     34      -1.3789      2.00000
     35      -1.3520      2.00000
     36      -1.3488      2.00000
     37      -1.2097      2.00000
     38      -1.2027      2.00000
     39      -1.1481      2.00000
     40      -1.1467      2.00000
     41      -0.9893      2.00000
     42      -0.9862      2.00000
     43      -0.1352      2.00000
     44      -0.1127      2.00000
     45       0.0450      2.00000
     46       0.0663      2.00000
     47       0.1285      2.00000
     48       0.1463      2.00000
     49       0.5715      2.00000
     50       0.6405      2.00000
     51       1.1478      2.00000
     52       1.2299      2.00000
     53       1.6316      2.00000
     54       1.7639      2.00000
     55       1.9926      2.00000
     56       2.0300      2.00000
     57       2.5227      2.00000
     58       2.5450      2.00000
     59       2.7625      2.00000
     60       2.8445      2.00000
     61       3.9331      2.00000
     62       3.9693      2.00000
     63       6.3482      0.00000
     64       6.3792      0.00000
     65       6.5953      0.00000
     66       6.6262      0.00000
     67       7.9459      0.00000
     68       7.9565      0.00000
     69       8.6373      0.00000
     70       8.7354      0.00000
     71       9.5204      0.00000
     72       9.6263      0.00000
     73       9.7921      0.00000
     74       9.8398      0.00000
     75      10.2924      0.00000
     76      10.3481      0.00000
     77      10.5920      0.00000
     78      10.7300      0.00000
     79      10.9623      0.00000
     80      11.1310      0.00000

 k-point   107 :       0.3333    0.2222    0.3333
  band No.  band energies     occupation 
      1     -11.2183      2.00000
      2     -11.2183      2.00000
      3     -10.8671      2.00000
      4     -10.8671      2.00000
      5     -10.7402      2.00000
      6     -10.7401      2.00000
      7     -10.6525      2.00000
      8     -10.6524      2.00000
      9     -10.6130      2.00000
     10     -10.6130      2.00000
     11     -10.5779      2.00000
     12     -10.5778      2.00000
     13     -10.3492      2.00000
     14     -10.3491      2.00000
     15     -10.1520      2.00000
     16     -10.1519      2.00000
     17     -10.1130      2.00000
     18     -10.1129      2.00000
     19     -10.0911      2.00000
     20     -10.0910      2.00000
     21      -8.1078      2.00000
     22      -8.1053      2.00000
     23      -7.9389      2.00000
     24      -7.9350      2.00000
     25      -7.4084      2.00000
     26      -7.4067      2.00000
     27      -6.7809      2.00000
     28      -6.7808      2.00000
     29      -2.3453      2.00000
     30      -2.3398      2.00000
     31      -1.8845      2.00000
     32      -1.8731      2.00000
     33      -1.3686      2.00000
     34      -1.3674      2.00000
     35      -1.3468      2.00000
     36      -1.3435      2.00000
     37      -1.2191      2.00000
     38      -1.2171      2.00000
     39      -1.1384      2.00000
     40      -1.1375      2.00000
     41      -0.8918      2.00000
     42      -0.8883      2.00000
     43      -0.2378      2.00000
     44      -0.2076      2.00000
     45      -0.0956      2.00000
     46      -0.0859      2.00000
     47      -0.0260      2.00000
     48      -0.0106      2.00000
     49       0.4608      2.00000
     50       0.5862      2.00000
     51       1.1317      2.00000
     52       1.2230      2.00000
     53       1.5219      2.00000
     54       1.6540      2.00000
     55       1.8417      2.00000
     56       1.8958      2.00000
     57       2.4297      2.00000
     58       2.4417      2.00000
     59       2.7436      2.00000
     60       2.8796      2.00000
     61       3.9022      2.00000
     62       3.9293      2.00000
     63       6.3089      0.00000
     64       6.3351      0.00000
     65       6.6170      0.00000
     66       6.6366      0.00000
     67       7.9015      0.00000
     68       7.9090      0.00000
     69       8.5986      0.00000
     70       8.7523      0.00000
     71       9.5618      0.00000
     72       9.6759      0.00000
     73       9.7942      0.00000
     74       9.8447      0.00000
     75      10.2687      0.00000
     76      10.3439      0.00000
     77      10.6799      0.00000
     78      10.8056      0.00000
     79      11.0676      0.00000
     80      11.2000      0.00000

 k-point   108 :       0.3889    0.2222    0.3333
  band No.  band energies     occupation 
      1     -11.2224      2.00000
      2     -11.2224      2.00000
      3     -10.8669      2.00000
      4     -10.8668      2.00000
      5     -10.7402      2.00000
      6     -10.7401      2.00000
      7     -10.6522      2.00000
      8     -10.6521      2.00000
      9     -10.6125      2.00000
     10     -10.6124      2.00000
     11     -10.5809      2.00000
     12     -10.5808      2.00000
     13     -10.3534      2.00000
     14     -10.3533      2.00000
     15     -10.1524      2.00000
     16     -10.1524      2.00000
     17     -10.1025      2.00000
     18     -10.1024      2.00000
     19     -10.0992      2.00000
     20     -10.0991      2.00000
     21      -8.0378      2.00000
     22      -8.0357      2.00000
     23      -7.9085      2.00000
     24      -7.9056      2.00000
     25      -7.4126      2.00000
     26      -7.4118      2.00000
     27      -6.7672      2.00000
     28      -6.7672      2.00000
     29      -2.3769      2.00000
     30      -2.3699      2.00000
     31      -1.9347      2.00000
     32      -1.9239      2.00000
     33      -1.3658      2.00000
     34      -1.3648      2.00000
     35      -1.3447      2.00000
     36      -1.3418      2.00000
     37      -1.2235      2.00000
     38      -1.2212      2.00000
     39      -1.1322      2.00000
     40      -1.1321      2.00000
     41      -0.8317      2.00000
     42      -0.8290      2.00000
     43      -0.3152      2.00000
     44      -0.2849      2.00000
     45      -0.1305      2.00000
     46      -0.1263      2.00000
     47      -0.0702      2.00000
     48      -0.0556      2.00000
     49       0.4197      2.00000
     50       0.5602      2.00000
     51       1.1582      2.00000
     52       1.1789      2.00000
     53       1.5279      2.00000
     54       1.6252      2.00000
     55       1.7643      2.00000
     56       1.8386      2.00000
     57       2.3963      2.00000
     58       2.4011      2.00000
     59       2.7488      2.00000
     60       2.8963      2.00000
     61       3.8860      2.00000
     62       3.9162      2.00000
     63       6.2901      0.00000
     64       6.3101      0.00000
     65       6.6297      0.00000
     66       6.6416      0.00000
     67       7.8823      0.00000
     68       7.8842      0.00000
     69       8.5885      0.00000
     70       8.7590      0.00000
     71       9.5739      0.00000
     72       9.7263      0.00000
     73       9.7297      0.00000
     74       9.8519      0.00000
     75      10.2500      0.00000
     76      10.3329      0.00000
     77      10.6797      0.00000
     78      10.8166      0.00000
     79      11.0813      0.00000
     80      11.2040      0.00000

 k-point   109 :       0.2778    0.2778    0.3333
  band No.  band energies     occupation 
      1     -11.2173      2.00000
      2     -11.2172      2.00000
      3     -10.8650      2.00000
      4     -10.8649      2.00000
      5     -10.7418      2.00000
      6     -10.7417      2.00000
      7     -10.6476      2.00000
      8     -10.6476      2.00000
      9     -10.6178      2.00000
     10     -10.6178      2.00000
     11     -10.5685      2.00000
     12     -10.5685      2.00000
     13     -10.3666      2.00000
     14     -10.3665      2.00000
     15     -10.1424      2.00000
     16     -10.1424      2.00000
     17     -10.1227      2.00000
     18     -10.1226      2.00000
     19     -10.0914      2.00000
     20     -10.0914      2.00000
     21      -8.0939      2.00000
     22      -8.0916      2.00000
     23      -7.9172      2.00000
     24      -7.9135      2.00000
     25      -7.4197      2.00000
     26      -7.4181      2.00000
     27      -6.7781      2.00000
     28      -6.7780      2.00000
     29      -2.3114      2.00000
     30      -2.3074      2.00000
     31      -1.8649      2.00000
     32      -1.8548      2.00000
     33      -1.3655      2.00000
     34      -1.3652      2.00000
     35      -1.3476      2.00000
     36      -1.3468      2.00000
     37      -1.2068      2.00000
     38      -1.2017      2.00000
     39      -1.1489      2.00000
     40      -1.1485      2.00000
     41      -0.8954      2.00000
     42      -0.8922      2.00000
     43      -0.1957      2.00000
     44      -0.1753      2.00000
     45      -0.1503      2.00000
     46      -0.1164      2.00000
     47      -0.1127      2.00000
     48      -0.1006      2.00000
     49       0.5068      2.00000
     50       0.6141      2.00000
     51       1.1347      2.00000
     52       1.1541      2.00000
     53       1.4773      2.00000
     54       1.6233      2.00000
     55       1.8102      2.00000
     56       1.8453      2.00000
     57       2.3363      2.00000
     58       2.3563      2.00000
     59       2.7446      2.00000
     60       2.8873      2.00000
     61       3.9138      2.00000
     62       3.9277      2.00000
     63       6.3799      0.00000
     64       6.4006      0.00000
     65       6.6682      0.00000
     66       6.6857      0.00000
     67       8.0105      0.00000
     68       8.0215      0.00000
     69       8.5540      0.00000
     70       8.7224      0.00000
     71       9.6866      0.00000
     72       9.7221      0.00000
     73       9.8858      0.00000
     74       9.9648      0.00000
     75      10.5640      0.00000
     76      10.6495      0.00000
     77      10.7457      0.00000
     78      10.8481      0.00000
     79      11.1334      0.00000
     80      11.2510      0.00000

 k-point   110 :       0.3333    0.2778    0.3333
  band No.  band energies     occupation 
      1     -11.2228      2.00000
      2     -11.2227      2.00000
      3     -10.8631      2.00000
      4     -10.8630      2.00000
      5     -10.7427      2.00000
      6     -10.7427      2.00000
      7     -10.6428      2.00000
      8     -10.6428      2.00000
      9     -10.6217      2.00000
     10     -10.6216      2.00000
     11     -10.5665      2.00000
     12     -10.5664      2.00000
     13     -10.3841      2.00000
     14     -10.3840      2.00000
     15     -10.1384      2.00000
     16     -10.1383      2.00000
     17     -10.1157      2.00000
     18     -10.1157      2.00000
     19     -10.0998      2.00000
     20     -10.0998      2.00000
     21      -7.9786      2.00000
     22      -7.9775      2.00000
     23      -7.8473      2.00000
     24      -7.8459      2.00000
     25      -7.4430      2.00000
     26      -7.4427      2.00000
     27      -6.7558      2.00000
     28      -6.7557      2.00000
     29      -2.3338      2.00000
     30      -2.3292      2.00000
     31      -1.9333      2.00000
     32      -1.9260      2.00000
     33      -1.3608      2.00000
     34      -1.3602      2.00000
     35      -1.3473      2.00000
     36      -1.3467      2.00000
     37      -1.2060      2.00000
     38      -1.2041      2.00000
     39      -1.1426      2.00000
     40      -1.1422      2.00000
     41      -0.8065      2.00000
     42      -0.8045      2.00000
     43      -0.3102      2.00000
     44      -0.3076      2.00000
     45      -0.2846      2.00000
     46      -0.2436      2.00000
     47      -0.1486      2.00000
     48      -0.1413      2.00000
     49       0.4785      2.00000
     50       0.6322      2.00000
     51       1.0558      2.00000
     52       1.0785      2.00000
     53       1.4652      2.00000
     54       1.5750      2.00000
     55       1.6489      2.00000
     56       1.7749      2.00000
     57       2.2316      2.00000
     58       2.2446      2.00000
     59       2.7621      2.00000
     60       2.9205      2.00000
     61       3.8939      2.00000
     62       3.9043      2.00000
     63       6.3722      0.00000
     64       6.3797      0.00000
     65       6.7248      0.00000
     66       6.7293      0.00000
     67       8.0042      0.00000
     68       8.0098      0.00000
     69       8.5293      0.00000
     70       8.7334      0.00000
     71       9.7480      0.00000
     72       9.8175      0.00000
     73       9.8831      0.00000
     74      10.0559      0.00000
     75      10.5892      0.00000
     76      10.6331      0.00000
     77      10.9303      0.00000
     78      11.0256      0.00000
     79      11.3925      0.00000
     80      11.4509      0.00000

 k-point   111 :       0.3333    0.3333    0.3333
  band No.  band energies     occupation 
      1     -11.2242      2.00000
      2     -11.2242      2.00000
      3     -10.8614      2.00000
      4     -10.8614      2.00000
      5     -10.7437      2.00000
      6     -10.7437      2.00000
      7     -10.6332      2.00000
      8     -10.6331      2.00000
      9     -10.6311      2.00000
     10     -10.6310      2.00000
     11     -10.5604      2.00000
     12     -10.5603      2.00000
     13     -10.3985      2.00000
     14     -10.3985      2.00000
     15     -10.1273      2.00000
     16     -10.1272      2.00000
     17     -10.1220      2.00000
     18     -10.1220      2.00000
     19     -10.1040      2.00000
     20     -10.1039      2.00000
     21      -7.9316      2.00000
     22      -7.9314      2.00000
     23      -7.8046      2.00000
     24      -7.8045      2.00000
     25      -7.4669      2.00000
     26      -7.4667      2.00000
     27      -6.7471      2.00000
     28      -6.7471      2.00000
     29      -2.3220      2.00000
     30      -2.3219      2.00000
     31      -1.9485      2.00000
     32      -1.9484      2.00000
     33      -1.3587      2.00000
     34      -1.3577      2.00000
     35      -1.3491      2.00000
     36      -1.3491      2.00000
     37      -1.1994      2.00000
     38      -1.1994      2.00000
     39      -1.1434      2.00000
     40      -1.1434      2.00000
     41      -0.7680      2.00000
     42      -0.7680      2.00000
     43      -0.3920      2.00000
     44      -0.3920      2.00000
     45      -0.3242      2.00000
     46      -0.2805      2.00000
     47      -0.1697      2.00000
     48      -0.1697      2.00000
     49       0.5174      2.00000
     50       0.6984      2.00000
     51       0.9720      2.00000
     52       0.9720      2.00000
     53       1.5133      2.00000
     54       1.5261      2.00000
     55       1.5262      2.00000
     56       1.7862      2.00000
     57       2.1605      2.00000
     58       2.1606      2.00000
     59       2.7743      2.00000
     60       2.9370      2.00000
     61       3.8918      2.00000
     62       3.8918      2.00000
     63       6.3847      0.00000
     64       6.3847      0.00000
     65       6.7683      0.00000
     66       6.7684      0.00000
     67       8.0224      0.00000
     68       8.0225      0.00000
     69       8.5115      0.00000
     70       8.7351      0.00000
     71       9.8531      0.00000
     72       9.8804      0.00000
     73       9.8804      0.00000
     74      10.1369      0.00000
     75      10.7013      0.00000
     76      10.7014      0.00000
     77      11.1461      0.00000
     78      11.1541      0.00000
     79      11.4966      0.00000
     80      11.5117      0.00000

 k-point   112 :       0.0000    0.0000    0.5000
  band No.  band energies     occupation 
      1     -11.0011      2.00000
      2     -11.0011      2.00000
      3     -10.7989      2.00000
      4     -10.7989      2.00000
      5     -10.7989      2.00000
      6     -10.7989      2.00000
      7     -10.6208      2.00000
      8     -10.6208      2.00000
      9     -10.6208      2.00000
     10     -10.6208      2.00000
     11     -10.2755      2.00000
     12     -10.2755      2.00000
     13     -10.2754      2.00000
     14     -10.2754      2.00000
     15     -10.2564      2.00000
     16     -10.2563      2.00000
     17     -10.1235      2.00000
     18     -10.1235      2.00000
     19     -10.1234      2.00000
     20     -10.1234      2.00000
     21      -9.7260      2.00000
     22      -9.7259      2.00000
     23      -9.1386      2.00000
     24      -9.1386      2.00000
     25      -8.1642      2.00000
     26      -8.1642      2.00000
     27      -7.4151      2.00000
     28      -7.4151      2.00000
     29      -2.0566      2.00000
     30      -2.0565      2.00000
     31      -1.5674      2.00000
     32      -1.5674      2.00000
     33      -1.5674      2.00000
     34      -1.5674      2.00000
     35      -1.2312      2.00000
     36      -1.2312      2.00000
     37      -1.1224      2.00000
     38      -1.1224      2.00000
     39      -1.1224      2.00000
     40      -1.1224      2.00000
     41       0.1367      2.00000
     42       0.1367      2.00000
     43       1.7710      2.00000
     44       1.7710      2.00000
     45       2.0646      2.00000
     46       2.0646      2.00000
     47       2.0646      2.00000
     48       2.0647      2.00000
     49       2.7042      2.00000
     50       2.7042      2.00000
     51       2.7043      2.00000
     52       2.7043      2.00000
     53       2.9861      2.00000
     54       2.9861      2.00000
     55       2.9862      2.00000
     56       2.9862      2.00000
     57       3.5035      2.00000
     58       3.5035      2.00000
     59       4.5045      2.00000
     60       4.5045      2.00000
     61       4.5045      2.00000
     62       4.5045      2.00000
     63       5.1492      0.00000
     64       5.1492      0.00000
     65       6.2468      0.00000
     66       6.2469      0.00000
     67       7.2191      0.00000
     68       7.2192      0.00000
     69       7.7861      0.00000
     70       7.7861      0.00000
     71       8.9903      0.00000
     72       8.9903      0.00000
     73       8.9904      0.00000
     74       8.9904      0.00000
     75       9.0448      0.00000
     76       9.0448      0.00000
     77       9.6008      0.00000
     78       9.6009      0.00000
     79       9.6009      0.00000
     80       9.6009      0.00000

 k-point   113 :       0.0556    0.0000    0.5000
  band No.  band energies     occupation 
      1     -11.0046      2.00000
      2     -11.0046      2.00000
      3     -10.8082      2.00000
      4     -10.8081      2.00000
      5     -10.7960      2.00000
      6     -10.7960      2.00000
      7     -10.6237      2.00000
      8     -10.6237      2.00000
      9     -10.6206      2.00000
     10     -10.6206      2.00000
     11     -10.2957      2.00000
     12     -10.2956      2.00000
     13     -10.2730      2.00000
     14     -10.2730      2.00000
     15     -10.2446      2.00000
     16     -10.2446      2.00000
     17     -10.1263      2.00000
     18     -10.1262      2.00000
     19     -10.1230      2.00000
     20     -10.1230      2.00000
     21      -9.6876      2.00000
     22      -9.6876      2.00000
     23      -9.1148      2.00000
     24      -9.1147      2.00000
     25      -8.1350      2.00000
     26      -8.1350      2.00000
     27      -7.3979      2.00000
     28      -7.3979      2.00000
     29      -2.0452      2.00000
     30      -2.0451      2.00000
     31      -1.5673      2.00000
     32      -1.5673      2.00000
     33      -1.5608      2.00000
     34      -1.5608      2.00000
     35      -1.2284      2.00000
     36      -1.2284      2.00000
     37      -1.1252      2.00000
     38      -1.1252      2.00000
     39      -1.1226      2.00000
     40      -1.1225      2.00000
     41       0.1282      2.00000
     42       0.1282      2.00000
     43       1.7004      2.00000
     44       1.7004      2.00000
     45       1.9330      2.00000
     46       1.9331      2.00000
     47       2.0244      2.00000
     48       2.0244      2.00000
     49       2.4940      2.00000
     50       2.4940      2.00000
     51       2.6204      2.00000
     52       2.6204      2.00000
     53       2.8952      2.00000
     54       2.8952      2.00000
     55       3.0225      2.00000
     56       3.0226      2.00000
     57       3.6095      2.00000
     58       3.6096      2.00000
     59       4.3080      2.00000
     60       4.3080      2.00000
     61       4.4604      2.00000
     62       4.4604      2.00000
     63       5.2861      0.00000
     64       5.2861      0.00000
     65       6.3459      0.00000
     66       6.3459      0.00000
     67       7.3761      0.00000
     68       7.3762      0.00000
     69       7.9243      0.00000
     70       7.9243      0.00000
     71       8.7506      0.00000
     72       8.7506      0.00000
     73       9.0441      0.00000
     74       9.0441      0.00000
     75       9.1427      0.00000
     76       9.1428      0.00000
     77       9.5998      0.00000
     78       9.5998      0.00000
     79       9.6788      0.00000
     80       9.6788      0.00000

 k-point   114 :       0.1111    0.0000    0.5000
  band No.  band energies     occupation 
      1     -11.0175      2.00000
      2     -11.0175      2.00000
      3     -10.8294      2.00000
      4     -10.8293      2.00000
      5     -10.7878      2.00000
      6     -10.7878      2.00000
      7     -10.6308      2.00000
      8     -10.6307      2.00000
      9     -10.6199      2.00000
     10     -10.6198      2.00000
     11     -10.3398      2.00000
     12     -10.3397      2.00000
     13     -10.2662      2.00000
     14     -10.2662      2.00000
     15     -10.2248      2.00000
     16     -10.2247      2.00000
     17     -10.1327      2.00000
     18     -10.1326      2.00000
     19     -10.1215      2.00000
     20     -10.1214      2.00000
     21      -9.5799      2.00000
     22      -9.5799      2.00000
     23      -9.0436      2.00000
     24      -9.0435      2.00000
     25      -8.0527      2.00000
     26      -8.0526      2.00000
     27      -7.3479      2.00000
     28      -7.3479      2.00000
     29      -2.0150      2.00000
     30      -2.0150      2.00000
     31      -1.5659      2.00000
     32      -1.5659      2.00000
     33      -1.5418      2.00000
     34      -1.5418      2.00000
     35      -1.2220      2.00000
     36      -1.2220      2.00000
     37      -1.1323      2.00000
     38      -1.1323      2.00000
     39      -1.1227      2.00000
     40      -1.1227      2.00000
     41       0.0847      2.00000
     42       0.0847      2.00000
     43       1.3631      2.00000
     44       1.3631      2.00000
     45       1.7385      2.00000
     46       1.7385      2.00000
     47       1.9120      2.00000
     48       1.9121      2.00000
     49       2.1207      2.00000
     50       2.1208      2.00000
     51       2.4410      2.00000
     52       2.4411      2.00000
     53       2.6259      2.00000
     54       2.6259      2.00000
     55       3.0679      2.00000
     56       3.0679      2.00000
     57       3.6955      2.00000
     58       3.6955      2.00000
     59       3.9577      2.00000
     60       3.9577      2.00000
     61       4.3372      2.00000
     62       4.3372      2.00000
     63       5.5522      0.00000
     64       5.5522      0.00000
     65       6.5632      0.00000
     66       6.5633      0.00000
     67       7.7239      0.00000
     68       7.7240      0.00000
     69       8.1537      0.00000
     70       8.1537      0.00000
     71       8.5654      0.00000
     72       8.5654      0.00000
     73       9.0805      0.00000
     74       9.0805      0.00000
     75       9.1898      0.00000
     76       9.1898      0.00000
     77       9.7333      0.00000
     78       9.7333      0.00000
     79       9.8995      0.00000
     80       9.8995      0.00000

 k-point   115 :       0.1667    0.0000    0.5000
  band No.  band energies     occupation 
      1     -11.0441      2.00000
      2     -11.0441      2.00000
      3     -10.8492      2.00000
      4     -10.8492      2.00000
      5     -10.7758      2.00000
      6     -10.7758      2.00000
      7     -10.6392      2.00000
      8     -10.6391      2.00000
      9     -10.6182      2.00000
     10     -10.6182      2.00000
     11     -10.3987      2.00000
     12     -10.3986      2.00000
     13     -10.2568      2.00000
     14     -10.2567      2.00000
     15     -10.2021      2.00000
     16     -10.2021      2.00000
     17     -10.1392      2.00000
     18     -10.1391      2.00000
     19     -10.1180      2.00000
     20     -10.1180      2.00000
     21      -9.4178      2.00000
     22      -9.4177      2.00000
     23      -8.9271      2.00000
     24      -8.9271      2.00000
     25      -7.9307      2.00000
     26      -7.9306      2.00000
     27      -7.2702      2.00000
     28      -7.2702      2.00000
     29      -1.9785      2.00000
     30      -1.9784      2.00000
     31      -1.5599      2.00000
     32      -1.5599      2.00000
     33      -1.5124      2.00000
     34      -1.5124      2.00000
     35      -1.2190      2.00000
     36      -1.2190      2.00000
     37      -1.1410      2.00000
     38      -1.1410      2.00000
     39      -1.1224      2.00000
     40      -1.1224      2.00000
     41      -0.0548      2.00000
     42      -0.0548      2.00000
     43       0.8994      2.00000
     44       0.8994      2.00000
     45       1.4153      2.00000
     46       1.4153      2.00000
     47       1.7490      2.00000
     48       1.7490      2.00000
     49       1.8629      2.00000
     50       1.8630      2.00000
     51       2.2273      2.00000
     52       2.2274      2.00000
     53       2.2847      2.00000
     54       2.2847      2.00000
     55       3.0826      2.00000
     56       3.0827      2.00000
     57       3.3327      2.00000
     58       3.3327      2.00000
     59       3.9482      2.00000
     60       3.9482      2.00000
     61       4.1593      2.00000
     62       4.1593      2.00000
     63       5.8047      0.00000
     64       5.8047      0.00000
     65       6.6912      0.00000
     66       6.6912      0.00000
     67       7.7964      0.00000
     68       7.7965      0.00000
     69       8.3119      0.00000
     70       8.3120      0.00000
     71       8.7528      0.00000
     72       8.7528      0.00000
     73       9.1674      0.00000
     74       9.1674      0.00000
     75       9.3836      0.00000
     76       9.3836      0.00000
     77       9.9960      0.00000
     78       9.9964      0.00000
     79      10.2252      0.00000
     80      10.2282      0.00000

 k-point   116 :       0.2222    0.0000    0.5000
  band No.  band energies     occupation 
      1     -11.0830      2.00000
      2     -11.0830      2.00000
      3     -10.8607      2.00000
      4     -10.8607      2.00000
      5     -10.7620      2.00000
      6     -10.7620      2.00000
      7     -10.6477      2.00000
      8     -10.6476      2.00000
      9     -10.6150      2.00000
     10     -10.6150      2.00000
     11     -10.4625      2.00000
     12     -10.4624      2.00000
     13     -10.2469      2.00000
     14     -10.2468      2.00000
     15     -10.1827      2.00000
     16     -10.1826      2.00000
     17     -10.1418      2.00000
     18     -10.1417      2.00000
     19     -10.1119      2.00000
     20     -10.1119      2.00000
     21      -9.2159      2.00000
     22      -9.2159      2.00000
     23      -8.7715      2.00000
     24      -8.7715      2.00000
     25      -7.7871      2.00000
     26      -7.7871      2.00000
     27      -7.1732      2.00000
     28      -7.1732      2.00000
     29      -1.9587      2.00000
     30      -1.9586      2.00000
     31      -1.5453      2.00000
     32      -1.5453      2.00000
     33      -1.4760      2.00000
     34      -1.4760      2.00000
     35      -1.2295      2.00000
     36      -1.2295      2.00000
     37      -1.1532      2.00000
     38      -1.1532      2.00000
     39      -1.1208      2.00000
     40      -1.1208      2.00000
     41      -0.3587      2.00000
     42      -0.3586      2.00000
     43       0.4941      2.00000
     44       0.4941      2.00000
     45       1.0511      2.00000
     46       1.0511      2.00000
     47       1.5617      2.00000
     48       1.5618      2.00000
     49       1.6363      2.00000
     50       1.6363      2.00000
     51       1.9711      2.00000
     52       1.9712      2.00000
     53       2.0075      2.00000
     54       2.0075      2.00000
     55       2.9453      2.00000
     56       2.9453      2.00000
     57       3.0669      2.00000
     58       3.0670      2.00000
     59       3.9566      2.00000
     60       3.9566      2.00000
     61       3.9784      2.00000
     62       3.9785      2.00000
     63       5.9551      0.00000
     64       5.9552      0.00000
     65       6.6019      0.00000
     66       6.6020      0.00000
     67       7.5752      0.00000
     68       7.5752      0.00000
     69       8.5105      0.00000
     70       8.5106      0.00000
     71       9.0014      0.00000
     72       9.0014      0.00000
     73       9.5190      0.00000
     74       9.5191      0.00000
     75       9.5657      0.00000
     76       9.5657      0.00000
     77      10.2144      0.00000
     78      10.2154      0.00000
     79      10.5966      0.00000
     80      10.6135      0.00000

 k-point   117 :       0.2778    0.0000    0.5000
  band No.  band energies     occupation 
      1     -11.1264      2.00000
      2     -11.1263      2.00000
      3     -10.8668      2.00000
      4     -10.8667      2.00000
      5     -10.7489      2.00000
      6     -10.7488      2.00000
      7     -10.6559      2.00000
      8     -10.6558      2.00000
      9     -10.6099      2.00000
     10     -10.6098      2.00000
     11     -10.5215      2.00000
     12     -10.5214      2.00000
     13     -10.2387      2.00000
     14     -10.2386      2.00000
     15     -10.1753      2.00000
     16     -10.1752      2.00000
     17     -10.1336      2.00000
     18     -10.1336      2.00000
     19     -10.1029      2.00000
     20     -10.1029      2.00000
     21      -8.9887      2.00000
     22      -8.9887      2.00000
     23      -8.5894      2.00000
     24      -8.5893      2.00000
     25      -7.6416      2.00000
     26      -7.6416      2.00000
     27      -7.0684      2.00000
     28      -7.0684      2.00000
     29      -1.9915      2.00000
     30      -1.9914      2.00000
     31      -1.5211      2.00000
     32      -1.5211      2.00000
     33      -1.4374      2.00000
     34      -1.4374      2.00000
     35      -1.2709      2.00000
     36      -1.2709      2.00000
     37      -1.1761      2.00000
     38      -1.1761      2.00000
     39      -1.1172      2.00000
     40      -1.1172      2.00000
     41      -0.7555      2.00000
     42      -0.7555      2.00000
     43       0.1860      2.00000
     44       0.1860      2.00000
     45       0.7589      2.00000
     46       0.7590      2.00000
     47       1.3083      2.00000
     48       1.3083      2.00000
     49       1.3754      2.00000
     50       1.3754      2.00000
     51       1.7713      2.00000
     52       1.7713      2.00000
     53       1.8015      2.00000
     54       1.8016      2.00000
     55       2.6934      2.00000
     56       2.6935      2.00000
     57       3.0293      2.00000
     58       3.0293      2.00000
     59       3.7580      2.00000
     60       3.7580      2.00000
     61       3.9678      2.00000
     62       3.9678      2.00000
     63       5.9532      0.00000
     64       5.9532      0.00000
     65       6.4274      0.00000
     66       6.4275      0.00000
     67       7.3406      0.00000
     68       7.3406      0.00000
     69       8.6113      0.00000
     70       8.6114      0.00000
     71       9.0652      0.00000
     72       9.0652      0.00000
     73       9.6876      0.00000
     74       9.6876      0.00000
     75       9.8318      0.00000
     76       9.8319      0.00000
     77      10.3120      0.00000
     78      10.3148      0.00000
     79      10.9328      0.00000
     80      10.9842      0.00000

 k-point   118 :       0.3333    0.0000    0.5000
  band No.  band energies     occupation 
      1     -11.1662      2.00000
      2     -11.1662      2.00000
      3     -10.8720      2.00000
      4     -10.8719      2.00000
      5     -10.7383      2.00000
      6     -10.7383      2.00000
      7     -10.6636      2.00000
      8     -10.6636      2.00000
      9     -10.6031      2.00000
     10     -10.6031      2.00000
     11     -10.5683      2.00000
     12     -10.5683      2.00000
     13     -10.2331      2.00000
     14     -10.2331      2.00000
     15     -10.1776      2.00000
     16     -10.1775      2.00000
     17     -10.1187      2.00000
     18     -10.1186      2.00000
     19     -10.0921      2.00000
     20     -10.0921      2.00000
     21      -8.7536      2.00000
     22      -8.7535      2.00000
     23      -8.4016      2.00000
     24      -8.4015      2.00000
     25      -7.5140      2.00000
     26      -7.5139      2.00000
     27      -6.9690      2.00000
     28      -6.9690      2.00000
     29      -2.1110      2.00000
     30      -2.1110      2.00000
     31      -1.5190      2.00000
     32      -1.5190      2.00000
     33      -1.4019      2.00000
     34      -1.4019      2.00000
     35      -1.3838      2.00000
     36      -1.3837      2.00000
     37      -1.2037      2.00000
     38      -1.2037      2.00000
     39      -1.1109      2.00000
     40      -1.1109      2.00000
     41      -1.0346      2.00000
     42      -1.0345      2.00000
     43      -0.0277      2.00000
     44      -0.0276      2.00000
     45       0.5216      2.00000
     46       0.5216      2.00000
     47       0.9349      2.00000
     48       0.9349      2.00000
     49       1.2104      2.00000
     50       1.2105      2.00000
     51       1.6253      2.00000
     52       1.6253      2.00000
     53       1.6929      2.00000
     54       1.6929      2.00000
     55       2.5475      2.00000
     56       2.5475      2.00000
     57       2.9796      2.00000
     58       2.9796      2.00000
     59       3.5872      2.00000
     60       3.5872      2.00000
     61       3.9295      2.00000
     62       3.9295      2.00000
     63       5.8325      0.00000
     64       5.8325      0.00000
     65       6.2768      0.00000
     66       6.2769      0.00000
     67       7.1620      0.00000
     68       7.1621      0.00000
     69       8.5922      0.00000
     70       8.5922      0.00000
     71       8.9936      0.00000
     72       8.9937      0.00000
     73       9.7401      0.00000
     74       9.7401      0.00000
     75       9.7900      0.00000
     76       9.7901      0.00000
     77      10.4313      0.00000
     78      10.4314      0.00000
     79      11.0274      0.00000
     80      11.1183      0.00000

 k-point   119 :       0.3889    0.0000    0.5000
  band No.  band energies     occupation 
      1     -11.1974      2.00000
      2     -11.1974      2.00000
      3     -10.8780      2.00000
      4     -10.8780      2.00000
      5     -10.7311      2.00000
      6     -10.7310      2.00000
      7     -10.6708      2.00000
      8     -10.6708      2.00000
      9     -10.5994      2.00000
     10     -10.5993      2.00000
     11     -10.5961      2.00000
     12     -10.5961      2.00000
     13     -10.2300      2.00000
     14     -10.2300      2.00000
     15     -10.1817      2.00000
     16     -10.1817      2.00000
     17     -10.1053      2.00000
     18     -10.1053      2.00000
     19     -10.0817      2.00000
     20     -10.0817      2.00000
     21      -8.5348      2.00000
     22      -8.5347      2.00000
     23      -8.2374      2.00000
     24      -8.2374      2.00000
     25      -7.4203      2.00000
     26      -7.4202      2.00000
     27      -6.8879      2.00000
     28      -6.8879      2.00000
     29      -2.2970      2.00000
     30      -2.2970      2.00000
     31      -1.7077      2.00000
     32      -1.7077      2.00000
     33      -1.4108      2.00000
     34      -1.4108      2.00000
     35      -1.3742      2.00000
     36      -1.3742      2.00000
     37      -1.2392      2.00000
     38      -1.2392      2.00000
     39      -1.1030      2.00000
     40      -1.1030      2.00000
     41      -1.0661      2.00000
     42      -1.0661      2.00000
     43      -0.1939      2.00000
     44      -0.1938      2.00000
     45       0.2927      2.00000
     46       0.2928      2.00000
     47       0.6925      2.00000
     48       0.6925      2.00000
     49       1.0822      2.00000
     50       1.0822      2.00000
     51       1.4908      2.00000
     52       1.4908      2.00000
     53       1.6601      2.00000
     54       1.6601      2.00000
     55       2.4628      2.00000
     56       2.4628      2.00000
     57       2.9288      2.00000
     58       2.9288      2.00000
     59       3.4603      2.00000
     60       3.4604      2.00000
     61       3.8817      2.00000
     62       3.8817      2.00000
     63       5.6963      0.00000
     64       5.6964      0.00000
     65       6.1494      0.00000
     66       6.1495      0.00000
     67       7.0511      0.00000
     68       7.0512      0.00000
     69       8.5197      0.00000
     70       8.5197      0.00000
     71       8.8908      0.00000
     72       8.8909      0.00000
     73       9.6430      0.00000
     74       9.6430      0.00000
     75       9.7468      0.00000
     76       9.7468      0.00000
     77      10.3842      0.00000
     78      10.3843      0.00000
     79      11.0626      0.00000
     80      11.0990      0.00000

 k-point   120 :       0.4444    0.0000    0.5000
  band No.  band energies     occupation 
      1     -11.2172      2.00000
      2     -11.2171      2.00000
      3     -10.8835      2.00000
      4     -10.8834      2.00000
      5     -10.7270      2.00000
      6     -10.7270      2.00000
      7     -10.6764      2.00000
      8     -10.6764      2.00000
      9     -10.6156      2.00000
     10     -10.6156      2.00000
     11     -10.5908      2.00000
     12     -10.5907      2.00000
     13     -10.2286      2.00000
     14     -10.2286      2.00000
     15     -10.1848      2.00000
     16     -10.1848      2.00000
     17     -10.0967      2.00000
     18     -10.0966      2.00000
     19     -10.0743      2.00000
     20     -10.0742      2.00000
     21      -8.3681      2.00000
     22      -8.3681      2.00000
     23      -8.1293      2.00000
     24      -8.1292      2.00000
     25      -7.3674      2.00000
     26      -7.3673      2.00000
     27      -6.8354      2.00000
     28      -6.8354      2.00000
     29      -2.4628      2.00000
     30      -2.4628      2.00000
     31      -1.8942      2.00000
     32      -1.8941      2.00000
     33      -1.3964      2.00000
     34      -1.3964      2.00000
     35      -1.3571      2.00000
     36      -1.3571      2.00000
     37      -1.2618      2.00000
     38      -1.2618      2.00000
     39      -1.0961      2.00000
     40      -1.0961      2.00000
     41      -0.9859      2.00000
     42      -0.9858      2.00000
     43      -0.3456      2.00000
     44      -0.3456      2.00000
     45       0.0651      2.00000
     46       0.0651      2.00000
     47       0.6490      2.00000
     48       0.6491      2.00000
     49       1.0012      2.00000
     50       1.0012      2.00000
     51       1.4067      2.00000
     52       1.4067      2.00000
     53       1.6250      2.00000
     54       1.6250      2.00000
     55       2.4241      2.00000
     56       2.4242      2.00000
     57       2.8900      2.00000
     58       2.8901      2.00000
     59       3.3844      2.00000
     60       3.3844      2.00000
     61       3.8425      2.00000
     62       3.8425      2.00000
     63       5.6047      0.00000
     64       5.6047      0.00000
     65       6.0573      0.00000
     66       6.0573      0.00000
     67       6.9933      0.00000
     68       6.9933      0.00000
     69       8.4569      0.00000
     70       8.4569      0.00000
     71       8.8156      0.00000
     72       8.8156      0.00000
     73       9.5284      0.00000
     74       9.5284      0.00000
     75       9.7376      0.00000
     76       9.7376      0.00000
     77      10.2919      0.00000
     78      10.2920      0.00000
     79      11.0602      0.00000
     80      11.1667      0.00000

 k-point   121 :       0.5000    0.0000    0.5000
  band No.  band energies     occupation 
      1     -11.2239      2.00000
      2     -11.2239      2.00000
      3     -10.8857      2.00000
      4     -10.8856      2.00000
      5     -10.7258      2.00000
      6     -10.7257      2.00000
      7     -10.6786      2.00000
      8     -10.6786      2.00000
      9     -10.6204      2.00000
     10     -10.6204      2.00000
     11     -10.5888      2.00000
     12     -10.5887      2.00000
     13     -10.2282      2.00000
     14     -10.2282      2.00000
     15     -10.1859      2.00000
     16     -10.1859      2.00000
     17     -10.0938      2.00000
     18     -10.0937      2.00000
     19     -10.0716      2.00000
     20     -10.0715      2.00000
     21      -8.3024      2.00000
     22      -8.3023      2.00000
     23      -8.0939      2.00000
     24      -8.0938      2.00000
     25      -7.3512      2.00000
     26      -7.3511      2.00000
     27      -6.8172      2.00000
     28      -6.8172      2.00000
     29      -2.5279      2.00000
     30      -2.5278      2.00000
     31      -1.9617      2.00000
     32      -1.9616      2.00000
     33      -1.3915      2.00000
     34      -1.3915      2.00000
     35      -1.3514      2.00000
     36      -1.3514      2.00000
     37      -1.2687      2.00000
     38      -1.2687      2.00000
     39      -1.0932      2.00000
     40      -1.0932      2.00000
     41      -0.9245      2.00000
     42      -0.9245      2.00000
     43      -0.4264      2.00000
     44      -0.4264      2.00000
     45      -0.0278      2.00000
     46      -0.0278      2.00000
     47       0.6585      2.00000
     48       0.6585      2.00000
     49       0.9735      2.00000
     50       0.9735      2.00000
     51       1.3781      2.00000
     52       1.3781      2.00000
     53       1.6046      2.00000
     54       1.6046      2.00000
     55       2.4153      2.00000
     56       2.4153      2.00000
     57       2.8754      2.00000
     58       2.8754      2.00000
     59       3.3594      2.00000
     60       3.3594      2.00000
     61       3.8271      2.00000
     62       3.8271      2.00000
     63       5.5735      0.00000
     64       5.5735      0.00000
     65       6.0235      0.00000
     66       6.0235      0.00000
     67       6.9754      0.00000
     68       6.9755      0.00000
     69       8.4332      0.00000
     70       8.4332      0.00000
     71       8.7893      0.00000
     72       8.7894      0.00000
     73       9.4860      0.00000
     74       9.4861      0.00000
     75       9.7323      0.00000
     76       9.7324      0.00000
     77      10.2527      0.00000
     78      10.2527      0.00000
     79      11.0583      0.00000
     80      11.1282      0.00000

 k-point   122 :       0.0556    0.0556    0.5000
  band No.  band energies     occupation 
      1     -11.0128      2.00000
      2     -11.0128      2.00000
      3     -10.8233      2.00000
      4     -10.8232      2.00000
      5     -10.7905      2.00000
      6     -10.7905      2.00000
      7     -10.6286      2.00000
      8     -10.6285      2.00000
      9     -10.6202      2.00000
     10     -10.6202      2.00000
     11     -10.3248      2.00000
     12     -10.3248      2.00000
     13     -10.2709      2.00000
     14     -10.2709      2.00000
     15     -10.2294      2.00000
     16     -10.2293      2.00000
     17     -10.1308      2.00000
     18     -10.1307      2.00000
     19     -10.1221      2.00000
     20     -10.1220      2.00000
     21      -9.6147      2.00000
     22      -9.6147      2.00000
     23      -9.0672      2.00000
     24      -9.0671      2.00000
     25      -8.0793      2.00000
     26      -8.0793      2.00000
     27      -7.3643      2.00000
     28      -7.3643      2.00000
     29      -2.0244      2.00000
     30      -2.0243      2.00000
     31      -1.5666      2.00000
     32      -1.5666      2.00000
     33      -1.5480      2.00000
     34      -1.5480      2.00000
     35      -1.2238      2.00000
     36      -1.2238      2.00000
     37      -1.1301      2.00000
     38      -1.1301      2.00000
     39      -1.1227      2.00000
     40      -1.1227      2.00000
     41       0.1026      2.00000
     42       0.1026      2.00000
     43       1.4853      2.00000
     44       1.4853      2.00000
     45       1.7893      2.00000
     46       1.7893      2.00000
     47       1.9443      2.00000
     48       1.9444      2.00000
     49       2.2636      2.00000
     50       2.2637      2.00000
     51       2.3765      2.00000
     52       2.3765      2.00000
     53       2.8677      2.00000
     54       2.8678      2.00000
     55       2.9664      2.00000
     56       2.9665      2.00000
     57       3.7090      2.00000
     58       3.7090      2.00000
     59       4.0401      2.00000
     60       4.0401      2.00000
     61       4.3692      2.00000
     62       4.3692      2.00000
     63       5.4796      0.00000
     64       5.4796      0.00000
     65       6.5066      0.00000
     66       6.5066      0.00000
     67       7.6398      0.00000
     68       7.6399      0.00000
     69       8.1129      0.00000
     70       8.1130      0.00000
     71       8.5846      0.00000
     72       8.5847      0.00000
     73       8.9980      0.00000
     74       8.9981      0.00000
     75       9.2344      0.00000
     76       9.2345      0.00000
     77       9.6618      0.00000
     78       9.6618      0.00000
     79       9.8401      0.00000
     80       9.8402      0.00000

 k-point   123 :       0.1111    0.0556    0.5000
  band No.  band energies     occupation 
      1     -11.0328      2.00000
      2     -11.0328      2.00000
      3     -10.8431      2.00000
      4     -10.8430      2.00000
      5     -10.7806      2.00000
      6     -10.7805      2.00000
      7     -10.6359      2.00000
      8     -10.6358      2.00000
      9     -10.6192      2.00000
     10     -10.6192      2.00000
     11     -10.3736      2.00000
     12     -10.3735      2.00000
     13     -10.2668      2.00000
     14     -10.2667      2.00000
     15     -10.2072      2.00000
     16     -10.2071      2.00000
     17     -10.1371      2.00000
     18     -10.1370      2.00000
     19     -10.1196      2.00000
     20     -10.1195      2.00000
     21      -9.4801      2.00000
     22      -9.4801      2.00000
     23      -8.9729      2.00000
     24      -8.9728      2.00000
     25      -7.9775      2.00000
     26      -7.9774      2.00000
     27      -7.3004      2.00000
     28      -7.3004      2.00000
     29      -1.9907      2.00000
     30      -1.9907      2.00000
     31      -1.5628      2.00000
     32      -1.5628      2.00000
     33      -1.5237      2.00000
     34      -1.5237      2.00000
     35      -1.2190      2.00000
     36      -1.2190      2.00000
     37      -1.1376      2.00000
     38      -1.1376      2.00000
     39      -1.1228      2.00000
     40      -1.1228      2.00000
     41       0.0135      2.00000
     42       0.0135      2.00000
     43       1.0814      2.00000
     44       1.0814      2.00000
     45       1.5519      2.00000
     46       1.5520      2.00000
     47       1.7979      2.00000
     48       1.7980      2.00000
     49       1.9529      2.00000
     50       1.9530      2.00000
     51       2.1119      2.00000
     52       2.1120      2.00000
     53       2.6551      2.00000
     54       2.6551      2.00000
     55       2.9704      2.00000
     56       2.9705      2.00000
     57       3.5100      2.00000
     58       3.5100      2.00000
     59       3.9347      2.00000
     60       3.9347      2.00000
     61       4.2040      2.00000
     62       4.2040      2.00000
     63       5.7329      0.00000
     64       5.7329      0.00000
     65       6.6916      0.00000
     66       6.6917      0.00000
     67       7.9223      0.00000
     68       7.9224      0.00000
     69       8.2248      0.00000
     70       8.2249      0.00000
     71       8.6304      0.00000
     72       8.6304      0.00000
     73       8.9549      0.00000
     74       8.9549      0.00000
     75       9.4153      0.00000
     76       9.4154      0.00000
     77       9.8318      0.00000
     78       9.8318      0.00000
     79      10.1513      0.00000
     80      10.1514      0.00000

 k-point   124 :       0.1667    0.0556    0.5000
  band No.  band energies     occupation 
      1     -11.0661      2.00000
      2     -11.0661      2.00000
      3     -10.8572      2.00000
      4     -10.8572      2.00000
      5     -10.7679      2.00000
      6     -10.7679      2.00000
      7     -10.6438      2.00000
      8     -10.6437      2.00000
      9     -10.6171      2.00000
     10     -10.6170      2.00000
     11     -10.4330      2.00000
     12     -10.4330      2.00000
     13     -10.2599      2.00000
     14     -10.2598      2.00000
     15     -10.1853      2.00000
     16     -10.1853      2.00000
     17     -10.1423      2.00000
     18     -10.1422      2.00000
     19     -10.1146      2.00000
     20     -10.1145      2.00000
     21      -9.2983      2.00000
     22      -9.2982      2.00000
     23      -8.8357      2.00000
     24      -8.8357      2.00000
     25      -7.8454      2.00000
     26      -7.8454      2.00000
     27      -7.2130      2.00000
     28      -7.2130      2.00000
     29      -1.9614      2.00000
     30      -1.9614      2.00000
     31      -1.5523      2.00000
     32      -1.5523      2.00000
     33      -1.4907      2.00000
     34      -1.4906      2.00000
     35      -1.2228      2.00000
     36      -1.2228      2.00000
     37      -1.1466      2.00000
     38      -1.1466      2.00000
     39      -1.1220      2.00000
     40      -1.1220      2.00000
     41      -0.2098      2.00000
     42      -0.2097      2.00000
     43       0.6657      2.00000
     44       0.6657      2.00000
     45       1.2063      2.00000
     46       1.2063      2.00000
     47       1.5640      2.00000
     48       1.5641      2.00000
     49       1.7405      2.00000
     50       1.7405      2.00000
     51       1.8795      2.00000
     52       1.8796      2.00000
     53       2.3581      2.00000
     54       2.3582      2.00000
     55       2.9570      2.00000
     56       2.9571      2.00000
     57       3.1332      2.00000
     58       3.1333      2.00000
     59       3.9468      2.00000
     60       3.9468      2.00000
     61       4.0286      2.00000
     62       4.0286      2.00000
     63       5.9383      0.00000
     64       5.9384      0.00000
     65       6.7117      0.00000
     66       6.7118      0.00000
     67       7.7781      0.00000
     68       7.7781      0.00000
     69       8.4785      0.00000
     70       8.4786      0.00000
     71       8.8661      0.00000
     72       8.8661      0.00000
     73       9.1461      0.00000
     74       9.1461      0.00000
     75       9.6343      0.00000
     76       9.6343      0.00000
     77      10.0701      0.00000
     78      10.0702      0.00000
     79      10.4976      0.00000
     80      10.5026      0.00000

 k-point   125 :       0.2222    0.0556    0.5000
  band No.  band energies     occupation 
      1     -11.1075      2.00000
      2     -11.1074      2.00000
      3     -10.8645      2.00000
      4     -10.8645      2.00000
      5     -10.7549      2.00000
      6     -10.7548      2.00000
      7     -10.6516      2.00000
      8     -10.6516      2.00000
      9     -10.6133      2.00000
     10     -10.6132      2.00000
     11     -10.4930      2.00000
     12     -10.4929      2.00000
     13     -10.2523      2.00000
     14     -10.2523      2.00000
     15     -10.1723      2.00000
     16     -10.1723      2.00000
     17     -10.1404      2.00000
     18     -10.1404      2.00000
     19     -10.1065      2.00000
     20     -10.1065      2.00000
     21      -9.0832      2.00000
     22      -9.0832      2.00000
     23      -8.6649      2.00000
     24      -8.6649      2.00000
     25      -7.7021      2.00000
     26      -7.7020      2.00000
     27      -7.1120      2.00000
     28      -7.1120      2.00000
     29      -1.9653      2.00000
     30      -1.9653      2.00000
     31      -1.5317      2.00000
     32      -1.5317      2.00000
     33      -1.4530      2.00000
     34      -1.4530      2.00000
     35      -1.2463      2.00000
     36      -1.2463      2.00000
     37      -1.1636      2.00000
     38      -1.1636      2.00000
     39      -1.1193      2.00000
     40      -1.1192      2.00000
     41      -0.5732      2.00000
     42      -0.5731      2.00000
     43       0.3250      2.00000
     44       0.3250      2.00000
     45       0.8817      2.00000
     46       0.8817      2.00000
     47       1.3271      2.00000
     48       1.3271      2.00000
     49       1.5204      2.00000
     50       1.5204      2.00000
     51       1.6553      2.00000
     52       1.6554      2.00000
     53       2.0844      2.00000
     54       2.0845      2.00000
     55       2.7794      2.00000
     56       2.7794      2.00000
     57       2.9850      2.00000
     58       2.9850      2.00000
     59       3.7665      2.00000
     60       3.7665      2.00000
     61       4.0015      2.00000
     62       4.0015      2.00000
     63       6.0239      0.00000
     64       6.0240      0.00000
     65       6.5694      0.00000
     66       6.5694      0.00000
     67       7.5395      0.00000
     68       7.5396      0.00000
     69       8.6498      0.00000
     70       8.6499      0.00000
     71       9.1220      0.00000
     72       9.1221      0.00000
     73       9.3695      0.00000
     74       9.3695      0.00000
     75       9.8392      0.00000
     76       9.8393      0.00000
     77      10.2528      0.00000
     78      10.2531      0.00000
     79      10.6887      0.00000
     80      10.6932      0.00000

 k-point   126 :       0.2778    0.0556    0.5000
  band No.  band energies     occupation 
      1     -11.1487      2.00000
      2     -11.1487      2.00000
      3     -10.8692      2.00000
      4     -10.8691      2.00000
      5     -10.7436      2.00000
      6     -10.7435      2.00000
      7     -10.6590      2.00000
      8     -10.6590      2.00000
      9     -10.6077      2.00000
     10     -10.6076      2.00000
     11     -10.5449      2.00000
     12     -10.5448      2.00000
     13     -10.2462      2.00000
     14     -10.2461      2.00000
     15     -10.1724      2.00000
     16     -10.1724      2.00000
     17     -10.1280      2.00000
     18     -10.1279      2.00000
     19     -10.0962      2.00000
     20     -10.0962      2.00000
     21      -8.8503      2.00000
     22      -8.8503      2.00000
     23      -8.4772      2.00000
     24      -8.4772      2.00000
     25      -7.5671      2.00000
     26      -7.5671      2.00000
     27      -7.0098      2.00000
     28      -7.0098      2.00000
     29      -2.0397      2.00000
     30      -2.0397      2.00000
     31      -1.5073      2.00000
     32      -1.5073      2.00000
     33      -1.4163      2.00000
     34      -1.4162      2.00000
     35      -1.3207      2.00000
     36      -1.3207      2.00000
     37      -1.1886      2.00000
     38      -1.1886      2.00000
     39      -1.1139      2.00000
     40      -1.1139      2.00000
     41      -0.9308      2.00000
     42      -0.9307      2.00000
     43       0.0742      2.00000
     44       0.0742      2.00000
     45       0.6222      2.00000
     46       0.6222      2.00000
     47       1.0459      2.00000
     48       1.0459      2.00000
     49       1.2565      2.00000
     50       1.2565      2.00000
     51       1.5238      2.00000
     52       1.5239      2.00000
     53       1.8810      2.00000
     54       1.8811      2.00000
     55       2.6003      2.00000
     56       2.6003      2.00000
     57       2.9361      2.00000
     58       2.9361      2.00000
     59       3.5745      2.00000
     60       3.5745      2.00000
     61       3.9720      2.00000
     62       3.9720      2.00000
     63       5.9683      0.00000
     64       5.9684      0.00000
     65       6.4101      0.00000
     66       6.4101      0.00000
     67       7.3288      0.00000
     68       7.3289      0.00000
     69       8.7051      0.00000
     70       8.7051      0.00000
     71       9.1279      0.00000
     72       9.1280      0.00000
     73       9.5424      0.00000
     74       9.5424      0.00000
     75       9.8726      0.00000
     76       9.8726      0.00000
     77      10.4247      0.00000
     78      10.4254      0.00000
     79      10.8516      0.00000
     80      10.8852      0.00000

 k-point   127 :       0.3333    0.0556    0.5000
  band No.  band energies     occupation 
      1     -11.1838      2.00000
      2     -11.1838      2.00000
      3     -10.8742      2.00000
      4     -10.8741      2.00000
      5     -10.7352      2.00000
      6     -10.7352      2.00000
      7     -10.6660      2.00000
      8     -10.6660      2.00000
      9     -10.6014      2.00000
     10     -10.6013      2.00000
     11     -10.5828      2.00000
     12     -10.5827      2.00000
     13     -10.2422      2.00000
     14     -10.2421      2.00000
     15     -10.1768      2.00000
     16     -10.1768      2.00000
     17     -10.1135      2.00000
     18     -10.1134      2.00000
     19     -10.0861      2.00000
     20     -10.0861      2.00000
     21      -8.6199      2.00000
     22      -8.6198      2.00000
     23      -8.2979      2.00000
     24      -8.2979      2.00000
     25      -7.4589      2.00000
     26      -7.4588      2.00000
     27      -6.9195      2.00000
     28      -6.9195      2.00000
     29      -2.1970      2.00000
     30      -2.1970      2.00000
     31      -1.5934      2.00000
     32      -1.5933      2.00000
     33      -1.4128      2.00000
     34      -1.4127      2.00000
     35      -1.3829      2.00000
     36      -1.3829      2.00000
     37      -1.2194      2.00000
     38      -1.2194      2.00000
     39      -1.1106      2.00000
     40      -1.1106      2.00000
     41      -1.0698      2.00000
     42      -1.0698      2.00000
     43      -0.1055      2.00000
     44      -0.1055      2.00000
     45       0.4092      2.00000
     46       0.4093      2.00000
     47       0.7409      2.00000
     48       0.7409      2.00000
     49       1.0764      2.00000
     50       1.0764      2.00000
     51       1.4286      2.00000
     52       1.4286      2.00000
     53       1.7624      2.00000
     54       1.7624      2.00000
     55       2.4857      2.00000
     56       2.4857      2.00000
     57       2.8900      2.00000
     58       2.8900      2.00000
     59       3.4199      2.00000
     60       3.4199      2.00000
     61       3.9259      2.00000
     62       3.9259      2.00000
     63       5.8403      0.00000
     64       5.8404      0.00000
     65       6.2801      0.00000
     66       6.2801      0.00000
     67       7.1822      0.00000
     68       7.1822      0.00000
     69       8.6648      0.00000
     70       8.6649      0.00000
     71       9.0260      0.00000
     72       9.0260      0.00000
     73       9.5867      0.00000
     74       9.5867      0.00000
     75       9.7699      0.00000
     76       9.7700      0.00000
     77      10.4691      0.00000
     78      10.4701      0.00000
     79      11.0307      0.00000
     80      11.0912      0.00000

 k-point   128 :       0.3889    0.0556    0.5000
  band No.  band energies     occupation 
      1     -11.2089      2.00000
      2     -11.2088      2.00000
      3     -10.8796      2.00000
      4     -10.8796      2.00000
      5     -10.7300      2.00000
      6     -10.7299      2.00000
      7     -10.6721      2.00000
      8     -10.6721      2.00000
      9     -10.6070      2.00000
     10     -10.6070      2.00000
     11     -10.5942      2.00000
     12     -10.5941      2.00000
     13     -10.2401      2.00000
     14     -10.2400      2.00000
     15     -10.1808      2.00000
     16     -10.1808      2.00000
     17     -10.1017      2.00000
     18     -10.1016      2.00000
     19     -10.0786      2.00000
     20     -10.0786      2.00000
     21      -8.4212      2.00000
     22      -8.4212      2.00000
     23      -8.1593      2.00000
     24      -8.1592      2.00000
     25      -7.3892      2.00000
     26      -7.3891      2.00000
     27      -6.8528      2.00000
     28      -6.8528      2.00000
     29      -2.3798      2.00000
     30      -2.3798      2.00000
     31      -1.8100      2.00000
     32      -1.8100      2.00000
     33      -1.3997      2.00000
     34      -1.3997      2.00000
     35      -1.3625      2.00000
     36      -1.3625      2.00000
     37      -1.2496      2.00000
     38      -1.2496      2.00000
     39      -1.1045      2.00000
     40      -1.1045      2.00000
     41      -1.0247      2.00000
     42      -1.0247      2.00000
     43      -0.2624      2.00000
     44      -0.2623      2.00000
     45       0.1746      2.00000
     46       0.1746      2.00000
     47       0.6104      2.00000
     48       0.6105      2.00000
     49       0.9584      2.00000
     50       0.9584      2.00000
     51       1.3581      2.00000
     52       1.3581      2.00000
     53       1.6896      2.00000
     54       1.6896      2.00000
     55       2.4170      2.00000
     56       2.4170      2.00000
     57       2.8543      2.00000
     58       2.8543      2.00000
     59       3.3144      2.00000
     60       3.3144      2.00000
     61       3.8796      2.00000
     62       3.8796      2.00000
     63       5.7273      0.00000
     64       5.7274      0.00000
     65       6.1762      0.00000
     66       6.1762      0.00000
     67       7.0967      0.00000
     68       7.0967      0.00000
     69       8.6036      0.00000
     70       8.6037      0.00000
     71       8.9225      0.00000
     72       8.9225      0.00000
     73       9.5470      0.00000
     74       9.5470      0.00000
     75       9.6831      0.00000
     76       9.6831      0.00000
     77      10.4035      0.00000
     78      10.4037      0.00000
     79      11.0951      0.00000
     80      11.1446      0.00000

 k-point   129 :       0.4444    0.0556    0.5000
  band No.  band energies     occupation 
      1     -11.2219      2.00000
      2     -11.2218      2.00000
      3     -10.8834      2.00000
      4     -10.8833      2.00000
      5     -10.7275      2.00000
      6     -10.7275      2.00000
      7     -10.6760      2.00000
      8     -10.6759      2.00000
      9     -10.6168      2.00000
     10     -10.6167      2.00000
     11     -10.5910      2.00000
     12     -10.5909      2.00000
     13     -10.2392      2.00000
     14     -10.2391      2.00000
     15     -10.1831      2.00000
     16     -10.1830      2.00000
     17     -10.0950      2.00000
     18     -10.0949      2.00000
     19     -10.0748      2.00000
     20     -10.0747      2.00000
     21      -8.2976      2.00000
     22      -8.2976      2.00000
     23      -8.0884      2.00000
     24      -8.0884      2.00000
     25      -7.3578      2.00000
     26      -7.3577      2.00000
     27      -6.8176      2.00000
     28      -6.8176      2.00000
     29      -2.4989      2.00000
     30      -2.4989      2.00000
     31      -1.9400      2.00000
     32      -1.9400      2.00000
     33      -1.3895      2.00000
     34      -1.3895      2.00000
     35      -1.3521      2.00000
     36      -1.3521      2.00000
     37      -1.2635      2.00000
     38      -1.2634      2.00000
     39      -1.0979      2.00000
     40      -1.0979      2.00000
     41      -0.9361      2.00000
     42      -0.9361      2.00000
     43      -0.3917      2.00000
     44      -0.3917      2.00000
     45       0.0056      2.00000
     46       0.0056      2.00000
     47       0.6011      2.00000
     48       0.6011      2.00000
     49       0.8984      2.00000
     50       0.8985      2.00000
     51       1.3294      2.00000
     52       1.3294      2.00000
     53       1.6362      2.00000
     54       1.6362      2.00000
     55       2.3871      2.00000
     56       2.3871      2.00000
     57       2.8365      2.00000
     58       2.8365      2.00000
     59       3.2615      2.00000
     60       3.2615      2.00000
     61       3.8501      2.00000
     62       3.8501      2.00000
     63       5.6665      0.00000
     64       5.6666      0.00000
     65       6.1162      0.00000
     66       6.1162      0.00000
     67       7.0583      0.00000
     68       7.0583      0.00000
     69       8.5656      0.00000
     70       8.5657      0.00000
     71       8.8632      0.00000
     72       8.8632      0.00000
     73       9.4969      0.00000
     74       9.4969      0.00000
     75       9.6452      0.00000
     76       9.6452      0.00000
     77      10.3503      0.00000
     78      10.3505      0.00000
     79      11.0900      0.00000
     80      11.1108      0.00000

 k-point   130 :       0.1111    0.1111    0.5000
  band No.  band energies     occupation 
      1     -11.0600      2.00000
      2     -11.0600      2.00000
      3     -10.8557      2.00000
      4     -10.8557      2.00000
      5     -10.7703      2.00000
      6     -10.7702      2.00000
      7     -10.6420      2.00000
      8     -10.6420      2.00000
      9     -10.6181      2.00000
     10     -10.6181      2.00000
     11     -10.4190      2.00000
     12     -10.4189      2.00000
     13     -10.2706      2.00000
     14     -10.2705      2.00000
     15     -10.1845      2.00000
     16     -10.1845      2.00000
     17     -10.1425      2.00000
     18     -10.1424      2.00000
     19     -10.1155      2.00000
     20     -10.1154      2.00000
     21      -9.3261      2.00000
     22      -9.3261      2.00000
     23      -8.8569      2.00000
     24      -8.8569      2.00000
     25      -7.8662      2.00000
     26      -7.8662      2.00000
     27      -7.2268      2.00000
     28      -7.2268      2.00000
     29      -1.9635      2.00000
     30      -1.9635      2.00000
     31      -1.5544      2.00000
     32      -1.5544      2.00000
     33      -1.4956      2.00000
     34      -1.4956      2.00000
     35      -1.2211      2.00000
     36      -1.2211      2.00000
     37      -1.1443      2.00000
     38      -1.1443      2.00000
     39      -1.1226      2.00000
     40      -1.1226      2.00000
     41      -0.1576      2.00000
     42      -0.1575      2.00000
     43       0.7515      2.00000
     44       0.7515      2.00000
     45       1.2759      2.00000
     46       1.2759      2.00000
     47       1.5653      2.00000
     48       1.5653      2.00000
     49       1.6913      2.00000
     50       1.6913      2.00000
     51       1.8689      2.00000
     52       1.8689      2.00000
     53       2.6669      2.00000
     54       2.6669      2.00000
     55       2.7455      2.00000
     56       2.7455      2.00000
     57       3.2140      2.00000
     58       3.2140      2.00000
     59       3.9236      2.00000
     60       3.9236      2.00000
     61       4.0400      2.00000
     62       4.0401      2.00000
     63       5.9398      0.00000
     64       5.9398      0.00000
     65       6.7795      0.00000
     66       6.7796      0.00000
     67       7.9812      0.00000
     68       7.9813      0.00000
     69       8.4843      0.00000
     70       8.4843      0.00000
     71       8.6094      0.00000
     72       8.6094      0.00000
     73       9.0866      0.00000
     74       9.0866      0.00000
     75       9.6172      0.00000
     76       9.6173      0.00000
     77       9.9936      0.00000
     78       9.9938      0.00000
     79      10.5004      0.00000
     80      10.5037      0.00000

 k-point   131 :       0.1667    0.1111    0.5000
  band No.  band energies     occupation 
      1     -11.0964      2.00000
      2     -11.0963      2.00000
      3     -10.8633      2.00000
      4     -10.8633      2.00000
      5     -10.7589      2.00000
      6     -10.7589      2.00000
      7     -10.6483      2.00000
      8     -10.6482      2.00000
      9     -10.6160      2.00000
     10     -10.6160      2.00000
     11     -10.4702      2.00000
     12     -10.4701      2.00000
     13     -10.2719      2.00000
     14     -10.2718      2.00000
     15     -10.1666      2.00000
     16     -10.1665      2.00000
     17     -10.1461      2.00000
     18     -10.1461      2.00000
     19     -10.1079      2.00000
     20     -10.1079      2.00000
     21      -9.1308      2.00000
     22      -9.1307      2.00000
     23      -8.7022      2.00000
     24      -8.7021      2.00000
     25      -7.7359      2.00000
     26      -7.7358      2.00000
     27      -7.1352      2.00000
     28      -7.1352      2.00000
     29      -1.9549      2.00000
     30      -1.9549      2.00000
     31      -1.5369      2.00000
     32      -1.5369      2.00000
     33      -1.4610      2.00000
     34      -1.4610      2.00000
     35      -1.2368      2.00000
     36      -1.2368      2.00000
     37      -1.1560      2.00000
     38      -1.1560      2.00000
     39      -1.1206      2.00000
     40      -1.1206      2.00000
     41      -0.4538      2.00000
     42      -0.4537      2.00000
     43       0.4426      2.00000
     44       0.4427      2.00000
     45       0.9651      2.00000
     46       0.9652      2.00000
     47       1.2727      2.00000
     48       1.2727      2.00000
     49       1.4767      2.00000
     50       1.4768      2.00000
     51       1.6587      2.00000
     52       1.6587      2.00000
     53       2.3931      2.00000
     54       2.3932      2.00000
     55       2.6857      2.00000
     56       2.6858      2.00000
     57       2.9710      2.00000
     58       2.9710      2.00000
     59       3.6968      2.00000
     60       3.6968      2.00000
     61       4.0341      2.00000
     62       4.0341      2.00000
     63       6.0933      0.00000
     64       6.0933      0.00000
     65       6.7358      0.00000
     66       6.7358      0.00000
     67       7.8524      0.00000
     68       7.8524      0.00000
     69       8.6617      0.00000
     70       8.6618      0.00000
     71       8.8966      0.00000
     72       8.8967      0.00000
     73       9.2979      0.00000
     74       9.2979      0.00000
     75       9.7510      0.00000
     76       9.7510      0.00000
     77      10.1899      0.00000
     78      10.1905      0.00000
     79      10.6802      0.00000
     80      10.7059      0.00000

 k-point   132 :       0.2222    0.1111    0.5000
  band No.  band energies     occupation 
      1     -11.1354      2.00000
      2     -11.1353      2.00000
      3     -10.8672      2.00000
      4     -10.8672      2.00000
      5     -10.7485      2.00000
      6     -10.7485      2.00000
      7     -10.6543      2.00000
      8     -10.6542      2.00000
      9     -10.6124      2.00000
     10     -10.6124      2.00000
     11     -10.5194      2.00000
     12     -10.5194      2.00000
     13     -10.2712      2.00000
     14     -10.2711      2.00000
     15     -10.1628      2.00000
     16     -10.1627      2.00000
     17     -10.1392      2.00000
     18     -10.1392      2.00000
     19     -10.0979      2.00000
     20     -10.0979      2.00000
     21      -8.9080      2.00000
     22      -8.9080      2.00000
     23      -8.5217      2.00000
     24      -8.5216      2.00000
     25      -7.6054      2.00000
     26      -7.6054      2.00000
     27      -7.0366      2.00000
     28      -7.0366      2.00000
     29      -1.9955      2.00000
     30      -1.9955      2.00000
     31      -1.5103      2.00000
     32      -1.5103      2.00000
     33      -1.4248      2.00000
     34      -1.4248      2.00000
     35      -1.2832      2.00000
     36      -1.2832      2.00000
     37      -1.1765      2.00000
     38      -1.1765      2.00000
     39      -1.1154      2.00000
     40      -1.1154      2.00000
     41      -0.8046      2.00000
     42      -0.8046      2.00000
     43       0.1864      2.00000
     44       0.1865      2.00000
     45       0.6815      2.00000
     46       0.6816      2.00000
     47       1.0185      2.00000
     48       1.0185      2.00000
     49       1.2517      2.00000
     50       1.2517      2.00000
     51       1.4539      2.00000
     52       1.4539      2.00000
     53       2.1190      2.00000
     54       2.1190      2.00000
     55       2.5806      2.00000
     56       2.5806      2.00000
     57       2.8467      2.00000
     58       2.8467      2.00000
     59       3.4592      2.00000
     60       3.4592      2.00000
     61       4.0199      2.00000
     62       4.0199      2.00000
     63       6.1418      0.00000
     64       6.1419      0.00000
     65       6.6067      0.00000
     66       6.6067      0.00000
     67       7.6566      0.00000
     68       7.6566      0.00000
     69       8.8260      0.00000
     70       8.8261      0.00000
     71       9.1701      0.00000
     72       9.1701      0.00000
     73       9.4287      0.00000
     74       9.4287      0.00000
     75       9.8327      0.00000
     76       9.8328      0.00000
     77      10.3381      0.00000
     78      10.3394      0.00000
     79      10.6929      0.00000
     80      10.6968      0.00000

 k-point   133 :       0.2778    0.1111    0.5000
  band No.  band energies     occupation 
      1     -11.1710      2.00000
      2     -11.1709      2.00000
      3     -10.8704      2.00000
      4     -10.8704      2.00000
      5     -10.7405      2.00000
      6     -10.7404      2.00000
      7     -10.6598      2.00000
      8     -10.6598      2.00000
      9     -10.6078      2.00000
     10     -10.6077      2.00000
     11     -10.5600      2.00000
     12     -10.5599      2.00000
     13     -10.2700      2.00000
     14     -10.2699      2.00000
     15     -10.1672      2.00000
     16     -10.1672      2.00000
     17     -10.1256      2.00000
     18     -10.1255      2.00000
     19     -10.0886      2.00000
     20     -10.0885      2.00000
     21      -8.6753      2.00000
     22      -8.6752      2.00000
     23      -8.3366      2.00000
     24      -8.3365      2.00000
     25      -7.4938      2.00000
     26      -7.4937      2.00000
     27      -6.9435      2.00000
     28      -6.9435      2.00000
     29      -2.1098      2.00000
     30      -2.1098      2.00000
     31      -1.5153      2.00000
     32      -1.5153      2.00000
     33      -1.4019      2.00000
     34      -1.4019      2.00000
     35      -1.3756      2.00000
     36      -1.3755      2.00000
     37      -1.1989      2.00000
     38      -1.1989      2.00000
     39      -1.1107      2.00000
     40      -1.1107      2.00000
     41      -1.0410      2.00000
     42      -1.0409      2.00000
     43      -0.0071      2.00000
     44      -0.0071      2.00000
     45       0.4705      2.00000
     46       0.4706      2.00000
     47       0.7488      2.00000
     48       0.7488      2.00000
     49       1.0000      2.00000
     50       1.0001      2.00000
     51       1.3369      2.00000
     52       1.3369      2.00000
     53       1.9158      2.00000
     54       1.9158      2.00000
     55       2.4576      2.00000
     56       2.4576      2.00000
     57       2.7925      2.00000
     58       2.7925      2.00000
     59       3.2631      2.00000
     60       3.2631      2.00000
     61       3.9822      2.00000
     62       3.9822      2.00000
     63       6.0844      0.00000
     64       6.0845      0.00000
     65       6.4820      0.00000
     66       6.4821      0.00000
     67       7.4857      0.00000
     68       7.4857      0.00000
     69       8.8807      0.00000
     70       8.8808      0.00000
     71       9.2316      0.00000
     72       9.2316      0.00000
     73       9.4596      0.00000
     74       9.4596      0.00000
     75       9.8566      0.00000
     76       9.8566      0.00000
     77      10.4926      0.00000
     78      10.4976      0.00000
     79      10.7665      0.00000
     80      10.8001      0.00000

 k-point   134 :       0.3333    0.1111    0.5000
  band No.  band energies     occupation 
      1     -11.1989      2.00000
      2     -11.1989      2.00000
      3     -10.8742      2.00000
      4     -10.8741      2.00000
      5     -10.7350      2.00000
      6     -10.7350      2.00000
      7     -10.6649      2.00000
      8     -10.6649      2.00000
      9     -10.6036      2.00000
     10     -10.6035      2.00000
     11     -10.5873      2.00000
     12     -10.5872      2.00000
     13     -10.2692      2.00000
     14     -10.2692      2.00000
     15     -10.1720      2.00000
     16     -10.1719      2.00000
     17     -10.1118      2.00000
     18     -10.1118      2.00000
     19     -10.0826      2.00000
     20     -10.0826      2.00000
     21      -8.4565      2.00000
     22      -8.4565      2.00000
     23      -8.1761      2.00000
     24      -8.1761      2.00000
     25      -7.4157      2.00000
     26      -7.4156      2.00000
     27      -6.8677      2.00000
     28      -6.8677      2.00000
     29      -2.2761      2.00000
     30      -2.2760      2.00000
     31      -1.7038      2.00000
     32      -1.7037      2.00000
     33      -1.4008      2.00000
     34      -1.4007      2.00000
     35      -1.3644      2.00000
     36      -1.3644      2.00000
     37      -1.2290      2.00000
     38      -1.2290      2.00000
     39      -1.1208      2.00000
     40      -1.1208      2.00000
     41      -1.0421      2.00000
     42      -1.0421      2.00000
     43      -0.1622      2.00000
     44      -0.1622      2.00000
     45       0.2798      2.00000
     46       0.2799      2.00000
     47       0.5260      2.00000
     48       0.5260      2.00000
     49       0.8263      2.00000
     50       0.8263      2.00000
     51       1.2671      2.00000
     52       1.2671      2.00000
     53       1.7819      2.00000
     54       1.7819      2.00000
     55       2.3508      2.00000
     56       2.3508      2.00000
     57       2.7712      2.00000
     58       2.7713      2.00000
     59       3.1202      2.00000
     60       3.1202      2.00000
     61       3.9344      2.00000
     62       3.9344      2.00000
     63       5.9829      0.00000
     64       5.9829      0.00000
     65       6.3878      0.00000
     66       6.3879      0.00000
     67       7.3670      0.00000
     68       7.3670      0.00000
     69       8.8582      0.00000
     70       8.8582      0.00000
     71       9.1508      0.00000
     72       9.1508      0.00000
     73       9.4444      0.00000
     74       9.4444      0.00000
     75       9.8097      0.00000
     76       9.8097      0.00000
     77      10.5049      0.00000
     78      10.5054      0.00000
     79      10.9150      0.00000
     80      10.9496      0.00000

 k-point   135 :       0.3889    0.1111    0.5000
  band No.  band energies     occupation 
      1     -11.2166      2.00000
      2     -11.2166      2.00000
      3     -10.8777      2.00000
      4     -10.8776      2.00000
      5     -10.7321      2.00000
      6     -10.7320      2.00000
      7     -10.6690      2.00000
      8     -10.6689      2.00000
      9     -10.6066      2.00000
     10     -10.6066      2.00000
     11     -10.5958      2.00000
     12     -10.5958      2.00000
     13     -10.2689      2.00000
     14     -10.2688      2.00000
     15     -10.1752      2.00000
     16     -10.1752      2.00000
     17     -10.1004      2.00000
     18     -10.1003      2.00000
     19     -10.0809      2.00000
     20     -10.0809      2.00000
     21      -8.2872      2.00000
     22      -8.2871      2.00000
     23      -8.0725      2.00000
     24      -8.0725      2.00000
     25      -7.3752      2.00000
     26      -7.3751      2.00000
     27      -6.8185      2.00000
     28      -6.8185      2.00000
     29      -2.4221      2.00000
     30      -2.4221      2.00000
     31      -1.8806      2.00000
     32      -1.8806      2.00000
     33      -1.3853      2.00000
     34      -1.3853      2.00000
     35      -1.3523      2.00000
     36      -1.3523      2.00000
     37      -1.2492      2.00000
     38      -1.2492      2.00000
     39      -1.1114      2.00000
     40      -1.1114      2.00000
     41      -0.9590      2.00000
     42      -0.9590      2.00000
     43      -0.3037      2.00000
     44      -0.3037      2.00000
     45       0.0825      2.00000
     46       0.0825      2.00000
     47       0.4432      2.00000
     48       0.4433      2.00000
     49       0.7294      2.00000
     50       0.7294      2.00000
     51       1.2511      2.00000
     52       1.2511      2.00000
     53       1.6877      2.00000
     54       1.6877      2.00000
     55       2.2742      2.00000
     56       2.2742      2.00000
     57       2.7738      2.00000
     58       2.7738      2.00000
     59       3.0323      2.00000
     60       3.0323      2.00000
     61       3.8937      2.00000
     62       3.8937      2.00000
     63       5.9028      0.00000
     64       5.9028      0.00000
     65       6.3245      0.00000
     66       6.3245      0.00000
     67       7.3002      0.00000
     68       7.3002      0.00000
     69       8.8340      0.00000
     70       8.8340      0.00000
     71       9.0572      0.00000
     72       9.0572      0.00000
     73       9.4154      0.00000
     74       9.4155      0.00000
     75       9.7526      0.00000
     76       9.7526      0.00000
     77      10.4659      0.00000
     78      10.4661      0.00000
     79      10.9650      0.00000
     80      10.9980      0.00000

 k-point   136 :       0.4444    0.1111    0.5000
  band No.  band energies     occupation 
      1     -11.2227      2.00000
      2     -11.2226      2.00000
      3     -10.8791      2.00000
      4     -10.8790      2.00000
      5     -10.7311      2.00000
      6     -10.7311      2.00000
      7     -10.6706      2.00000
      8     -10.6705      2.00000
      9     -10.6104      2.00000
     10     -10.6103      2.00000
     11     -10.5953      2.00000
     12     -10.5953      2.00000
     13     -10.2688      2.00000
     14     -10.2687      2.00000
     15     -10.1764      2.00000
     16     -10.1763      2.00000
     17     -10.0952      2.00000
     18     -10.0951      2.00000
     19     -10.0815      2.00000
     20     -10.0815      2.00000
     21      -8.2187      2.00000
     22      -8.2187      2.00000
     23      -8.0402      2.00000
     24      -8.0402      2.00000
     25      -7.3639      2.00000
     26      -7.3638      2.00000
     27      -6.8016      2.00000
     28      -6.8016      2.00000
     29      -2.4794      2.00000
     30      -2.4794      2.00000
     31      -1.9450      2.00000
     32      -1.9450      2.00000
     33      -1.3805      2.00000
     34      -1.3805      2.00000
     35      -1.3483      2.00000
     36      -1.3483      2.00000
     37      -1.2554      2.00000
     38      -1.2554      2.00000
     39      -1.1068      2.00000
     40      -1.1068      2.00000
     41      -0.8985      2.00000
     42      -0.8985      2.00000
     43      -0.3826      2.00000
     44      -0.3825      2.00000
     45       0.0053      2.00000
     46       0.0054      2.00000
     47       0.4240      2.00000
     48       0.4241      2.00000
     49       0.6978      2.00000
     50       0.6979      2.00000
     51       1.2603      2.00000
     52       1.2604      2.00000
     53       1.6452      2.00000
     54       1.6452      2.00000
     55       2.2458      2.00000
     56       2.2458      2.00000
     57       2.7793      2.00000
     58       2.7794      2.00000
     59       3.0021      2.00000
     60       3.0021      2.00000
     61       3.8774      2.00000
     62       3.8774      2.00000
     63       5.8737      0.00000
     64       5.8738      0.00000
     65       6.3016      0.00000
     66       6.3016      0.00000
     67       7.2789      0.00000
     68       7.2789      0.00000
     69       8.8287      0.00000
     70       8.8288      0.00000
     71       9.0161      0.00000
     72       9.0161      0.00000
     73       9.4025      0.00000
     74       9.4025      0.00000
     75       9.7287      0.00000
     76       9.7287      0.00000
     77      10.4497      0.00000
     78      10.4499      0.00000
     79      10.9627      0.00000
     80      10.9702      0.00000

 k-point   137 :       0.1667    0.1667    0.5000
  band No.  band energies     occupation 
      1     -11.1303      2.00000
      2     -11.1303      2.00000
      3     -10.8666      2.00000
      4     -10.8666      2.00000
      5     -10.7506      2.00000
      6     -10.7505      2.00000
      7     -10.6521      2.00000
      8     -10.6521      2.00000
      9     -10.6146      2.00000
     10     -10.6146      2.00000
     11     -10.5072      2.00000
     12     -10.5071      2.00000
     13     -10.2845      2.00000
     14     -10.2844      2.00000
     15     -10.1519      2.00000
     16     -10.1518      2.00000
     17     -10.1504      2.00000
     18     -10.1504      2.00000
     19     -10.0984      2.00000
     20     -10.0983      2.00000
     21      -8.9271      2.00000
     22      -8.9271      2.00000
     23      -8.5361      2.00000
     24      -8.5360      2.00000
     25      -7.6194      2.00000
     26      -7.6194      2.00000
     27      -7.0460      2.00000
     28      -7.0460      2.00000
     29      -1.9809      2.00000
     30      -1.9809      2.00000
     31      -1.5121      2.00000
     32      -1.5120      2.00000
     33      -1.4275      2.00000
     34      -1.4275      2.00000
     35      -1.2726      2.00000
     36      -1.2726      2.00000
     37      -1.1714      2.00000
     38      -1.1714      2.00000
     39      -1.1158      2.00000
     40      -1.1158      2.00000
     41      -0.7459      2.00000
     42      -0.7459      2.00000
     43       0.2441      2.00000
     44       0.2441      2.00000
     45       0.6902      2.00000
     46       0.6902      2.00000
     47       0.9947      2.00000
     48       0.9947      2.00000
     49       1.1970      2.00000
     50       1.1970      2.00000
     51       1.4731      2.00000
     52       1.4731      2.00000
     53       2.3201      2.00000
     54       2.3201      2.00000
     55       2.4351      2.00000
     56       2.4351      2.00000
     57       2.8419      2.00000
     58       2.8419      2.00000
     59       3.3886      2.00000
     60       3.3886      2.00000
     61       4.0387      2.00000
     62       4.0387      2.00000
     63       6.2155      0.00000
     64       6.2156      0.00000
     65       6.7109      0.00000
     66       6.7109      0.00000
     67       7.9053      0.00000
     68       7.9053      0.00000
     69       8.6842      0.00000
     70       8.6842      0.00000
     71       9.1844      0.00000
     72       9.1845      0.00000
     73       9.4825      0.00000
     74       9.4825      0.00000
     75       9.7599      0.00000
     76       9.7600      0.00000
     77      10.3638      0.00000
     78      10.3674      0.00000
     79      10.7211      0.00000
     80      10.7372      0.00000

 k-point   138 :       0.2222    0.1667    0.5000
  band No.  band energies     occupation 
      1     -11.1630      2.00000
      2     -11.1630      2.00000
      3     -10.8684      2.00000
      4     -10.8684      2.00000
      5     -10.7440      2.00000
      6     -10.7440      2.00000
      7     -10.6552      2.00000
      8     -10.6552      2.00000
      9     -10.6126      2.00000
     10     -10.6126      2.00000
     11     -10.5408      2.00000
     12     -10.5407      2.00000
     13     -10.2949      2.00000
     14     -10.2948      2.00000
     15     -10.1555      2.00000
     16     -10.1555      2.00000
     17     -10.1387      2.00000
     18     -10.1386      2.00000
     19     -10.0895      2.00000
     20     -10.0894      2.00000
     21      -8.7024      2.00000
     22      -8.7024      2.00000
     23      -8.3545      2.00000
     24      -8.3545      2.00000
     25      -7.5145      2.00000
     26      -7.5144      2.00000
     27      -6.9564      2.00000
     28      -6.9564      2.00000
     29      -2.0602      2.00000
     30      -2.0602      2.00000
     31      -1.4932      2.00000
     32      -1.4932      2.00000
     33      -1.3982      2.00000
     34      -1.3982      2.00000
     35      -1.3500      2.00000
     36      -1.3500      2.00000
     37      -1.1875      2.00000
     38      -1.1875      2.00000
     39      -1.1070      2.00000
     40      -1.1070      2.00000
     41      -0.9956      2.00000
     42      -0.9956      2.00000
     43       0.0715      2.00000
     44       0.0716      2.00000
     45       0.4611      2.00000
     46       0.4612      2.00000
     47       0.7114      2.00000
     48       0.7114      2.00000
     49       0.9448      2.00000
     50       0.9449      2.00000
     51       1.3245      2.00000
     52       1.3245      2.00000
     53       2.0789      2.00000
     54       2.0790      2.00000
     55       2.3322      2.00000
     56       2.3322      2.00000
     57       2.7549      2.00000
     58       2.7549      2.00000
     59       3.1201      2.00000
     60       3.1201      2.00000
     61       4.0164      2.00000
     62       4.0164      2.00000
     63       6.2683      0.00000
     64       6.2683      0.00000
     65       6.6339      0.00000
     66       6.6340      0.00000
     67       7.8444      0.00000
     68       7.8445      0.00000
     69       8.7787      0.00000
     70       8.7787      0.00000
     71       9.3584      0.00000
     72       9.3585      0.00000
     73       9.6143      0.00000
     74       9.6143      0.00000
     75       9.8733      0.00000
     76       9.8733      0.00000
     77      10.4429      0.00000
     78      10.4453      0.00000
     79      10.7460      0.00000
     80      10.9520      0.00000

 k-point   139 :       0.2778    0.1667    0.5000
  band No.  band energies     occupation 
      1     -11.1907      2.00000
      2     -11.1907      2.00000
      3     -10.8699      2.00000
      4     -10.8699      2.00000
      5     -10.7397      2.00000
      6     -10.7396      2.00000
      7     -10.6578      2.00000
      8     -10.6578      2.00000
      9     -10.6101      2.00000
     10     -10.6100      2.00000
     11     -10.5675      2.00000
     12     -10.5674      2.00000
     13     -10.3025      2.00000
     14     -10.3024      2.00000
     15     -10.1601      2.00000
     16     -10.1600      2.00000
     17     -10.1254      2.00000
     18     -10.1253      2.00000
     19     -10.0845      2.00000
     20     -10.0844      2.00000
     21      -8.4765      2.00000
     22      -8.4765      2.00000
     23      -8.1822      2.00000
     24      -8.1822      2.00000
     25      -7.4374      2.00000
     26      -7.4374      2.00000
     27      -6.8777      2.00000
     28      -6.8777      2.00000
     29      -2.1897      2.00000
     30      -2.1897      2.00000
     31      -1.6106      2.00000
     32      -1.6105      2.00000
     33      -1.3997      2.00000
     34      -1.3997      2.00000
     35      -1.3633      2.00000
     36      -1.3633      2.00000
     37      -1.2058      2.00000
     38      -1.2058      2.00000
     39      -1.1297      2.00000
     40      -1.1297      2.00000
     41      -1.0475      2.00000
     42      -1.0475      2.00000
     43      -0.0722      2.00000
     44      -0.0722      2.00000
     45       0.2774      2.00000
     46       0.2775      2.00000
     47       0.4565      2.00000
     48       0.4566      2.00000
     49       0.7323      2.00000
     50       0.7324      2.00000
     51       1.2321      2.00000
     52       1.2321      2.00000
     53       1.8640      2.00000
     54       1.8640      2.00000
     55       2.2260      2.00000
     56       2.2260      2.00000
     57       2.7079      2.00000
     58       2.7080      2.00000
     59       2.9330      2.00000
     60       2.9330      2.00000
     61       3.9757      2.00000
     62       3.9757      2.00000
     63       6.2433      0.00000
     64       6.2434      0.00000
     65       6.5574      0.00000
     66       6.5575      0.00000
     67       7.7412      0.00000
     68       7.7412      0.00000
     69       8.8138      0.00000
     70       8.8139      0.00000
     71       9.3925      0.00000
     72       9.3925      0.00000
     73       9.6666      0.00000
     74       9.6667      0.00000
     75       9.9538      0.00000
     76       9.9538      0.00000
     77      10.5677      0.00000
     78      10.5692      0.00000
     79      10.8263      0.00000
     80      10.8308      0.00000

 k-point   140 :       0.3333    0.1667    0.5000
  band No.  band energies     occupation 
      1     -11.2105      2.00000
      2     -11.2105      2.00000
      3     -10.8715      2.00000
      4     -10.8715      2.00000
      5     -10.7372      2.00000
      6     -10.7371      2.00000
      7     -10.6602      2.00000
      8     -10.6602      2.00000
      9     -10.6072      2.00000
     10     -10.6072      2.00000
     11     -10.5855      2.00000
     12     -10.5855      2.00000
     13     -10.3075      2.00000
     14     -10.3074      2.00000
     15     -10.1636      2.00000
     16     -10.1635      2.00000
     17     -10.1119      2.00000
     18     -10.1119      2.00000
     19     -10.0844      2.00000
     20     -10.0844      2.00000
     21      -8.2779      2.00000
     22      -8.2778      2.00000
     23      -8.0507      2.00000
     24      -8.0506      2.00000
     25      -7.3964      2.00000
     26      -7.3963      2.00000
     27      -6.8196      2.00000
     28      -6.8196      2.00000
     29      -2.3275      2.00000
     30      -2.3275      2.00000
     31      -1.8026      2.00000
     32      -1.8025      2.00000
     33      -1.3820      2.00000
     34      -1.3820      2.00000
     35      -1.3506      2.00000
     36      -1.3506      2.00000
     37      -1.2282      2.00000
     38      -1.2282      2.00000
     39      -1.1304      2.00000
     40      -1.1304      2.00000
     41      -0.9777      2.00000
     42      -0.9776      2.00000
     43      -0.1975      2.00000
     44      -0.1975      2.00000
     45       0.1088      2.00000
     46       0.1088      2.00000
     47       0.2630      2.00000
     48       0.2630      2.00000
     49       0.6017      2.00000
     50       0.6018      2.00000
     51       1.2042      2.00000
     52       1.2042      2.00000
     53       1.7154      2.00000
     54       1.7154      2.00000
     55       2.1074      2.00000
     56       2.1074      2.00000
     57       2.6869      2.00000
     58       2.6869      2.00000
     59       2.8350      2.00000
     60       2.8350      2.00000
     61       3.9311      2.00000
     62       3.9311      2.00000
     63       6.1772      0.00000
     64       6.1772      0.00000
     65       6.5130      0.00000
     66       6.5130      0.00000
     67       7.6552      0.00000
     68       7.6552      0.00000
     69       8.7960      0.00000
     70       8.7961      0.00000
     71       9.3965      0.00000
     72       9.3965      0.00000
     73       9.6051      0.00000
     74       9.6051      0.00000
     75       9.9647      0.00000
     76       9.9647      0.00000
     77      10.5802      0.00000
     78      10.5805      0.00000
     79      10.9430      0.00000
     80      10.9471      0.00000

 k-point   141 :       0.3889    0.1667    0.5000
  band No.  band energies     occupation 
      1     -11.2208      2.00000
      2     -11.2208      2.00000
      3     -10.8726      2.00000
      4     -10.8726      2.00000
      5     -10.7361      2.00000
      6     -10.7360      2.00000
      7     -10.6618      2.00000
      8     -10.6618      2.00000
      9     -10.6044      2.00000
     10     -10.6043      2.00000
     11     -10.5953      2.00000
     12     -10.5952      2.00000
     13     -10.3100      2.00000
     14     -10.3099      2.00000
     15     -10.1655      2.00000
     16     -10.1654      2.00000
     17     -10.1001      2.00000
     18     -10.1001      2.00000
     19     -10.0891      2.00000
     20     -10.0890      2.00000
     21      -8.1495      2.00000
     22      -8.1495      2.00000
     23      -7.9867      2.00000
     24      -7.9866      2.00000
     25      -7.3837      2.00000
     26      -7.3836      2.00000
     27      -6.7889      2.00000
     28      -6.7889      2.00000
     29      -2.4158      2.00000
     30      -2.4157      2.00000
     31      -1.9176      2.00000
     32      -1.9176      2.00000
     33      -1.3731      2.00000
     34      -1.3731      2.00000
     35      -1.3449      2.00000
     36      -1.3449      2.00000
     37      -1.2395      2.00000
     38      -1.2395      2.00000
     39      -1.1210      2.00000
     40      -1.1210      2.00000
     41      -0.8864      2.00000
     42      -0.8864      2.00000
     43      -0.3157      2.00000
     44      -0.3157      2.00000
     45       0.0125      2.00000
     46       0.0125      2.00000
     47       0.1661      2.00000
     48       0.1662      2.00000
     49       0.5334      2.00000
     50       0.5334      2.00000
     51       1.2231      2.00000
     52       1.2231      2.00000
     53       1.6355      2.00000
     54       1.6355      2.00000
     55       2.0240      2.00000
     56       2.0240      2.00000
     57       2.6630      2.00000
     58       2.6631      2.00000
     59       2.8141      2.00000
     60       2.8141      2.00000
     61       3.9011      2.00000
     62       3.9011      2.00000
     63       6.1285      0.00000
     64       6.1286      0.00000
     65       6.4935      0.00000
     66       6.4936      0.00000
     67       7.6083      0.00000
     68       7.6083      0.00000
     69       8.7804      0.00000
     70       8.7805      0.00000
     71       9.3927      0.00000
     72       9.3927      0.00000
     73       9.5464      0.00000
     74       9.5465      0.00000
     75       9.9521      0.00000
     76       9.9521      0.00000
     77      10.5563      0.00000
     78      10.5578      0.00000
     79      10.9556      0.00000
     80      10.9854      0.00000

 k-point   142 :       0.2222    0.2222    0.5000
  band No.  band energies     occupation 
      1     -11.1875      2.00000
      2     -11.1874      2.00000
      3     -10.8684      2.00000
      4     -10.8683      2.00000
      5     -10.7415      2.00000
      6     -10.7415      2.00000
      7     -10.6546      2.00000
      8     -10.6546      2.00000
      9     -10.6133      2.00000
     10     -10.6132      2.00000
     11     -10.5573      2.00000
     12     -10.5573      2.00000
     13     -10.3181      2.00000
     14     -10.3180      2.00000
     15     -10.1511      2.00000
     16     -10.1511      2.00000
     17     -10.1349      2.00000
     18     -10.1349      2.00000
     19     -10.0849      2.00000
     20     -10.0849      2.00000
     21      -8.4831      2.00000
     22      -8.4830      2.00000
     23      -8.1833      2.00000
     24      -8.1832      2.00000
     25      -7.4459      2.00000
     26      -7.4458      2.00000
     27      -6.8812      2.00000
     28      -6.8812      2.00000
     29      -2.1562      2.00000
     30      -2.1561      2.00000
     31      -1.5736      2.00000
     32      -1.5735      2.00000
     33      -1.3976      2.00000
     34      -1.3976      2.00000
     35      -1.3634      2.00000
     36      -1.3634      2.00000
     37      -1.1948      2.00000
     38      -1.1948      2.00000
     39      -1.1288      2.00000
     40      -1.1288      2.00000
     41      -1.0491      2.00000
     42      -1.0491      2.00000
     43      -0.0361      2.00000
     44      -0.0361      2.00000
     45       0.2616      2.00000
     46       0.2617      2.00000
     47       0.3921      2.00000
     48       0.3921      2.00000
     49       0.7367      2.00000
     50       0.7367      2.00000
     51       1.2275      2.00000
     52       1.2275      2.00000
     53       1.9088      2.00000
     54       1.9088      2.00000
     55       2.1545      2.00000
     56       2.1545      2.00000
     57       2.6696      2.00000
     58       2.6696      2.00000
     59       2.8685      2.00000
     60       2.8685      2.00000
     61       3.9906      2.00000
     62       3.9906      2.00000
     63       6.3548      0.00000
     64       6.3549      0.00000
     65       6.6197      0.00000
     66       6.6198      0.00000
     67       7.9577      0.00000
     68       7.9578      0.00000
     69       8.7134      0.00000
     70       8.7135      0.00000
     71       9.5055      0.00000
     72       9.5055      0.00000
     73       9.7135      0.00000
     74       9.7135      0.00000
     75      10.1910      0.00000
     76      10.1910      0.00000
     77      10.4824      0.00000
     78      10.4834      0.00000
     79      10.8392      0.00000
     80      10.8938      0.00000

 k-point   143 :       0.2778    0.2222    0.5000
  band No.  band energies     occupation 
      1     -11.2064      2.00000
      2     -11.2064      2.00000
      3     -10.8677      2.00000
      4     -10.8677      2.00000
      5     -10.7404      2.00000
      6     -10.7404      2.00000
      7     -10.6534      2.00000
      8     -10.6534      2.00000
      9     -10.6136      2.00000
     10     -10.6135      2.00000
     11     -10.5697      2.00000
     12     -10.5696      2.00000
     13     -10.3370      2.00000
     14     -10.3369      2.00000
     15     -10.1510      2.00000
     16     -10.1509      2.00000
     17     -10.1253      2.00000
     18     -10.1252      2.00000
     19     -10.0855      2.00000
     20     -10.0855      2.00000
     21      -8.2732      2.00000
     22      -8.2731      2.00000
     23      -8.0343      2.00000
     24      -8.0343      2.00000
     25      -7.4112      2.00000
     26      -7.4111      2.00000
     27      -6.8203      2.00000
     28      -6.8203      2.00000
     29      -2.2610      2.00000
     30      -2.2610      2.00000
     31      -1.7430      2.00000
     32      -1.7430      2.00000
     33      -1.3797      2.00000
     34      -1.3797      2.00000
     35      -1.3504      2.00000
     36      -1.3504      2.00000
     37      -1.2061      2.00000
     38      -1.2061      2.00000
     39      -1.1475      2.00000
     40      -1.1474      2.00000
     41      -0.9878      2.00000
     42      -0.9878      2.00000
     43      -0.1240      2.00000
     44      -0.1239      2.00000
     45       0.0563      2.00000
     46       0.0563      2.00000
     47       0.1350      2.00000
     48       0.1350      2.00000
     49       0.6087      2.00000
     50       0.6087      2.00000
     51       1.1810      2.00000
     52       1.1810      2.00000
     53       1.7075      2.00000
     54       1.7075      2.00000
     55       2.0049      2.00000
     56       2.0049      2.00000
     57       2.5391      2.00000
     58       2.5391      2.00000
     59       2.8011      2.00000
     60       2.8011      2.00000
     61       3.9519      2.00000
     62       3.9519      2.00000
     63       6.3634      0.00000
     64       6.3635      0.00000
     65       6.6109      0.00000
     66       6.6109      0.00000
     67       7.9513      0.00000
     68       7.9514      0.00000
     69       8.6825      0.00000
     70       8.6825      0.00000
     71       9.5933      0.00000
     72       9.5934      0.00000
     73       9.7932      0.00000
     74       9.7932      0.00000
     75      10.3235      0.00000
     76      10.3237      0.00000
     77      10.6582      0.00000
     78      10.6604      0.00000
     79      10.9783      0.00000
     80      10.9946      0.00000

 k-point   144 :       0.3333    0.2222    0.5000
  band No.  band energies     occupation 
      1     -11.2183      2.00000
      2     -11.2183      2.00000
      3     -10.8671      2.00000
      4     -10.8671      2.00000
      5     -10.7402      2.00000
      6     -10.7401      2.00000
      7     -10.6525      2.00000
      8     -10.6524      2.00000
      9     -10.6130      2.00000
     10     -10.6130      2.00000
     11     -10.5779      2.00000
     12     -10.5778      2.00000
     13     -10.3492      2.00000
     14     -10.3491      2.00000
     15     -10.1520      2.00000
     16     -10.1519      2.00000
     17     -10.1130      2.00000
     18     -10.1129      2.00000
     19     -10.0911      2.00000
     20     -10.0910      2.00000
     21      -8.1066      2.00000
     22      -8.1065      2.00000
     23      -7.9370      2.00000
     24      -7.9369      2.00000
     25      -7.4076      2.00000
     26      -7.4075      2.00000
     27      -6.7808      2.00000
     28      -6.7808      2.00000
     29      -2.3426      2.00000
     30      -2.3426      2.00000
     31      -1.8788      2.00000
     32      -1.8788      2.00000
     33      -1.3680      2.00000
     34      -1.3680      2.00000
     35      -1.3451      2.00000
     36      -1.3451      2.00000
     37      -1.2180      2.00000
     38      -1.2180      2.00000
     39      -1.1380      2.00000
     40      -1.1380      2.00000
     41      -0.8901      2.00000
     42      -0.8901      2.00000
     43      -0.2228      2.00000
     44      -0.2228      2.00000
     45      -0.0900      2.00000
     46      -0.0900      2.00000
     47      -0.0207      2.00000
     48      -0.0207      2.00000
     49       0.5224      2.00000
     50       0.5224      2.00000
     51       1.1746      2.00000
     52       1.1747      2.00000
     53       1.5981      2.00000
     54       1.5981      2.00000
     55       1.8598      2.00000
     56       1.8598      2.00000
     57       2.4368      2.00000
     58       2.4368      2.00000
     59       2.8145      2.00000
     60       2.8145      2.00000
     61       3.9160      2.00000
     62       3.9160      2.00000
     63       6.3230      0.00000
     64       6.3231      0.00000
     65       6.6257      0.00000
     66       6.6257      0.00000
     67       7.9055      0.00000
     68       7.9055      0.00000
     69       8.6680      0.00000
     70       8.6681      0.00000
     71       9.6452      0.00000
     72       9.6452      0.00000
     73       9.7966      0.00000
     74       9.7967      0.00000
     75      10.3055      0.00000
     76      10.3055      0.00000
     77      10.7499      0.00000
     78      10.7565      0.00000
     79      11.1240      0.00000
     80      11.1274      0.00000

 k-point   145 :       0.3889    0.2222    0.5000
  band No.  band energies     occupation 
      1     -11.2224      2.00000
      2     -11.2224      2.00000
      3     -10.8669      2.00000
      4     -10.8668      2.00000
      5     -10.7402      2.00000
      6     -10.7401      2.00000
      7     -10.6522      2.00000
      8     -10.6521      2.00000
      9     -10.6125      2.00000
     10     -10.6124      2.00000
     11     -10.5809      2.00000
     12     -10.5808      2.00000
     13     -10.3534      2.00000
     14     -10.3533      2.00000
     15     -10.1524      2.00000
     16     -10.1524      2.00000
     17     -10.1025      2.00000
     18     -10.1024      2.00000
     19     -10.0992      2.00000
     20     -10.0991      2.00000
     21      -8.0368      2.00000
     22      -8.0367      2.00000
     23      -7.9071      2.00000
     24      -7.9070      2.00000
     25      -7.4123      2.00000
     26      -7.4122      2.00000
     27      -6.7672      2.00000
     28      -6.7672      2.00000
     29      -2.3735      2.00000
     30      -2.3734      2.00000
     31      -1.9293      2.00000
     32      -1.9293      2.00000
     33      -1.3653      2.00000
     34      -1.3653      2.00000
     35      -1.3432      2.00000
     36      -1.3432      2.00000
     37      -1.2224      2.00000
     38      -1.2223      2.00000
     39      -1.1322      2.00000
     40      -1.1322      2.00000
     41      -0.8304      2.00000
     42      -0.8304      2.00000
     43      -0.3001      2.00000
     44      -0.3000      2.00000
     45      -0.1290      2.00000
     46      -0.1289      2.00000
     47      -0.0639      2.00000
     48      -0.0639      2.00000
     49       0.4873      2.00000
     50       0.4873      2.00000
     51       1.1731      2.00000
     52       1.1732      2.00000
     53       1.5824      2.00000
     54       1.5825      2.00000
     55       1.7905      2.00000
     56       1.7905      2.00000
     57       2.3987      2.00000
     58       2.3988      2.00000
     59       2.8269      2.00000
     60       2.8270      2.00000
     61       3.9010      2.00000
     62       3.9010      2.00000
     63       6.3016      0.00000
     64       6.3017      0.00000
     65       6.6342      0.00000
     66       6.6343      0.00000
     67       7.8835      0.00000
     68       7.8836      0.00000
     69       8.6650      0.00000
     70       8.6651      0.00000
     71       9.6593      0.00000
     72       9.6594      0.00000
     73       9.7883      0.00000
     74       9.7883      0.00000
     75      10.2886      0.00000
     76      10.2887      0.00000
     77      10.7590      0.00000
     78      10.7605      0.00000
     79      11.1391      0.00000
     80      11.2089      0.00000

 k-point   146 :       0.2778    0.2778    0.5000
  band No.  band energies     occupation 
      1     -11.2173      2.00000
      2     -11.2172      2.00000
      3     -10.8650      2.00000
      4     -10.8649      2.00000
      5     -10.7418      2.00000
      6     -10.7417      2.00000
      7     -10.6476      2.00000
      8     -10.6476      2.00000
      9     -10.6178      2.00000
     10     -10.6178      2.00000
     11     -10.5685      2.00000
     12     -10.5685      2.00000
     13     -10.3666      2.00000
     14     -10.3665      2.00000
     15     -10.1424      2.00000
     16     -10.1424      2.00000
     17     -10.1227      2.00000
     18     -10.1226      2.00000
     19     -10.0914      2.00000
     20     -10.0914      2.00000
     21      -8.0928      2.00000
     22      -8.0928      2.00000
     23      -7.9153      2.00000
     24      -7.9153      2.00000
     25      -7.4189      2.00000
     26      -7.4188      2.00000
     27      -6.7781      2.00000
     28      -6.7781      2.00000
     29      -2.3094      2.00000
     30      -2.3094      2.00000
     31      -1.8599      2.00000
     32      -1.8598      2.00000
     33      -1.3654      2.00000
     34      -1.3654      2.00000
     35      -1.3472      2.00000
     36      -1.3472      2.00000
     37      -1.2042      2.00000
     38      -1.2042      2.00000
     39      -1.1487      2.00000
     40      -1.1487      2.00000
     41      -0.8938      2.00000
     42      -0.8938      2.00000
     43      -0.1853      2.00000
     44      -0.1853      2.00000
     45      -0.1326      2.00000
     46      -0.1326      2.00000
     47      -0.1091      2.00000
     48      -0.1090      2.00000
     49       0.5613      2.00000
     50       0.5613      2.00000
     51       1.1363      2.00000
     52       1.1363      2.00000
     53       1.5682      2.00000
     54       1.5683      2.00000
     55       1.8141      2.00000
     56       1.8141      2.00000
     57       2.3467      2.00000
     58       2.3468      2.00000
     59       2.8195      2.00000
     60       2.8196      2.00000
     61       3.9210      2.00000
     62       3.9210      2.00000
     63       6.3916      0.00000
     64       6.3917      0.00000
     65       6.6753      0.00000
     66       6.6753      0.00000
     67       8.0163      0.00000
     68       8.0163      0.00000
     69       8.6310      0.00000
     70       8.6310      0.00000
     71       9.7450      0.00000
     72       9.7451      0.00000
     73       9.8865      0.00000
     74       9.8865      0.00000
     75      10.6175      0.00000
     76      10.6178      0.00000
     77      10.7870      0.00000
     78      10.7912      0.00000
     79      11.1905      0.00000
     80      11.2239      0.00000

 k-point   147 :       0.3333    0.2778    0.5000
  band No.  band energies     occupation 
      1     -11.2228      2.00000
      2     -11.2228      2.00000
      3     -10.8631      2.00000
      4     -10.8630      2.00000
      5     -10.7427      2.00000
      6     -10.7427      2.00000
      7     -10.6428      2.00000
      8     -10.6428      2.00000
      9     -10.6217      2.00000
     10     -10.6216      2.00000
     11     -10.5665      2.00000
     12     -10.5664      2.00000
     13     -10.3841      2.00000
     14     -10.3840      2.00000
     15     -10.1384      2.00000
     16     -10.1383      2.00000
     17     -10.1157      2.00000
     18     -10.1157      2.00000
     19     -10.0998      2.00000
     20     -10.0998      2.00000
     21      -7.9781      2.00000
     22      -7.9780      2.00000
     23      -7.8466      2.00000
     24      -7.8466      2.00000
     25      -7.4429      2.00000
     26      -7.4428      2.00000
     27      -6.7558      2.00000
     28      -6.7558      2.00000
     29      -2.3316      2.00000
     30      -2.3315      2.00000
     31      -1.9296      2.00000
     32      -1.9296      2.00000
     33      -1.3605      2.00000
     34      -1.3605      2.00000
     35      -1.3470      2.00000
     36      -1.3470      2.00000
     37      -1.2051      2.00000
     38      -1.2050      2.00000
     39      -1.1424      2.00000
     40      -1.1423      2.00000
     41      -0.8056      2.00000
     42      -0.8056      2.00000
     43      -0.3085      2.00000
     44      -0.3085      2.00000
     45      -0.2651      2.00000
     46      -0.2651      2.00000
     47      -0.1458      2.00000
     48      -0.1457      2.00000
     49       0.5523      2.00000
     50       0.5523      2.00000
     51       1.0644      2.00000
     52       1.0645      2.00000
     53       1.5469      2.00000
     54       1.5469      2.00000
     55       1.6871      2.00000
     56       1.6871      2.00000
     57       2.2376      2.00000
     58       2.2376      2.00000
     59       2.8468      2.00000
     60       2.8469      2.00000
     61       3.8989      2.00000
     62       3.8989      2.00000
     63       6.3782      0.00000
     64       6.3783      0.00000
     65       6.7244      0.00000
     66       6.7245      0.00000
     67       8.0075      0.00000
     68       8.0076      0.00000
     69       8.6219      0.00000
     70       8.6220      0.00000
     71       9.8151      0.00000
     72       9.8151      0.00000
     73       9.9428      0.00000
     74       9.9428      0.00000
     75      10.6214      0.00000
     76      10.6214      0.00000
     77      10.9798      0.00000
     78      10.9904      0.00000
     79      11.3816      0.00000
     80      11.3854      0.00000

 k-point   148 :       0.3333    0.3333    0.5000
  band No.  band energies     occupation 
      1     -11.2242      2.00000
      2     -11.2242      2.00000
      3     -10.8614      2.00000
      4     -10.8614      2.00000
      5     -10.7437      2.00000
      6     -10.7437      2.00000
      7     -10.6332      2.00000
      8     -10.6331      2.00000
      9     -10.6311      2.00000
     10     -10.6310      2.00000
     11     -10.5604      2.00000
     12     -10.5603      2.00000
     13     -10.3985      2.00000
     14     -10.3985      2.00000
     15     -10.1273      2.00000
     16     -10.1272      2.00000
     17     -10.1220      2.00000
     18     -10.1220      2.00000
     19     -10.1040      2.00000
     20     -10.1039      2.00000
     21      -7.9315      2.00000
     22      -7.9315      2.00000
     23      -7.8045      2.00000
     24      -7.8045      2.00000
     25      -7.4669      2.00000
     26      -7.4668      2.00000
     27      -6.7471      2.00000
     28      -6.7471      2.00000
     29      -2.3220      2.00000
     30      -2.3219      2.00000
     31      -1.9485      2.00000
     32      -1.9484      2.00000
     33      -1.3583      2.00000
     34      -1.3582      2.00000
     35      -1.3492      2.00000
     36      -1.3492      2.00000
     37      -1.1993      2.00000
     38      -1.1993      2.00000
     39      -1.1434      2.00000
     40      -1.1434      2.00000
     41      -0.7680      2.00000
     42      -0.7680      2.00000
     43      -0.3917      2.00000
     44      -0.3916      2.00000
     45      -0.3035      2.00000
     46      -0.3035      2.00000
     47      -0.1701      2.00000
     48      -0.1701      2.00000
     49       0.6013      2.00000
     50       0.6013      2.00000
     51       0.9727      2.00000
     52       0.9727      2.00000
     53       1.5249      2.00000
     54       1.5250      2.00000
     55       1.6513      2.00000
     56       1.6513      2.00000
     57       2.1613      2.00000
     58       2.1614      2.00000
     59       2.8618      2.00000
     60       2.8618      2.00000
     61       3.8915      2.00000
     62       3.8915      2.00000
     63       6.3874      0.00000
     64       6.3874      0.00000
     65       6.7650      0.00000
     66       6.7651      0.00000
     67       8.0232      0.00000
     68       8.0233      0.00000
     69       8.6132      0.00000
     70       8.6133      0.00000
     71       9.8798      0.00000
     72       9.8798      0.00000
     73      10.0046      0.00000
     74      10.0046      0.00000
     75      10.7083      0.00000
     76      10.7084      0.00000
     77      11.1535      0.00000
     78      11.1628      0.00000
     79      11.4613      0.00000
     80      11.5810      0.00000


--------------------------------------------------------------------------------------------------------


 soft charge-density along one line, spin component           1
         0         1         2         3         4         5         6         7         8         9
 total charge-density along one line
 
 pseudopotential strength for first ion, spin component:           1
-12.917   0.000   0.000  -0.001   0.000   3.212  -0.000  -0.000
  0.000 -12.898  -0.000  -0.000  -0.001  -0.000   3.199   0.000
  0.000  -0.000 -12.889   0.000  -0.000  -0.000   0.000   3.194
 -0.001  -0.000   0.000 -12.898   0.000   0.001   0.000  -0.000
  0.000  -0.001  -0.000   0.000 -12.917  -0.000   0.001   0.000
  3.212  -0.000  -0.000   0.001  -0.000   4.751   0.000   0.000
 -0.000   3.199   0.000   0.000   0.001   0.000   4.758  -0.000
 -0.000   0.000   3.194  -0.000   0.000   0.000  -0.000   4.760
  0.001   0.000  -0.000   3.199  -0.000  -0.000  -0.000   0.000
 -0.000   0.001   0.000  -0.000   3.212   0.000  -0.000  -0.000
  0.000   0.000   0.000  -0.000  -0.000   0.000   0.000  -0.002
  0.000   0.000   0.000  -0.000  -0.000   0.000   0.000  -0.002
 -0.000   0.000  -0.000  -0.000  -0.000  -0.000   0.001  -0.000
 -0.000   0.000  -0.001  -0.000   0.000  -0.000   0.000  -0.001
 -0.000  -0.000   0.000   0.000  -0.000  -0.002  -0.000   0.000
 -0.000  -0.000  -0.000  -0.000  -0.001  -0.000   0.001  -0.000
 -0.000   0.000  -0.001  -0.000   0.000  -0.000   0.000  -0.003
 -0.001  -0.000   0.000  -0.000  -0.000  -0.003  -0.000   0.000
 total augmentation occupancy for first ion, spin component:           1
  2.000   0.000   0.000   0.000   0.000   0.000   0.000   0.000   0.000   0.000   0.000   0.000   0.000   0.000   0.000   0.000
  0.000   2.000   0.000   0.000   0.000   0.000   0.000   0.000   0.000   0.000   0.000   0.000   0.000   0.000   0.000   0.000
  0.000   0.000   2.000   0.000   0.000   0.000   0.000   0.000   0.000   0.000   0.000   0.000   0.000   0.000   0.000   0.000
  0.000   0.000   0.000   2.000   0.000   0.000   0.000   0.000   0.000   0.000   0.000   0.000   0.000   0.000   0.000   0.000
  0.000   0.000   0.000   0.000   2.000   0.000   0.000   0.000   0.000   0.000   0.000   0.000   0.000   0.000   0.000   0.000
  0.000   0.000   0.000   0.000   0.000   0.000   0.000   0.000   0.000   0.000   0.000   0.000   0.000   0.000   0.000   0.000
  0.000   0.000   0.000   0.000   0.000   0.000   0.000   0.000   0.000   0.000   0.000   0.000   0.000   0.000   0.000   0.000
  0.000   0.000   0.000   0.000   0.000   0.000   0.000   0.000   0.000   0.000   0.000   0.000   0.000   0.000   0.000   0.000
  0.000   0.000   0.000   0.000   0.000   0.000   0.000   0.000   0.000   0.000   0.000   0.000   0.000   0.000   0.000   0.000
  0.000   0.000   0.000   0.000   0.000   0.000   0.000   0.000   0.000   0.000   0.000   0.000   0.000   0.000   0.000   0.000
  0.000   0.000   0.000   0.000   0.000   0.000   0.000   0.000   0.000   0.000   2.000   0.000   0.000   0.000   0.000   0.000
  0.000   0.000   0.000   0.000   0.000   0.000   0.000   0.000   0.000   0.000   0.000   0.000   0.000   0.000   0.000   0.000
  0.000   0.000   0.000   0.000   0.000   0.000   0.000   0.000   0.000   0.000   0.000   0.000   0.333   0.000   0.000   0.000
  0.000   0.000   0.000   0.000   0.000   0.000   0.000   0.000   0.000   0.000   0.000   0.000   0.000   0.333   0.000   0.000
  0.000   0.000   0.000   0.000   0.000   0.000   0.000   0.000   0.000   0.000   0.000   0.000   0.000   0.000   0.333   0.000
  0.000   0.000   0.000   0.000   0.000   0.000   0.000   0.000   0.000   0.000   0.000   0.000   0.000   0.000   0.000   0.000
  0.000   0.000   0.000   0.000   0.000   0.000   0.000   0.000   0.000   0.000   0.000   0.000   0.000   0.000   0.000   0.000
  0.000   0.000   0.000   0.000   0.000   0.000   0.000   0.000   0.000   0.000   0.000   0.000   0.000   0.000   0.000   0.000


------------------------ aborting loop because EDIFF is reached ----------------------------------------


 


 total charge     
 
# of ion       s       p       d       tot
------------------------------------------
    1        0.790   0.703   9.936  11.429
    2        0.790   0.703   9.936  11.429
    3        0.733   0.611   9.950  11.294
    4        0.733   0.611   9.950  11.294
    5        0.527   0.452   9.795  10.774
    6        0.527   0.452   9.795  10.774
    7        1.320   2.414   0.000   3.734
    8        1.320   2.414   0.000   3.734
    9        1.364   2.340   0.000   3.704
   10        1.364   2.340   0.000   3.704
   11        1.344   2.386   0.000   3.730
   12        1.344   2.386   0.000   3.730
   13        1.346   2.376   0.000   3.723
   14        1.346   2.377   0.000   3.723
--------------------------------------------------
tot         14.847  22.568  59.362  96.777
 
    CHARGE:  cpu time    2.0493: real time    2.1453
    FORLOC:  cpu time    0.0298: real time    0.0427
    FORNL :  cpu time   12.7370: real time   13.6686
    STRESS:  cpu time   25.8793: real time   27.5661
    FORCOR:  cpu time    0.0664: real time    0.1333
    FORHAR:  cpu time    0.0450: real time    0.0451
    OFIELD:  cpu time    0.0003: real time    0.0003

 ---------------------------------------------------------------------------------------------

         DFTD3 V3.0 Rev 1        
 IVDW         = 12
 DF pbe       
 parameters
 VDW_S6       =    1.0000
 VDW_S8       =    0.7875
 VDW_A1       =    0.4289
 VDW_A2       =    4.4407
 k1-k3        =   16.0000    1.3333   -4.0000
 VDW_RADIUS   =   50.2022 A
 VDW_CNRADIUS =   21.1671 A
 Edisp (eV)   -4.20481

 E6    (eV) :    -2.4557
 E8    (eV) :    -1.7491
 % E8        : 41.60
    FORVDW:  cpu time    0.0426: real time    0.0588

  FORCE on cell =-STRESS in cart. coord.  units (eV):
  Direction    XX          YY          ZZ          XY          YZ          ZX
  --------------------------------------------------------------------------------------
  Alpha Z   291.43441   291.43441   291.43441
  Ewald   -2388.32609 -2388.32598 -3339.62745    -0.00001     0.00001    -0.00000
  Hartree  1503.47185  1503.47182   820.26885     0.00001    -0.00000     0.00001
  E(xc)    -578.99521  -578.99520  -579.27182     0.00001    -0.00000    -0.00000
  Local   -1258.57650 -1258.57692   364.88700    -0.00033    -0.00001    -0.00001
  n-local   664.71768   672.07161   662.88620   -12.60142    -0.01435    -0.01126
  augment   581.58060   581.58098   581.84858     0.00033    -0.00000     0.00000
  Kinetic  1174.02317  1197.14036  1202.15150   -27.22218    -0.02526    -0.01979
  Fock        0.00000     0.00000     0.00000     0.00000     0.00000     0.00000
  vdW        -4.59530    -4.59530    -4.63946    -0.00000    -0.00000    -0.00000
  -------------------------------------------------------------------------------------
  Total      -0.02981    -0.02981    -0.06218     0.00000    -0.00000     0.00000
  in kB      -0.15020    -0.15020    -0.31325     0.00000    -0.00000     0.00000
  external pressure =       -0.20 kB  Pullay stress =        0.00 kB


 VOLUME and BASIS-vectors are now :
 -----------------------------------------------------------------------------
  energy-cutoff  :      500.00
  volume of cell :      318.03
      direct lattice vectors                 reciprocal lattice vectors
     3.883346612  0.000000000  0.000000000     0.257509849  0.148673381  0.000000000
    -1.941673306  3.363076818  0.000000000     0.000000000  0.297346761  0.000000000
     0.000000000  0.000000000 24.351774471     0.000000000  0.000000000  0.041064769

  length of vectors
     3.883346612  3.883346612 24.351774471     0.297346761  0.297346761  0.041064769


 FORCES acting on ions
    electron-ion (+dipol)            ewald-force                    non-local-force                 convergence-correction
 -----------------------------------------------------------------------------------------------
   0.854E-06 -.229E-04 0.474E+02   0.341E-06 -.742E-05 -.467E+02   -.625E-16 -.139E-16 -.698E+00   0.414E-02 -.225E-02 -.293E-01
   0.376E-04 0.229E-04 0.474E+02   0.129E-04 0.745E-05 -.467E+02   0.763E-16 0.416E-16 -.698E+00   -.439E-02 0.225E-02 -.304E-01
   -.141E-04 -.700E-05 0.487E+02   -.956E-05 -.692E-06 -.459E+02   -.694E-17 -.694E-17 -.275E+01   -.406E-02 0.248E-02 -.570E-01
   -.323E-06 0.305E-04 0.487E+02   -.707E-05 0.165E-04 -.459E+02   -.694E-17 0.139E-16 -.275E+01   0.418E-02 -.269E-02 -.570E-01
   0.205E-05 0.525E-06 -.829E+02   0.103E-04 0.556E-05 0.854E+02   0.000E+00 0.278E-16 -.253E+01   0.238E-03 -.146E-03 0.517E-01
   -.576E-06 -.244E-05 -.829E+02   -.345E-06 -.230E-04 0.854E+02   0.000E+00 -.278E-16 -.253E+01   -.245E-03 0.158E-03 0.545E-01
   -.266E-04 -.139E-04 -.115E+03   -.102E-04 -.549E-05 0.118E+03   -.416E-16 0.000E+00 -.340E+01   -.202E-03 0.124E-03 0.108E-01
   0.133E-05 0.572E-04 -.115E+03   0.341E-06 0.230E-04 0.118E+03   0.278E-16 0.000E+00 -.340E+01   0.208E-03 -.134E-03 0.108E-01
   0.144E-06 -.441E-05 0.106E+03   -.222E-06 0.733E-05 -.113E+03   -.763E-16 0.000E+00 0.675E+01   -.162E-03 0.885E-04 0.381E-02
   0.693E-05 0.418E-05 0.106E+03   -.129E-04 -.771E-05 -.113E+03   0.555E-16 0.139E-16 0.675E+01   0.171E-03 -.882E-04 0.374E-02
   -.116E-05 -.389E-04 0.716E+02   0.389E-05 -.255E-05 -.686E+02   0.000E+00 -.833E-16 -.299E+01   0.342E-03 -.192E-03 0.685E-02
   0.626E-04 0.417E-04 0.716E+02   0.756E-05 -.375E-05 -.686E+02   0.000E+00 0.000E+00 -.299E+01   -.360E-03 0.197E-03 0.685E-02
   -.276E-05 -.124E-05 -.687E+02   0.552E-05 0.324E-05 0.708E+02   0.416E-16 -.278E-16 -.211E+01   0.120E-03 -.739E-04 -.148E-01
   0.224E-06 0.680E-05 -.687E+02   -.599E-06 -.125E-04 0.708E+02   0.139E-16 0.000E+00 -.211E+01   -.123E-03 0.807E-04 -.148E-01
 -----------------------------------------------------------------------------------------------
   0.662E-04 0.732E-04 0.155E+02   -.144E-12 0.280E-15 -.114E-12   0.208E-16 -.625E-16 -.155E+02   -.134E-03 -.198E-03 -.541E-01
 
 
 POSITION                                       TOTAL-FORCE (eV/Angst)
 -----------------------------------------------------------------------------------
     -0.00000      2.24205      2.27596        -0.000000     -0.000000     -0.001046
      1.94167      1.12103     14.45185         0.000000      0.000000     -0.001046
      1.94167      1.12103      6.25238        -0.000000     -0.000000     -0.004954
     -0.00000      2.24205     18.42827         0.000000     -0.000000     -0.004954
      0.00000      0.00000     10.05488        -0.000000     -0.000000      0.003544
      0.00000      0.00000     22.23077        -0.000000      0.000000      0.003544
      1.94167      1.12103     10.60032        -0.000000      0.000000     -0.001544
     -0.00000      2.24205     22.77621        -0.000000     -0.000000     -0.001544
      0.00000      0.00000      1.20361        -0.000000     -0.000000     -0.000421
      0.00000      0.00000     13.37949        -0.000000     -0.000000     -0.000421
     -0.00000      2.24205      4.72705        -0.000000     -0.000000     -0.002560
      1.94167      1.12103     16.90294        -0.000000      0.000000     -0.002560
      0.00000      0.00000      7.51358        -0.000000     -0.000000      0.006981
      0.00000      0.00000     19.68947        -0.000000      0.000000      0.006981
 -----------------------------------------------------------------------------------
    total drift:                               -0.000067     -0.000125      0.000185


--------------------------------------------------------------------------------------------------------



  FREE ENERGIE OF THE ION-ELECTRON SYSTEM (eV)
  ---------------------------------------------------
  free  energy   TOTEN  =       -57.50412140 eV

  energy  without entropy=      -57.50412140  energy(sigma->0) =      -57.50412140
 


--------------------------------------------------------------------------------------------------------


    POTLOK:  cpu time    0.5175: real time    0.5187


--------------------------------------------------------------------------------------------------------


     LOOP+:  cpu time  651.0125: real time  678.4345
    4ORBIT:  cpu time    0.0000: real time    0.0000
 


 total charge     
 
# of ion       s       p       d       tot
------------------------------------------
    1        0.790   0.703   9.936  11.429
    2        0.790   0.703   9.936  11.429
    3        0.733   0.611   9.950  11.294
    4        0.733   0.611   9.950  11.294
    5        0.527   0.452   9.795  10.774
    6        0.527   0.452   9.795  10.774
    7        1.320   2.414   0.000   3.734
    8        1.320   2.414   0.000   3.734
    9        1.364   2.340   0.000   3.704
   10        1.364   2.340   0.000   3.704
   11        1.344   2.386   0.000   3.730
   12        1.344   2.386   0.000   3.730
   13        1.346   2.376   0.000   3.723
   14        1.346   2.377   0.000   3.723
--------------------------------------------------
tot         14.847  22.568  59.362  96.777
 
 BZINTS: Fermi energy:  4.511848;124.000000 electrons
         Band energy:-511.479021;  BLOECHL correction:  0.000000

 total amount of memory used by VASP MPI-rank0   784246. kBytes
=======================================================================

   base      :      30000. kBytes
   nonl-proj :     521492. kBytes
   fftplans  :      21173. kBytes
   grid      :      14726. kBytes
   one-center:        217. kBytes
   wavefun   :     196638. kBytes
 
  
  
 General timing and accounting informations for this job:
 ========================================================
  
                  Total CPU time used (sec):      666.804
                            User time (sec):      649.168
                          System time (sec):       17.636
                         Elapsed time (sec):      696.539
  
                   Maximum memory used (kb):      908980.
                   Average memory used (kb):           0.
  
                          Minor page faults:        95093
                          Major page faults:            0
                 Voluntary context switches:         1160
