In2 S4 Zn
   1.00000000000000
     3.8833466123294311   -0.0000000000000000   -0.0000000000000000
    -1.9416733061647156    3.3630768180273156    0.0000000000000000
    -0.0000000000000000    0.0000000000000000   24.3517744714588353
   In   Zn   S
     4     2     8
Direct
  0.3333333429999996  0.6666666870000029  0.0934617303583127
  0.6666666269999979  0.3333333129999971  0.5934617153583152
  0.6666666870000029  0.3333333429999996  0.2567525314527619
  0.3333333129999971  0.6666666269999979  0.7567525314527618
 -0.0000000000000000  0.0000000000000000  0.4129012914011448
  0.0000000000000000 -0.0000000000000000  0.9129013214011472
  0.6666666870000029  0.3333333429999996  0.4352996732714785
  0.3333333129999971  0.6666666269999979  0.9352996432714757
  0.0000000000000000  0.0000000000000000  0.0494258273869340
 -0.0000000000000000  0.0000000000000000  0.5494258273869339
  0.3333333429999996  0.6666666870000029  0.1941154110605817
  0.6666666269999979  0.3333333129999971  0.6941154110605815
 -0.0000000000000000 -0.0000000000000000  0.3085435140687838
  0.0000000000000000 -0.0000000000000000  0.8085435140687839

  0.00000000E+00  0.00000000E+00  0.00000000E+00
  0.00000000E+00  0.00000000E+00  0.00000000E+00
  0.00000000E+00  0.00000000E+00  0.00000000E+00
  0.00000000E+00  0.00000000E+00  0.00000000E+00
  0.00000000E+00  0.00000000E+00  0.00000000E+00
  0.00000000E+00  0.00000000E+00  0.00000000E+00
  0.00000000E+00  0.00000000E+00  0.00000000E+00
  0.00000000E+00  0.00000000E+00  0.00000000E+00
  0.00000000E+00  0.00000000E+00  0.00000000E+00
  0.00000000E+00  0.00000000E+00  0.00000000E+00
  0.00000000E+00  0.00000000E+00  0.00000000E+00
  0.00000000E+00  0.00000000E+00  0.00000000E+00
  0.00000000E+00  0.00000000E+00  0.00000000E+00
  0.00000000E+00  0.00000000E+00  0.00000000E+00