ZnIn2S4 DOS/PDOS                        
           1
     3.883347    0.000000    0.000000
    -1.941673    3.363077    0.000000
     0.000000    0.000000   24.351774
   In   Zn   S 
   4   2   8
Direct configuration=     1
   0.33333334  0.66666669  0.09346173
   0.66666663  0.33333331  0.59346172
   0.66666669  0.33333334  0.25675253
   0.33333331  0.66666663  0.75675253
   0.00000000  0.00000000  0.41290129
   0.00000000  0.00000000  0.91290132
   0.66666669  0.33333334  0.43529967
   0.33333331  0.66666663  0.93529964
   0.00000000  0.00000000  0.04942583
   0.00000000  0.00000000  0.54942583
   0.33333334  0.66666669  0.19411541
   0.66666663  0.33333331  0.69411541
   0.00000000  0.00000000  0.30854351
   0.00000000  0.00000000  0.80854351
