  21  21   0   0
  0.2292672E+02  0.3872800E-09  0.3872800E-09  0.3706640E-08  0.5000000E-15
  1.000000000000000E-004
  CAR 
 ZnIn2S4 bulk PBE-D3BJ relaxation        
     11.80666243    -12.30332081  301      4.67135491      1.00000000
    -12.303  0.0000E+00  0.0000E+00
    -12.223  0.0000E+00  0.0000E+00
    -12.143  0.0000E+00  0.0000E+00
    -12.062  0.0000E+00  0.0000E+00
    -11.982  0.0000E+00  0.0000E+00
    -11.901  0.0000E+00  0.0000E+00
    -11.821  0.0000E+00  0.0000E+00
    -11.741  0.0000E+00  0.0000E+00
    -11.660  0.0000E+00  0.0000E+00
    -11.580  0.0000E+00  0.0000E+00
    -11.500  0.3310E-17  0.2660E-18
    -11.419  0.5966E-10  0.4795E-11
    -11.339  0.7487E-05  0.6017E-06
    -11.259  0.7903E-02  0.6357E-03
    -11.178  0.1323E+00  0.1127E-01
    -11.098  0.1336E+00  0.2201E-01
    -11.017  0.6761E-01  0.2744E-01
    -10.937  0.3371E-01  0.3015E-01
    -10.857  0.1559E+00  0.4268E-01
    -10.776  0.2475E+00  0.6257E-01
    -10.696  0.2937E+00  0.8617E-01
    -10.616  0.4591E+00  0.1231E+00
    -10.535  0.5167E+00  0.1646E+00
    -10.455  0.1159E+00  0.1739E+00
    -10.375  0.5660E-01  0.1785E+00
    -10.294  0.1221E+00  0.1883E+00
    -10.214  0.2735E+00  0.2102E+00
    -10.133  0.4848E+00  0.2492E+00
    -10.053  0.5572E+00  0.2940E+00
     -9.973  0.7457E-01  0.3000E+00
     -9.892  0.3004E-03  0.3000E+00
     -9.812  0.7403E-05  0.3000E+00
     -9.732  0.8226E-03  0.3001E+00
     -9.651  0.5842E-02  0.3005E+00
     -9.571  0.1076E-01  0.3014E+00
     -9.490  0.6135E-02  0.3019E+00
     -9.410  0.1662E-01  0.3032E+00
     -9.330  0.8826E-02  0.3039E+00
     -9.249  0.4023E-02  0.3043E+00
     -9.169  0.2374E-01  0.3062E+00
     -9.089  0.1995E-01  0.3078E+00
     -9.008  0.1909E-01  0.3093E+00
     -8.928  0.2522E-01  0.3113E+00
     -8.848  0.4271E-01  0.3148E+00
     -8.767  0.2629E-01  0.3169E+00
     -8.687  0.3243E-01  0.3195E+00
     -8.606  0.1790E-01  0.3209E+00
     -8.526  0.5266E-01  0.3252E+00
     -8.446  0.5267E-01  0.3294E+00
     -8.365  0.2467E-01  0.3314E+00
     -8.285  0.4311E-01  0.3348E+00
     -8.205  0.9765E-01  0.3427E+00
     -8.124  0.3986E-01  0.3459E+00
     -8.044  0.7699E-01  0.3521E+00
     -7.964  0.7883E-01  0.3584E+00
     -7.883  0.4376E-01  0.3619E+00
     -7.803  0.3203E-01  0.3645E+00
     -7.722  0.2773E-01  0.3667E+00
     -7.642  0.1623E-01  0.3680E+00
     -7.562  0.3273E-01  0.3707E+00
     -7.481  0.3576E-01  0.3735E+00
     -7.401  0.1036E+00  0.3819E+00
     -7.321  0.1130E+00  0.3909E+00
     -7.240  0.3358E-01  0.3936E+00
     -7.160  0.2504E-01  0.3957E+00
     -7.079  0.2677E-01  0.3978E+00
     -6.999  0.3780E-01  0.4008E+00
     -6.919  0.4145E-01  0.4042E+00
     -6.838  0.7495E-01  0.4102E+00
     -6.758  0.9651E-01  0.4180E+00
     -6.678  0.2501E-01  0.4200E+00
     -6.597  0.4202E-03  0.4200E+00
     -6.517  0.1250E-06  0.4200E+00
     -6.437  0.3759E-12  0.4200E+00
     -6.356  0.0000E+00  0.4200E+00
     -6.276  0.0000E+00  0.4200E+00
     -6.195  0.0000E+00  0.4200E+00
     -6.115  0.0000E+00  0.4200E+00
     -6.035  0.0000E+00  0.4200E+00
     -5.954  0.0000E+00  0.4200E+00
     -5.874  0.0000E+00  0.4200E+00
     -5.794  0.0000E+00  0.4200E+00
     -5.713  0.0000E+00  0.4200E+00
     -5.633  0.0000E+00  0.4200E+00
     -5.553  0.0000E+00  0.4200E+00
     -5.472  0.0000E+00  0.4200E+00
     -5.392  0.0000E+00  0.4200E+00
     -5.311  0.0000E+00  0.4200E+00
     -5.231  0.0000E+00  0.4200E+00
     -5.151  0.0000E+00  0.4200E+00
     -5.070  0.0000E+00  0.4200E+00
     -4.990  0.0000E+00  0.4200E+00
     -4.910  0.0000E+00  0.4200E+00
     -4.829  0.0000E+00  0.4200E+00
     -4.749  0.0000E+00  0.4200E+00
     -4.668  0.0000E+00  0.4200E+00
     -4.588  0.0000E+00  0.4200E+00
     -4.508  0.0000E+00  0.4200E+00
     -4.427  0.0000E+00  0.4200E+00
     -4.347  0.0000E+00  0.4200E+00
     -4.267  0.0000E+00  0.4200E+00
     -4.186  0.0000E+00  0.4200E+00
     -4.106  0.0000E+00  0.4200E+00
     -4.026  0.0000E+00  0.4200E+00
     -3.945  0.0000E+00  0.4200E+00
     -3.865  0.0000E+00  0.4200E+00
     -3.784  0.0000E+00  0.4200E+00
     -3.704  0.0000E+00  0.4200E+00
     -3.624  0.0000E+00  0.4200E+00
     -3.543  0.0000E+00  0.4200E+00
     -3.463  0.0000E+00  0.4200E+00
     -3.383  0.0000E+00  0.4200E+00
     -3.302  0.0000E+00  0.4200E+00
     -3.222  0.0000E+00  0.4200E+00
     -3.142  0.0000E+00  0.4200E+00
     -3.061  0.0000E+00  0.4200E+00
     -2.981  0.0000E+00  0.4200E+00
     -2.900  0.0000E+00  0.4200E+00
     -2.820  0.3661E-14  0.4200E+00
     -2.740  0.4038E-08  0.4200E+00
     -2.659  0.3304E-04  0.4200E+00
     -2.579  0.3050E-02  0.4202E+00
     -2.499  0.2124E-01  0.4220E+00
     -2.418  0.3598E-01  0.4248E+00
     -2.338  0.4481E-01  0.4284E+00
     -2.257  0.5474E-01  0.4328E+00
     -2.177  0.2710E-01  0.4350E+00
     -2.097  0.3454E-01  0.4378E+00
     -2.016  0.4582E-01  0.4415E+00
     -1.936  0.8272E-01  0.4481E+00
     -1.856  0.6421E-01  0.4533E+00
     -1.775  0.5178E-01  0.4575E+00
     -1.695  0.4541E-01  0.4611E+00
     -1.615  0.2561E-01  0.4632E+00
     -1.534  0.1167E+00  0.4725E+00
     -1.454  0.1723E+00  0.4864E+00
     -1.373  0.2435E+00  0.5060E+00
     -1.293  0.3131E+00  0.5311E+00
     -1.213  0.2088E+00  0.5479E+00
     -1.132  0.3161E+00  0.5733E+00
     -1.052  0.3337E+00  0.6001E+00
     -0.972  0.1159E+00  0.6094E+00
     -0.891  0.6359E-01  0.6145E+00
     -0.811  0.5270E-01  0.6188E+00
     -0.731  0.3178E-01  0.6213E+00
     -0.650  0.1142E-01  0.6222E+00
     -0.570  0.2694E-02  0.6225E+00
     -0.489  0.2732E-01  0.6247E+00
     -0.409  0.5361E-01  0.6290E+00
     -0.329  0.6002E-01  0.6338E+00
     -0.248  0.6137E-01  0.6387E+00
     -0.168  0.3364E-01  0.6414E+00
     -0.088  0.8236E-01  0.6480E+00
     -0.007  0.9325E-01  0.6555E+00
      0.073  0.4748E-01  0.6594E+00
      0.154  0.4745E-01  0.6632E+00
      0.234  0.5066E-01  0.6672E+00
      0.314  0.4665E-01  0.6710E+00
      0.395  0.6079E-01  0.6759E+00
      0.475  0.2692E-01  0.6780E+00
      0.555  0.3814E-01  0.6811E+00
      0.636  0.8434E-01  0.6879E+00
      0.716  0.1016E+00  0.6960E+00
      0.796  0.7720E-01  0.7023E+00
      0.877  0.7513E-01  0.7083E+00
      0.957  0.7214E-01  0.7141E+00
      1.038  0.4924E-01  0.7180E+00
      1.118  0.7527E-01  0.7241E+00
      1.198  0.8179E-01  0.7307E+00
      1.279  0.1006E+00  0.7388E+00
      1.359  0.6725E-01  0.7442E+00
      1.439  0.8173E-01  0.7507E+00
      1.520  0.9994E-01  0.7588E+00
      1.600  0.1034E+00  0.7671E+00
      1.680  0.8054E-01  0.7735E+00
      1.761  0.7016E-01  0.7792E+00
      1.841  0.8846E-01  0.7863E+00
      1.922  0.6408E-01  0.7914E+00
      2.002  0.6445E-01  0.7966E+00
      2.082  0.5548E-01  0.8011E+00
      2.163  0.4517E-01  0.8047E+00
      2.243  0.4935E-01  0.8087E+00
      2.323  0.7510E-01  0.8147E+00
      2.404  0.7323E-01  0.8206E+00
      2.484  0.5418E-01  0.8250E+00
      2.565  0.5147E-01  0.8291E+00
      2.645  0.4305E-01  0.8325E+00
      2.725  0.6622E-01  0.8379E+00
      2.806  0.1275E+00  0.8481E+00
      2.886  0.1469E+00  0.8599E+00
      2.966  0.8158E-01  0.8665E+00
      3.047  0.6229E-01  0.8715E+00
      3.127  0.5780E-01  0.8761E+00
      3.207  0.3179E-01  0.8787E+00
      3.288  0.2347E-01  0.8806E+00
      3.368  0.3032E-01  0.8830E+00
      3.449  0.3055E-01  0.8855E+00
      3.529  0.3091E-01  0.8879E+00
      3.609  0.3410E-01  0.8907E+00
      3.690  0.1076E-01  0.8916E+00
      3.770  0.6571E-02  0.8921E+00
      3.850  0.5813E-01  0.8968E+00
      3.931  0.1380E+00  0.9078E+00
      4.011  0.1293E+00  0.9182E+00
      4.091  0.7258E-01  0.9241E+00
      4.172  0.3148E-01  0.9266E+00
      4.252  0.1965E-01  0.9282E+00
      4.333  0.2119E-02  0.9283E+00
      4.413  0.7798E-02  0.9290E+00
      4.493  0.9118E-02  0.9297E+00
      4.574  0.3460E-02  0.9300E+00
      4.654  0.1717E-03  0.9300E+00
      4.734  0.5128E-05  0.9300E+00
      4.815  0.2117E-03  0.9300E+00
      4.895  0.2109E-03  0.9300E+00
      4.976  0.1466E-03  0.9300E+00
      5.056  0.6379E-03  0.9301E+00
      5.136  0.9918E-04  0.9301E+00
      5.217  0.1032E-02  0.9302E+00
      5.297  0.2364E-02  0.9304E+00
      5.377  0.4534E-02  0.9307E+00
      5.458  0.2477E-02  0.9309E+00
      5.538  0.6901E-02  0.9315E+00
      5.618  0.1418E-01  0.9326E+00
      5.699  0.2160E-01  0.9344E+00
      5.779  0.2216E-01  0.9362E+00
      5.860  0.3580E-01  0.9390E+00
      5.940  0.3357E-01  0.9417E+00
      6.020  0.2643E-01  0.9439E+00
      6.101  0.6731E-01  0.9493E+00
      6.181  0.7130E-01  0.9550E+00
      6.261  0.6996E-01  0.9606E+00
      6.342  0.5288E-01  0.9649E+00
      6.422  0.4880E-01  0.9688E+00
      6.502  0.5630E-01  0.9733E+00
      6.583  0.6426E-01  0.9785E+00
      6.663  0.7231E-01  0.9843E+00
      6.744  0.5640E-01  0.9888E+00
      6.824  0.1345E-01  0.9899E+00
      6.904  0.1235E-02  0.9900E+00
      6.985  0.6395E-05  0.9900E+00
      7.065  0.6923E-07  0.9900E+00
      7.145  0.1841E-03  0.9900E+00
      7.226  0.8021E-02  0.9907E+00
      7.306  0.1612E-01  0.9920E+00
      7.386  0.1906E-01  0.9935E+00
      7.467  0.4218E-01  0.9969E+00
      7.547  0.3526E-01  0.9997E+00
      7.628  0.4857E-01  0.1004E+01
      7.708  0.6534E-01  0.1009E+01
      7.788  0.4084E-01  0.1012E+01
      7.869  0.3479E-01  0.1015E+01
      7.949  0.5041E-01  0.1019E+01
      8.029  0.1745E-01  0.1020E+01
      8.110  0.9024E-02  0.1021E+01
      8.190  0.1186E-01  0.1022E+01
      8.271  0.2067E-01  0.1024E+01
      8.351  0.1574E-01  0.1025E+01
      8.431  0.2347E-01  0.1027E+01
      8.512  0.3222E-01  0.1029E+01
      8.592  0.6020E-01  0.1034E+01
      8.672  0.5527E-01  0.1039E+01
      8.753  0.3505E-01  0.1042E+01
      8.833  0.2629E-01  0.1044E+01
      8.913  0.4399E-01  0.1047E+01
      8.994  0.8255E-01  0.1054E+01
      9.074  0.7211E-01  0.1060E+01
      9.155  0.9185E-01  0.1067E+01
      9.235  0.1285E+00  0.1077E+01
      9.315  0.6761E-01  0.1083E+01
      9.396  0.3098E-01  0.1085E+01
      9.476  0.6508E-01  0.1091E+01
      9.556  0.6457E-01  0.1096E+01
      9.637  0.4894E-01  0.1100E+01
      9.717  0.5606E-01  0.1104E+01
      9.797  0.6828E-01  0.1110E+01
      9.878  0.5288E-01  0.1114E+01
      9.958  0.3743E-01  0.1117E+01
     10.039  0.2007E-01  0.1118E+01
     10.119  0.1396E-02  0.1119E+01
     10.199  0.6546E-05  0.1119E+01
     10.280  0.5800E-03  0.1119E+01
     10.360  0.2808E-02  0.1119E+01
     10.440  0.1942E-02  0.1119E+01
     10.521  0.5802E-02  0.1120E+01
     10.601  0.4339E-02  0.1120E+01
     10.682  0.4632E-03  0.1120E+01
     10.762  0.1230E-02  0.1120E+01
     10.842  0.1147E-03  0.1120E+01
     10.923  0.1399E-06  0.1120E+01
     11.003  0.1321E-11  0.1120E+01
     11.083  0.0000E+00  0.1120E+01
     11.164  0.0000E+00  0.1120E+01
     11.244  0.0000E+00  0.1120E+01
     11.324  0.0000E+00  0.1120E+01
     11.405  0.0000E+00  0.1120E+01
     11.485  0.0000E+00  0.1120E+01
     11.566  0.0000E+00  0.1120E+01
     11.646  0.0000E+00  0.1120E+01
     11.726  0.0000E+00  0.1120E+01
     11.807  0.0000E+00  0.1120E+01
