       N       E                     dE             d eps       ncg     rms          rms(c)
DAV:   1     0.209933656510E+04    0.20993E+04   -0.77832E+04  8512   0.185E+03
DAV:   2     0.349594344089E+03   -0.17497E+04   -0.16975E+04  8512   0.511E+02
DAV:   3    -0.420360806581E+02   -0.39163E+03   -0.37251E+03  9664   0.223E+02
DAV:   4    -0.828846795307E+02   -0.40849E+02   -0.40310E+02 10680   0.701E+01
DAV:   5    -0.846701125434E+02   -0.17854E+01   -0.17785E+01 11616   0.160E+01    0.247E+01
DAV:   6    -0.790474714976E+02    0.56226E+01   -0.92975E+00 13504   0.393E+01    0.168E+01
DAV:   7    -0.791147145431E+02   -0.67243E-01   -0.13403E+01 12800   0.166E+01    0.533E+00
DAV:   8    -0.788145846805E+02    0.30013E+00   -0.27693E+00 12280   0.844E+00    0.381E+00
DAV:   9    -0.788247544530E+02   -0.10170E-01   -0.35720E-01 11264   0.182E+00    0.209E+00
DAV:  10    -0.788115249065E+02    0.13230E-01   -0.72024E-02 11680   0.177E+00    0.146E+00
DAV:  11    -0.788123309445E+02   -0.80604E-03   -0.18511E-02 13096   0.809E-01    0.370E-01
DAV:  12    -0.788124133141E+02   -0.82370E-04   -0.44889E-03 10368   0.409E-01    0.316E-01
DAV:  13    -0.788124038562E+02    0.94579E-05   -0.11120E-03 12096   0.144E-01    0.285E-01
DAV:  14    -0.788123980748E+02    0.57814E-05   -0.39245E-04 11272   0.106E-01    0.920E-02
DAV:  15    -0.788123764292E+02    0.21646E-04   -0.29909E-04 11936   0.839E-02    0.466E-02
DAV:  16    -0.788123737873E+02    0.26419E-05   -0.61230E-05 11864   0.336E-02    0.271E-02
DAV:  17    -0.788123744327E+02   -0.64531E-06   -0.77519E-06  9960   0.978E-03
   1 F= -.85056878E+02 E0= -.85055749E+02  d E =-.850569E+02
       N       E                     dE             d eps       ncg     rms          rms(c)
DAV:   1    -0.808108728108E+02   -0.19985E+01   -0.17020E+02 12336   0.716E+01    0.118E+01
DAV:   2    -0.798495444794E+02    0.96133E+00   -0.98876E+00 12016   0.233E+01    0.364E+00
DAV:   3    -0.796602500611E+02    0.18929E+00   -0.81051E-01 12216   0.526E+00    0.233E+00
DAV:   4    -0.796076172796E+02    0.52633E-01   -0.12519E-01 12880   0.200E+00    0.104E+00
DAV:   5    -0.796004040313E+02    0.72132E-02   -0.17733E-02 11648   0.971E-01    0.653E-01
DAV:   6    -0.795986300195E+02    0.17740E-02   -0.58829E-03 11896   0.513E-01    0.385E-01
DAV:   7    -0.795982425181E+02    0.38750E-03   -0.26749E-03 12528   0.469E-01    0.871E-02
DAV:   8    -0.795983087816E+02   -0.66264E-04   -0.10772E-03  9840   0.200E-01    0.708E-02
DAV:   9    -0.795983152416E+02   -0.64600E-05   -0.92516E-05 12280   0.333E-02    0.733E-02
DAV:  10    -0.795983177611E+02   -0.25195E-05   -0.32574E-06  7656   0.101E-02    0.659E-02
DAV:  11    -0.795983228739E+02   -0.51128E-05   -0.40345E-05 11256   0.493E-02    0.859E-02
DAV:  12    -0.795983232328E+02   -0.35890E-06   -0.19543E-05 10632   0.151E-02    0.700E-02
DAV:  13    -0.795983221164E+02    0.11164E-05   -0.54242E-06  8192   0.974E-03    0.587E-02
DAV:  14    -0.795983207893E+02    0.13271E-05   -0.85586E-07  5184   0.514E-03    0.445E-02
DAV:  15    -0.795983190981E+02    0.16913E-05   -0.52512E-06  8800   0.115E-02    0.160E-02
DAV:  16    -0.795983189658E+02    0.13222E-06   -0.12201E-06  5488   0.411E-03
   2 F= -.85627531E+02 E0= -.85627045E+02  d E =-.570653E+00
       N       E                     dE             d eps       ncg     rms          rms(c)
DAV:   1    -0.797276663984E+02   -0.12935E+00   -0.79652E+00 12280   0.139E+01    0.289E+00
DAV:   2    -0.796771308097E+02    0.50536E-01   -0.48207E-01 12720   0.530E+00    0.830E-01
DAV:   3    -0.796681976463E+02    0.89332E-02   -0.34218E-02 12256   0.106E+00    0.592E-01
DAV:   4    -0.796652735242E+02    0.29241E-02   -0.57386E-03 13040   0.427E-01    0.244E-01
DAV:   5    -0.796647410526E+02    0.53247E-03   -0.10848E-03 12152   0.250E-01    0.114E-01
DAV:   6    -0.796647469467E+02   -0.58941E-05   -0.43909E-04  9984   0.126E-01    0.937E-02
DAV:   7    -0.796647336430E+02    0.13304E-04   -0.89308E-05 11776   0.888E-02    0.347E-02
DAV:   8    -0.796647236132E+02    0.10030E-04   -0.35718E-05 11376   0.362E-02    0.268E-02
DAV:   9    -0.796647217134E+02    0.18998E-05   -0.86220E-06 10488   0.181E-02    0.800E-03
DAV:  10    -0.796647215754E+02    0.13800E-06   -0.13631E-06  5520   0.441E-03
   3 F= -.85647338E+02 E0= -.85646836E+02  d E =-.590460E+00
       N       E                     dE             d eps       ncg     rms          rms(c)
DAV:   1    -0.799528366055E+02   -0.28811E+00   -0.12085E+02 10232   0.387E+01    0.899E+00
DAV:   2    -0.800014406587E+02   -0.48604E-01   -0.71715E+00 12568   0.168E+01    0.295E+00
DAV:   3    -0.799641242318E+02    0.37316E-01   -0.58374E-01 11848   0.392E+00    0.227E+00
DAV:   4    -0.799373222982E+02    0.26802E-01   -0.65638E-02 12680   0.131E+00    0.122E+00
DAV:   5    -0.799306246755E+02    0.66976E-02   -0.13557E-02 11352   0.699E-01    0.516E-01
DAV:   6    -0.799297304997E+02    0.89418E-03   -0.40572E-03 13944   0.424E-01    0.308E-01
DAV:   7    -0.799297933315E+02   -0.62832E-04   -0.18366E-03 10192   0.191E-01    0.105E-01
DAV:   8    -0.799298066573E+02   -0.13326E-04   -0.17158E-04 14184   0.897E-02    0.678E-02
DAV:   9    -0.799298100310E+02   -0.33737E-05   -0.47321E-05 10344   0.334E-02    0.443E-02
DAV:  10    -0.799298103679E+02   -0.33689E-06   -0.10181E-05  9216   0.107E-02    0.110E-02
DAV:  11    -0.799298101521E+02    0.21583E-06   -0.96632E-07  5376   0.561E-03
   4 F= -.86027487E+02 E0= -.86027266E+02  d E =-.380149E+00
       N       E                     dE             d eps       ncg     rms          rms(c)
DAV:   1    -0.799456615756E+02   -0.15851E-01   -0.35360E+01 10512   0.217E+01    0.466E+00
DAV:   2    -0.799450092160E+02    0.65236E-03   -0.20054E+00 12480   0.903E+00    0.147E+00
DAV:   3    -0.799326534339E+02    0.12356E-01   -0.16287E-01 11832   0.213E+00    0.115E+00
DAV:   4    -0.799256027717E+02    0.70507E-02   -0.17284E-02 12536   0.669E-01    0.608E-01
DAV:   5    -0.799236668115E+02    0.19360E-02   -0.41476E-03 11504   0.396E-01    0.223E-01
DAV:   6    -0.799235293779E+02    0.13743E-03   -0.10953E-03 13216   0.217E-01    0.154E-01
DAV:   7    -0.799235567219E+02   -0.27344E-04   -0.42894E-04 10176   0.934E-02    0.499E-02
DAV:   8    -0.799235623356E+02   -0.56137E-05   -0.51193E-05 13952   0.645E-02    0.250E-02
DAV:   9    -0.799235647859E+02   -0.24503E-05   -0.17245E-05  9728   0.208E-02    0.184E-02
DAV:  10    -0.799235644894E+02    0.29655E-06   -0.22148E-06  6800   0.586E-03
   5 F= -.86085149E+02 E0= -.86085130E+02  d E =-.437811E+00
       N       E                     dE             d eps       ncg     rms          rms(c)
DAV:   1    -0.799435626845E+02   -0.19998E-01   -0.13253E+01  8920   0.103E+01    0.186E+00
DAV:   2    -0.799968637155E+02   -0.53301E-01   -0.78391E-01 12064   0.339E+00    0.798E-01
DAV:   3    -0.799935823738E+02    0.32813E-02   -0.30302E-02 12208   0.848E-01    0.652E-01
DAV:   4    -0.799924888698E+02    0.10935E-02   -0.51323E-03 12808   0.296E-01    0.356E-01
DAV:   5    -0.799919426271E+02    0.54624E-03   -0.95919E-04 11592   0.170E-01    0.178E-01
DAV:   6    -0.799918051853E+02    0.13744E-03   -0.82919E-04 12096   0.159E-01    0.101E-01
DAV:   7    -0.799918294907E+02   -0.24305E-04   -0.34177E-04 11152   0.794E-02    0.868E-02
DAV:   8    -0.799918244298E+02    0.50609E-05   -0.21296E-05 11432   0.150E-02    0.548E-02
DAV:   9    -0.799918242549E+02    0.17489E-06   -0.27894E-05 10264   0.201E-02    0.203E-02
DAV:  10    -0.799918241137E+02    0.14124E-06   -0.72154E-06  8856   0.891E-03
   6 F= -.86169798E+02 E0= -.86169786E+02  d E =-.846482E-01
       N       E                     dE             d eps       ncg     rms          rms(c)
DAV:   1    -0.799693630448E+02    0.22461E-01   -0.82254E+00  8920   0.813E+00    0.146E+00
DAV:   2    -0.800021506384E+02   -0.32788E-01   -0.48427E-01 11984   0.266E+00    0.600E-01
DAV:   3    -0.800001054897E+02    0.20451E-02   -0.19300E-02 12200   0.678E-01    0.497E-01
DAV:   4    -0.799994640783E+02    0.64141E-03   -0.31396E-03 12592   0.236E-01    0.278E-01
DAV:   5    -0.799991183627E+02    0.34572E-03   -0.64836E-04 11584   0.138E-01    0.132E-01
DAV:   6    -0.799990409915E+02    0.77371E-04   -0.50980E-04 12200   0.122E-01    0.799E-02
DAV:   7    -0.799990551810E+02   -0.14189E-04   -0.19772E-04 11080   0.602E-02    0.696E-02
DAV:   8    -0.799990517722E+02    0.34088E-05   -0.11623E-05 10648   0.117E-02    0.444E-02
DAV:   9    -0.799990519675E+02   -0.19532E-06   -0.21710E-05 10096   0.178E-02    0.133E-02
DAV:  10    -0.799990521649E+02   -0.19737E-06   -0.55096E-06  8656   0.782E-03
   7 F= -.86190114E+02 E0= -.86190105E+02  d E =-.104964E+00
       N       E                     dE             d eps       ncg     rms          rms(c)
DAV:   1    -0.800227603430E+02   -0.23708E-01   -0.61652E+00 12312   0.108E+01    0.241E+00
DAV:   2    -0.799858319261E+02    0.36928E-01   -0.35209E-01 13448   0.481E+00    0.800E-01
DAV:   3    -0.799793753234E+02    0.64566E-02   -0.25266E-02 12696   0.892E-01    0.562E-01
DAV:   4    -0.799767372461E+02    0.26381E-02   -0.51848E-03 13008   0.387E-01    0.250E-01
DAV:   5    -0.799764952754E+02    0.24197E-03   -0.96702E-04 11440   0.200E-01    0.110E-01
DAV:   6    -0.799764743212E+02    0.20954E-04   -0.31365E-04 11320   0.101E-01    0.579E-02
DAV:   7    -0.799764769663E+02   -0.26450E-05   -0.78572E-05 12480   0.753E-02    0.275E-02
DAV:   8    -0.799764810508E+02   -0.40845E-05   -0.27640E-05 10096   0.262E-02    0.236E-02
DAV:   9    -0.799764817349E+02   -0.68414E-06   -0.25505E-06  7088   0.868E-03
   8 F= -.86207431E+02 E0= -.86207429E+02  d E =-.173172E-01
       N       E                     dE             d eps       ncg     rms          rms(c)
DAV:   1    -0.799761306006E+02    0.35045E-03   -0.34288E+00 12312   0.815E+00    0.178E+00
DAV:   2    -0.799556412749E+02    0.20489E-01   -0.19623E-01 13392   0.359E+00    0.590E-01
DAV:   3    -0.799520447720E+02    0.35965E-02   -0.14338E-02 12768   0.678E-01    0.415E-01
DAV:   4    -0.799506011982E+02    0.14436E-02   -0.28642E-03 12944   0.285E-01    0.183E-01
DAV:   5    -0.799504706373E+02    0.13056E-03   -0.53058E-04 11464   0.147E-01    0.800E-02
DAV:   6    -0.799504646931E+02    0.59442E-05   -0.17672E-04 11168   0.735E-02    0.423E-02
DAV:   7    -0.799504675503E+02   -0.28571E-05   -0.42459E-05 12288   0.573E-02    0.196E-02
DAV:   8    -0.799504701727E+02   -0.26224E-05   -0.15263E-05  9856   0.201E-02    0.168E-02
DAV:   9    -0.799504707682E+02   -0.59548E-06   -0.13901E-06  5592   0.620E-03
   9 F= -.86211340E+02 E0= -.86211339E+02  d E =-.212260E-01
       N       E                     dE             d eps       ncg     rms          rms(c)
DAV:   1    -0.799730324961E+02   -0.22562E-01   -0.63217E+00 11208   0.808E+00    0.170E+00
DAV:   2    -0.799847629849E+02   -0.11730E-01   -0.30645E-01 12304   0.287E+00    0.562E-01
DAV:   3    -0.799823424851E+02    0.24205E-02   -0.17259E-02 12816   0.603E-01    0.443E-01
DAV:   4    -0.799808726481E+02    0.14698E-02   -0.22682E-03 11832   0.246E-01    0.204E-01
DAV:   5    -0.799805302510E+02    0.34240E-03   -0.71303E-04 12136   0.148E-01    0.787E-02
DAV:   6    -0.799805232472E+02    0.70038E-05   -0.29256E-04 12256   0.735E-02    0.640E-02
DAV:   7    -0.799805201905E+02    0.30567E-05   -0.26494E-05 11392   0.296E-02    0.388E-02
DAV:   8    -0.799805160001E+02    0.41904E-05   -0.84527E-06  9808   0.215E-02    0.159E-02
DAV:   9    -0.799805137294E+02    0.22707E-05   -0.33988E-06  7680   0.153E-02    0.416E-03
DAV:  10    -0.799805143782E+02   -0.64884E-06   -0.18470E-06  5440   0.828E-03
  10 F= -.86222672E+02 E0= -.86222671E+02  d E =-.113326E-01
       N       E                     dE             d eps       ncg     rms          rms(c)
DAV:   1    -0.799914971815E+02   -0.10983E-01   -0.28702E+00 11144   0.539E+00    0.116E+00
DAV:   2    -0.799969806213E+02   -0.54834E-02   -0.14043E-01 12344   0.194E+00    0.389E-01
DAV:   3    -0.799958430535E+02    0.11376E-02   -0.72929E-03 12808   0.400E-01    0.298E-01
DAV:   4    -0.799951232917E+02    0.71976E-03   -0.11004E-03 11648   0.179E-01    0.138E-01
DAV:   5    -0.799949875250E+02    0.13577E-03   -0.36920E-04 11840   0.982E-02    0.554E-02
DAV:   6    -0.799949826376E+02    0.48874E-05   -0.11463E-04 12152   0.435E-02    0.459E-02
DAV:   7    -0.799949799286E+02    0.27090E-05   -0.93784E-06 10600   0.161E-02    0.279E-02
DAV:   8    -0.799949756366E+02    0.42920E-05   -0.42261E-06  9024   0.152E-02    0.688E-03
DAV:   9    -0.799949747204E+02    0.91612E-06   -0.19608E-06  5720   0.941E-03
  11 F= -.86224605E+02 E0= -.86224604E+02  d E =-.132655E-01
       N       E                     dE             d eps       ncg     rms          rms(c)
DAV:   1    -0.799968719240E+02   -0.18963E-02   -0.27894E+00 11264   0.698E+00    0.144E+00
DAV:   2    -0.799832902530E+02    0.13582E-01   -0.18376E-01 12760   0.325E+00    0.535E-01
DAV:   3    -0.799796073368E+02    0.36829E-02   -0.13674E-02 11928   0.681E-01    0.342E-01
DAV:   4    -0.799780350165E+02    0.15723E-02   -0.34479E-03 12128   0.281E-01    0.159E-01
DAV:   5    -0.799779555047E+02    0.79512E-04   -0.82992E-04 10752   0.132E-01    0.741E-02
DAV:   6    -0.799779511289E+02    0.43758E-05   -0.11212E-04 11064   0.521E-02    0.454E-02
DAV:   7    -0.799779524369E+02   -0.13080E-05   -0.27840E-05 13464   0.470E-02    0.162E-02
DAV:   8    -0.799779551081E+02   -0.26712E-05   -0.13079E-05  9648   0.227E-02    0.132E-02
DAV:   9    -0.799779552623E+02   -0.15417E-06   -0.16371E-06  5696   0.588E-03
  12 F= -.86232061E+02 E0= -.86232060E+02  d E =-.745606E-02
       N       E                     dE             d eps       ncg     rms          rms(c)
DAV:   1    -0.800245356842E+02   -0.46581E-01   -0.14159E+01 11256   0.156E+01    0.343E+00
DAV:   2    -0.799536488923E+02    0.70887E-01   -0.95491E-01 12840   0.753E+00    0.125E+00
DAV:   3    -0.799352652238E+02    0.18384E-01   -0.72951E-02 11816   0.157E+00    0.808E-01
DAV:   4    -0.799269932593E+02    0.82720E-02   -0.17604E-02 12168   0.638E-01    0.383E-01
DAV:   5    -0.799263559151E+02    0.63734E-03   -0.42830E-03 10688   0.293E-01    0.174E-01
DAV:   6    -0.799262906010E+02    0.65314E-04   -0.53667E-04 11640   0.106E-01    0.109E-01
DAV:   7    -0.799262907457E+02   -0.14470E-06   -0.14342E-04 11504   0.514E-02    0.458E-02
DAV:   8    -0.799262962707E+02   -0.55250E-05   -0.24545E-05 11592   0.333E-02    0.275E-02
DAV:   9    -0.799262967186E+02   -0.44796E-06   -0.11521E-05  9704   0.211E-02    0.215E-02
DAV:  10    -0.799262963280E+02    0.39060E-06   -0.11210E-06  5224   0.623E-03
  13 F= -.86236391E+02 E0= -.86236390E+02  d E =-.117855E-01
       N       E                     dE             d eps       ncg     rms          rms(c)
DAV:   1    -0.799484859477E+02   -0.22189E-01   -0.10073E+00 11328   0.430E+00    0.840E-01
DAV:   2    -0.799437166775E+02    0.47693E-02   -0.65488E-02 12488   0.194E+00    0.314E-01
DAV:   3    -0.799423412401E+02    0.13754E-02   -0.49987E-03 12176   0.413E-01    0.201E-01
DAV:   4    -0.799417490523E+02    0.59219E-03   -0.12156E-03 12128   0.168E-01    0.915E-02
DAV:   5    -0.799416985354E+02    0.50517E-04   -0.28325E-04 10600   0.804E-02    0.424E-02
DAV:   6    -0.799416925349E+02    0.60005E-05   -0.45876E-05 10656   0.368E-02    0.265E-02
DAV:   7    -0.799416882005E+02    0.43345E-05   -0.11347E-05 10464   0.350E-02    0.976E-03
DAV:   8    -0.799416869850E+02    0.12154E-05   -0.63665E-06  8016   0.165E-02    0.755E-03
DAV:   9    -0.799416868654E+02    0.11963E-06   -0.78695E-07  5184   0.392E-03
  14 F= -.86236994E+02 E0= -.86236994E+02  d E =-.123888E-01
       N       E                     dE             d eps       ncg     rms          rms(c)
DAV:   1    -0.799462999187E+02   -0.46129E-02   -0.22790E+00  8544   0.422E+00    0.123E+00
DAV:   2    -0.799529391320E+02   -0.66392E-02   -0.17815E-01 12064   0.212E+00    0.535E-01
DAV:   3    -0.799494674504E+02    0.34717E-02   -0.67410E-03 12184   0.399E-01    0.375E-01
DAV:   4    -0.799474253680E+02    0.20421E-02   -0.37499E-03 11512   0.286E-01    0.157E-01
DAV:   5    -0.799473527353E+02    0.72633E-04   -0.16281E-03 11512   0.181E-01    0.856E-02
DAV:   6    -0.799473466073E+02    0.61280E-05   -0.16886E-04 10176   0.784E-02    0.661E-02
DAV:   7    -0.799473387656E+02    0.78418E-05   -0.42180E-05 11912   0.465E-02    0.389E-02
DAV:   8    -0.799473380347E+02    0.73087E-06   -0.18171E-05 10560   0.185E-02    0.124E-02
DAV:   9    -0.799473376883E+02    0.34635E-06   -0.36927E-06  7688   0.131E-02
  15 F= -.86240345E+02 E0= -.86240344E+02  d E =-.335063E-02
       N       E                     dE             d eps       ncg     rms          rms(c)
DAV:   1    -0.799470693345E+02    0.26870E-03   -0.72156E-02  8576   0.748E-01    0.228E-01
DAV:   2    -0.799472899042E+02   -0.22057E-03   -0.56710E-03 12056   0.383E-01    0.958E-02
DAV:   3    -0.799471832742E+02    0.10663E-03   -0.21781E-04 12168   0.712E-02    0.672E-02
DAV:   4    -0.799471197167E+02    0.63558E-04   -0.11941E-04 10640   0.514E-02    0.280E-02
DAV:   5    -0.799471193714E+02    0.34526E-06   -0.54687E-05 11320   0.324E-02    0.153E-02
DAV:   6    -0.799471195971E+02   -0.22572E-06   -0.50996E-06  8576   0.143E-02
  16 F= -.86240531E+02 E0= -.86240531E+02  d E =-.353704E-02
       N       E                     dE             d eps       ncg     rms          rms(c)
DAV:   1    -0.799399676705E+02    0.71517E-02   -0.13249E+00 10840   0.408E+00    0.684E-01
DAV:   2    -0.799400243257E+02   -0.56655E-04   -0.61659E-02 12344   0.147E+00    0.235E-01
DAV:   3    -0.799397177787E+02    0.30655E-03   -0.39968E-03 11632   0.313E-01    0.182E-01
DAV:   4    -0.799395396640E+02    0.17811E-03   -0.58372E-04 12496   0.110E-01    0.102E-01
DAV:   5    -0.799395183806E+02    0.21283E-04   -0.10756E-04 10512   0.547E-02    0.380E-02
DAV:   6    -0.799395183297E+02    0.50972E-07   -0.24517E-05 12488   0.287E-02    0.224E-02
DAV:   7    -0.799395208012E+02   -0.24716E-05   -0.91697E-06  9312   0.134E-02    0.107E-02
DAV:   8    -0.799395217309E+02   -0.92966E-06   -0.80622E-07  5192   0.937E-03
  17 F= -.86243902E+02 E0= -.86243902E+02  d E =-.337128E-02
       N       E                     dE             d eps       ncg     rms          rms(c)
DAV:   1    -0.799292190552E+02    0.10302E-01   -0.18332E+00 10856   0.479E+00    0.806E-01
DAV:   2    -0.799293292750E+02   -0.11022E-03   -0.85621E-02 12376   0.172E+00    0.276E-01
DAV:   3    -0.799288986769E+02    0.43060E-03   -0.55039E-03 11664   0.367E-01    0.214E-01
DAV:   4    -0.799286495126E+02    0.24916E-03   -0.81343E-04 12504   0.129E-01    0.120E-01
DAV:   5    -0.799286171681E+02    0.32344E-04   -0.14482E-04 10504   0.641E-02    0.451E-02
DAV:   6    -0.799286161263E+02    0.10417E-05   -0.35405E-05 12192   0.322E-02    0.262E-02
DAV:   7    -0.799286190671E+02   -0.29408E-05   -0.11559E-05  9936   0.144E-02    0.127E-02
DAV:   8    -0.799286200698E+02   -0.10027E-05   -0.10109E-06  5280   0.105E-02    0.531E-03
DAV:   9    -0.799286206236E+02   -0.55380E-06   -0.15974E-06  5504   0.704E-03
  18 F= -.86245960E+02 E0= -.86245960E+02  d E =-.542898E-02
       N       E                     dE             d eps       ncg     rms          rms(c)
DAV:   1    -0.799025369454E+02    0.26083E-01   -0.73070E+00 10776   0.947E+00    0.164E+00
DAV:   2    -0.799031191055E+02   -0.58216E-03   -0.34562E-01 12424   0.345E+00    0.550E-01
DAV:   3    -0.799014532595E+02    0.16658E-02   -0.22733E-02 11608   0.745E-01    0.426E-01
DAV:   4    -0.799004536047E+02    0.99965E-03   -0.32357E-03 12584   0.256E-01    0.242E-01
DAV:   5    -0.799002869402E+02    0.16666E-03   -0.55764E-04 10472   0.127E-01    0.934E-02
DAV:   6    -0.799002656677E+02    0.21272E-04   -0.14202E-04 12520   0.694E-02    0.526E-02
DAV:   7    -0.799002731416E+02   -0.74739E-05   -0.55052E-05 10616   0.329E-02    0.262E-02
DAV:   8    -0.799002748387E+02   -0.16971E-05   -0.65586E-06  9464   0.221E-02    0.111E-02
DAV:   9    -0.799002759493E+02   -0.11106E-05   -0.40047E-06  7024   0.127E-02    0.775E-03
DAV:  10    -0.799002761310E+02   -0.18166E-06   -0.78130E-07  5144   0.485E-03
  19 F= -.86243722E+02 E0= -.86243722E+02  d E =-.319082E-02
       N       E                     dE             d eps       ncg     rms          rms(c)
DAV:   1    -0.799241812365E+02   -0.23905E-01   -0.42878E+00 10944   0.754E+00    0.122E+00
DAV:   2    -0.799245691418E+02   -0.38791E-03   -0.19670E-01 12232   0.264E+00    0.434E-01
DAV:   3    -0.799235233337E+02    0.10458E-02   -0.12610E-02 11592   0.554E-01    0.337E-01
DAV:   4    -0.799228305232E+02    0.69281E-03   -0.19350E-03 12352   0.205E-01    0.186E-01
DAV:   5    -0.799227050538E+02    0.12547E-03   -0.38705E-04 10568   0.102E-01    0.674E-02
DAV:   6    -0.799226820707E+02    0.22983E-04   -0.74373E-05 12536   0.489E-02    0.412E-02
DAV:   7    -0.799226779133E+02    0.41573E-05   -0.27210E-05 10736   0.217E-02    0.181E-02
DAV:   8    -0.799226755293E+02    0.23840E-05   -0.30617E-06  7936   0.152E-02    0.941E-03
DAV:   9    -0.799226749579E+02    0.57146E-06   -0.27719E-06  6384   0.891E-03
  20 F= -.86246203E+02 E0= -.86246203E+02  d E =-.567178E-02
       N       E                     dE             d eps       ncg     rms          rms(c)
DAV:   1    -0.799462935589E+02   -0.23618E-01   -0.90599E-01 11264   0.466E+00    0.865E-01
DAV:   2    -0.799414301464E+02    0.48634E-02   -0.59198E-02 12552   0.189E+00    0.294E-01
DAV:   3    -0.799405463630E+02    0.88378E-03   -0.46635E-03 11568   0.422E-01    0.182E-01
DAV:   4    -0.799402551663E+02    0.29120E-03   -0.86307E-04 12720   0.164E-01    0.107E-01
DAV:   5    -0.799401894653E+02    0.65701E-04   -0.13044E-04 12272   0.687E-02    0.411E-02
DAV:   6    -0.799401702302E+02    0.19235E-04   -0.37336E-05 13048   0.472E-02    0.240E-02
DAV:   7    -0.799401678041E+02    0.24260E-05   -0.12980E-05  9944   0.198E-02    0.118E-02
DAV:   8    -0.799401663047E+02    0.14994E-05   -0.83727E-07  5952   0.569E-03    0.517E-03
DAV:   9    -0.799401655514E+02    0.75331E-06   -0.60259E-07  5200   0.485E-03
  21 F= -.86247003E+02 E0= -.86247003E+02  d E =-.800124E-03
       N       E                     dE             d eps       ncg     rms          rms(c)
DAV:   1    -0.799371082256E+02    0.30581E-02   -0.36464E-02 11312   0.928E-01    0.176E-01
DAV:   2    -0.799368998637E+02    0.20836E-03   -0.23968E-03 12624   0.383E-01    0.592E-02
DAV:   3    -0.799368676367E+02    0.32227E-04   -0.18851E-04 11592   0.854E-02    0.371E-02
DAV:   4    -0.799368617693E+02    0.58673E-05   -0.35120E-05 12712   0.331E-02    0.216E-02
DAV:   5    -0.799368636458E+02   -0.18765E-05   -0.46872E-06  8592   0.142E-02    0.790E-03
DAV:   6    -0.799368652708E+02   -0.16251E-05   -0.13123E-06  5864   0.918E-03    0.340E-03
DAV:   7    -0.799368657730E+02   -0.50215E-06   -0.91638E-07  5112   0.642E-03
  22 F= -.86247053E+02 E0= -.86247053E+02  d E =-.850423E-03
       N       E                     dE             d eps       ncg     rms          rms(c)
DAV:   1    -0.799298460705E+02    0.70192E-02   -0.50882E-01 11592   0.305E+00    0.664E-01
DAV:   2    -0.799280985129E+02    0.17476E-02   -0.24127E-02 13168   0.117E+00    0.188E-01
DAV:   3    -0.799277954452E+02    0.30307E-03   -0.17724E-03 12768   0.223E-01    0.146E-01
DAV:   4    -0.799276685992E+02    0.12685E-03   -0.23909E-04 12544   0.827E-02    0.634E-02
DAV:   5    -0.799276495538E+02    0.19045E-04   -0.43177E-05 12496   0.617E-02    0.236E-02
DAV:   6    -0.799276528406E+02   -0.32868E-05   -0.28226E-05 10832   0.302E-02    0.143E-02
DAV:   7    -0.799276536177E+02   -0.77710E-06   -0.37759E-06  7816   0.151E-02
  23 F= -.86247256E+02 E0= -.86247256E+02  d E =-.203116E-03
       N       E                     dE             d eps       ncg     rms          rms(c)
DAV:   1    -0.799316313595E+02   -0.39785E-02   -0.72231E-02 11632   0.116E+00    0.247E-01
DAV:   2    -0.799313987430E+02    0.23262E-03   -0.34110E-03 13152   0.440E-01    0.709E-02
DAV:   3    -0.799313516797E+02    0.47063E-04   -0.25502E-04 12704   0.843E-02    0.537E-02
DAV:   4    -0.799313254668E+02    0.26213E-04   -0.34051E-05 12608   0.312E-02    0.234E-02
DAV:   5    -0.799313178275E+02    0.76393E-05   -0.51660E-06  9520   0.191E-02    0.889E-03
DAV:   6    -0.799313152896E+02    0.25379E-05   -0.36061E-06  7416   0.111E-02    0.459E-03
DAV:   7    -0.799313148966E+02    0.39299E-06   -0.87270E-07  5168   0.728E-03
  24 F= -.86247374E+02 E0= -.86247374E+02  d E =-.320891E-03
       N       E                     dE             d eps       ncg     rms          rms(c)
DAV:   1    -0.799343015229E+02   -0.29862E-02   -0.10597E-01 10224   0.110E+00    0.206E-01
DAV:   2    -0.799341792349E+02    0.12229E-03   -0.41660E-03 12800   0.433E-01    0.873E-02
DAV:   3    -0.799340936321E+02    0.85603E-04   -0.30531E-04 12392   0.956E-02    0.565E-02
DAV:   4    -0.799340493398E+02    0.44292E-04   -0.60078E-05 12184   0.473E-02    0.255E-02
DAV:   5    -0.799340388174E+02    0.10522E-04   -0.23953E-05 11600   0.270E-02    0.138E-02
DAV:   6    -0.799340382393E+02    0.57819E-06   -0.64924E-06  8912   0.164E-02
  25 F= -.86247502E+02 E0= -.86247502E+02  d E =-.128442E-03
