       N       E                     dE             d eps       ncg     rms          rms(c)
DAV:   1     0.601632856399E+04    0.60163E+04   -0.20042E+05145920   0.190E+03
DAV:   2     0.109458871365E+04   -0.49217E+04   -0.47790E+04145920   0.528E+02
DAV:   3    -0.614139023130E+02   -0.11560E+04   -0.10706E+04159640   0.233E+02
DAV:   4    -0.208636285598E+03   -0.14722E+03   -0.14358E+03184440   0.769E+01
DAV:   5    -0.214762484185E+03   -0.61262E+01   -0.60699E+01171696   0.174E+01
DAV:   6    -0.215181944249E+03   -0.41946E+00   -0.41916E+00223608   0.440E+00
DAV:   7    -0.215189631200E+03   -0.76870E-02   -0.76832E-02217336   0.542E-01
DAV:   8    -0.215190015050E+03   -0.38385E-03   -0.38379E-03219400   0.124E-01
DAV:   9    -0.215190025336E+03   -0.10286E-04   -0.10285E-04221448   0.217E-02
DAV:  10    -0.215190025826E+03   -0.49017E-06   -0.48996E-06218752   0.477E-03
DAV:  11    -0.215190025840E+03   -0.13330E-07   -0.12870E-07114888   0.908E-04
   1 F= -.23314176E+03 E0= -.23314176E+03  d E =-.241677E-11
