WP2-P03-IIb100-screening-t02-19.06A-500-9x2x1
1.0
   3.8833466123725491    0.0000000000000000    0.0000000000000000
   0.0000000000000000   24.3517744714588353    0.0000000000000000
   0.0000000000000000    0.0000000000000000   39.0574354678549867
In Zn S In Zn S In Zn S
8 4 16 8 4 16 8 4 16
direct
   0.4999999844796408    0.9065382696416873    0.3995430833839156 In
   0.9999999844907443    0.9065382696416873    0.3134371530353178 In
   0.0000000004981513    0.4065382846416848    0.2560331952216932 In
   0.5000000004870482    0.4065382846416848    0.3421391255702910 In
   0.0000000004981513    0.7432474685472381    0.2560332003880495 In
   0.5000000004870482    0.7432474685472381    0.3421391307366473 In
   0.5000000294796444    0.2432474685472381    0.3995430808007375 In
   0.0000000294907480    0.2432474685472381    0.3134371504521397 In
   0.9999999999833452    0.5870987085988553    0.3708411057686924 Zn
   0.4999999999944485    0.5870987085988553    0.2847351754200946 Zn
   0.9999999999833452    0.0870986785988527    0.3708411057686924 Zn
   0.4999999999944485    0.0870986785988527    0.2847351754200946 Zn
   0.0000000004981513    0.5647003267285216    0.2560332003880495 S
   0.5000000004870482    0.5647003267285216    0.3421391307366473 S
   0.5000000294796444    0.0647003567285241    0.3995430808007375 S
   0.0000000294907480    0.0647003567285241    0.3134371504521397 S
   0.9999999999833452    0.9505741726130660    0.3708411057686924 S
   0.4999999999944485    0.9505741726130660    0.2847351754200946 S
   0.9999999999833452    0.4505741726130660    0.3708411057686924 S
   0.4999999999944485    0.4505741726130660    0.2847351754200946 S
   0.4999999844796408    0.8058845889394184    0.3995430833839156 S
   0.9999999844907443    0.8058845889394184    0.3134371530353178 S
   0.0000000004981513    0.3058845889394185    0.2560331952216932 S
   0.5000000004870482    0.3058845889394185    0.3421391255702910 S
   0.9999999999833452    0.6914564859312162    0.3708411057686924 S
   0.4999999999944485    0.6914564859312162    0.2847351754200946 S
   0.9999999999833452    0.1914564859312160    0.3708411057686924 S
   0.4999999999944485    0.1914564859312160    0.2847351754200946 S
   0.4999999844574348    0.9065382696416873    0.5717549440811112 In
   0.9999999844685376    0.9065382696416873    0.4856490137325134 In
   0.0000000004759449    0.4065382846416848    0.4282450559188888 In
   0.5000000004648417    0.4065382846416848    0.5143509862674865 In
   0.0000000004759449    0.7432474685472381    0.4282450610852450 In
   0.5000000004648418    0.7432474685472381    0.5143509914338428 In
   0.5000000294574382    0.2432474685472381    0.5717549414979330 In
   0.0000000294685417    0.2432474685472381    0.4856490111493352 In
   0.9999999999611386    0.5870987085988553    0.5430529664658880 Zn
   0.4999999999722421    0.5870987085988553    0.4569470361172901 Zn
   0.9999999999611386    0.0870986785988527    0.5430529664658880 Zn
   0.4999999999722421    0.0870986785988527    0.4569470361172901 Zn
   0.0000000004759449    0.5647003267285216    0.4282450610852450 S
   0.5000000004648418    0.5647003267285216    0.5143509914338428 S
   0.5000000294574382    0.0647003567285241    0.5717549414979330 S
   0.0000000294685417    0.0647003567285241    0.4856490111493352 S
   0.9999999999611386    0.9505741726130660    0.5430529664658880 S
   0.4999999999722421    0.9505741726130660    0.4569470361172901 S
   0.9999999999611386    0.4505741726130660    0.5430529664658880 S
   0.4999999999722421    0.4505741726130660    0.4569470361172901 S
   0.4999999844574348    0.8058845889394184    0.5717549440811112 S
   0.9999999844685376    0.8058845889394184    0.4856490137325134 S
   0.0000000004759449    0.3058845889394185    0.4282450559188888 S
   0.5000000004648417    0.3058845889394185    0.5143509862674865 S
   0.9999999999611386    0.6914564859312162    0.5430529664658880 S
   0.4999999999722421    0.6914564859312162    0.4569470361172901 S
   0.9999999999611386    0.1914564859312160    0.5430529664658880 S
   0.4999999999722421    0.1914564859312160    0.4569470361172901 S
   0.4999999844352280    0.9065382696416873    0.7439668047783068 In
   0.9999999844463314    0.9065382696416873    0.6578608744297090 In
   0.0000000004537386    0.4065382846416848    0.6004569166160845 In
   0.5000000004426353    0.4065382846416848    0.6865628469646822 In
   0.0000000004537387    0.7432474685472381    0.6004569217824407 In
   0.5000000004426355    0.7432474685472381    0.6865628521310385 In
   0.5000000294352315    0.2432474685472381    0.7439668021951287 In
   0.0000000294463350    0.2432474685472381    0.6578608718465310 In
   0.9999999999389328    0.5870987085988553    0.7152648271630835 Zn
   0.4999999999500356    0.5870987085988553    0.6291588968144858 Zn
   0.9999999999389328    0.0870986785988527    0.7152648271630835 Zn
   0.4999999999500356    0.0870986785988527    0.6291588968144858 Zn
   0.0000000004537387    0.5647003267285216    0.6004569217824407 S
   0.5000000004426355    0.5647003267285216    0.6865628521310385 S
   0.5000000294352315    0.0647003567285241    0.7439668021951287 S
   0.0000000294463350    0.0647003567285241    0.6578608718465310 S
   0.9999999999389328    0.9505741726130660    0.7152648271630835 S
   0.4999999999500356    0.9505741726130660    0.6291588968144858 S
   0.9999999999389328    0.4505741726130660    0.7152648271630835 S
   0.4999999999500356    0.4505741726130660    0.6291588968144858 S
   0.4999999844352280    0.8058845889394184    0.7439668047783068 S
   0.9999999844463314    0.8058845889394184    0.6578608744297090 S
   0.0000000004537386    0.3058845889394185    0.6004569166160845 S
   0.5000000004426353    0.3058845889394185    0.6865628469646822 S
   0.9999999999389328    0.6914564859312162    0.7152648271630835 S
   0.4999999999500356    0.6914564859312162    0.6291588968144858 S
   0.9999999999389328    0.1914564859312160    0.7152648271630835 S
   0.4999999999500356    0.1914564859312160    0.6291588968144858 S
