   7   7   0   0
  0.2260644E+02  0.3878284E-09  0.3878284E-09  0.1214843E-08  0.5000000E-15
  1.000000000000000E-004
  CAR 
 ZnIn2S4 bulk k-point convergence        
     13.71305911    -13.13684491  301      4.53934190      1.00000000
    -13.137  0.0000E+00  0.0000E+00
    -13.047  0.0000E+00  0.0000E+00
    -12.958  0.0000E+00  0.0000E+00
    -12.868  0.0000E+00  0.0000E+00
    -12.779  0.0000E+00  0.0000E+00
    -12.689  0.0000E+00  0.0000E+00
    -12.600  0.0000E+00  0.0000E+00
    -12.510  0.0000E+00  0.0000E+00
    -12.421  0.0000E+00  0.0000E+00
    -12.331  0.0000E+00  0.0000E+00
    -12.242  0.0000E+00  0.0000E+00
    -12.152  0.0000E+00  0.0000E+00
    -12.063  0.0000E+00  0.0000E+00
    -11.973  0.0000E+00  0.0000E+00
    -11.884  0.0000E+00  0.0000E+00
    -11.794  0.0000E+00  0.0000E+00
    -11.705  0.0000E+00  0.0000E+00
    -11.615  0.0000E+00  0.0000E+00
    -11.526  0.0000E+00  0.0000E+00
    -11.436  0.0000E+00  0.0000E+00
    -11.347  0.0000E+00  0.0000E+00
    -11.257  0.0000E+00  0.0000E+00
    -11.168  0.0000E+00  0.0000E+00
    -11.078  0.7699E+01  0.1173E+01
    -10.989  0.4400E+01  0.1681E+01
    -10.899  0.0000E+00  0.2000E+01
    -10.810  0.3854E+02  0.2356E+01
    -10.720  0.1729E+01  0.3994E+01
    -10.631  0.0000E+00  0.6000E+01
    -10.541  0.1079E+03  0.8673E+01
    -10.452  0.4195E+01  0.1149E+02
    -10.362  0.2475E+01  0.1178E+02
    -10.273  0.9076E+01  0.1230E+02
    -10.183  0.1496E+02  0.1407E+02
    -10.094  0.3893E+02  0.1665E+02
    -10.004  0.0000E+00  0.2000E+02
     -9.915  0.0000E+00  0.2000E+02
     -9.825  0.0000E+00  0.2000E+02
     -9.736  0.0000E+00  0.2000E+02
     -9.646  0.2294E+00  0.2000E+02
     -9.557  0.6111E+00  0.2005E+02
     -9.467  0.6710E+00  0.2011E+02
     -9.378  0.7255E+00  0.2018E+02
     -9.288  0.7575E+00  0.2024E+02
     -9.199  0.8001E+00  0.2031E+02
     -9.109  0.8863E+00  0.2039E+02
     -9.020  0.1810E+01  0.2053E+02
     -8.930  0.1853E+01  0.2069E+02
     -8.841  0.1948E+01  0.2087E+02
     -8.751  0.2052E+01  0.2104E+02
     -8.662  0.2168E+01  0.2123E+02
     -8.572  0.2327E+01  0.2143E+02
     -8.483  0.2561E+01  0.2165E+02
     -8.393  0.2862E+01  0.2189E+02
     -8.304  0.3557E+01  0.2217E+02
     -8.214  0.3541E+01  0.2254E+02
     -8.125  0.3878E+01  0.2287E+02
     -8.035  0.7278E+01  0.2330E+02
     -7.946  0.4090E+01  0.2377E+02
     -7.856  0.2819E+01  0.2411E+02
     -7.767  0.1526E+01  0.2433E+02
     -7.677  0.1417E+01  0.2445E+02
     -7.588  0.1650E+01  0.2459E+02
     -7.498  0.2285E+01  0.2476E+02
     -7.409  0.5876E+01  0.2505E+02
     -7.319  0.8563E+01  0.2603E+02
     -7.230  0.1566E+01  0.2623E+02
     -7.140  0.1776E+01  0.2637E+02
     -7.051  0.2102E+01  0.2655E+02
     -6.961  0.2724E+01  0.2676E+02
     -6.872  0.4142E+01  0.2705E+02
     -6.782  0.8379E+01  0.2766E+02
     -6.693  0.0000E+00  0.2800E+02
     -6.603  0.0000E+00  0.2800E+02
     -6.514  0.0000E+00  0.2800E+02
     -6.424  0.0000E+00  0.2800E+02
     -6.335  0.0000E+00  0.2800E+02
     -6.245  0.0000E+00  0.2800E+02
     -6.156  0.0000E+00  0.2800E+02
     -6.066  0.0000E+00  0.2800E+02
     -5.977  0.0000E+00  0.2800E+02
     -5.887  0.0000E+00  0.2800E+02
     -5.798  0.0000E+00  0.2800E+02
     -5.708  0.0000E+00  0.2800E+02
     -5.619  0.0000E+00  0.2800E+02
     -5.529  0.0000E+00  0.2800E+02
     -5.440  0.0000E+00  0.2800E+02
     -5.350  0.0000E+00  0.2800E+02
     -5.261  0.0000E+00  0.2800E+02
     -5.171  0.0000E+00  0.2800E+02
     -5.082  0.0000E+00  0.2800E+02
     -4.992  0.0000E+00  0.2800E+02
     -4.903  0.0000E+00  0.2800E+02
     -4.813  0.0000E+00  0.2800E+02
     -4.724  0.0000E+00  0.2800E+02
     -4.634  0.0000E+00  0.2800E+02
     -4.545  0.0000E+00  0.2800E+02
     -4.455  0.0000E+00  0.2800E+02
     -4.366  0.0000E+00  0.2800E+02
     -4.276  0.0000E+00  0.2800E+02
     -4.187  0.0000E+00  0.2800E+02
     -4.097  0.0000E+00  0.2800E+02
     -4.008  0.0000E+00  0.2800E+02
     -3.918  0.0000E+00  0.2800E+02
     -3.829  0.0000E+00  0.2800E+02
     -3.739  0.0000E+00  0.2800E+02
     -3.650  0.0000E+00  0.2800E+02
     -3.560  0.0000E+00  0.2800E+02
     -3.471  0.0000E+00  0.2800E+02
     -3.381  0.0000E+00  0.2800E+02
     -3.292  0.0000E+00  0.2800E+02
     -3.202  0.0000E+00  0.2800E+02
     -3.113  0.0000E+00  0.2800E+02
     -3.023  0.0000E+00  0.2800E+02
     -2.934  0.0000E+00  0.2800E+02
     -2.844  0.0000E+00  0.2800E+02
     -2.755  0.0000E+00  0.2800E+02
     -2.665  0.0000E+00  0.2800E+02
     -2.576  0.0000E+00  0.2800E+02
     -2.486  0.0000E+00  0.2800E+02
     -2.397  0.1876E+01  0.2806E+02
     -2.307  0.2895E+01  0.2830E+02
     -2.218  0.3489E+01  0.2872E+02
     -2.128  0.2206E+01  0.2896E+02
     -2.039  0.2996E+01  0.2917E+02
     -1.949  0.8994E+01  0.2967E+02
     -1.860  0.4604E+01  0.3031E+02
     -1.770  0.2170E+01  0.3060E+02
     -1.681  0.1813E+01  0.3077E+02
     -1.591  0.1787E+01  0.3093E+02
     -1.502  0.1588E+02  0.3178E+02
     -1.412  0.5995E+01  0.3257E+02
     -1.323  0.3749E+02  0.3484E+02
     -1.233  0.1717E+02  0.3579E+02
     -1.144  0.1004E+02  0.3741E+02
     -1.054  0.6167E+01  0.3999E+02
     -0.965  0.5242E+01  0.4054E+02
     -0.875  0.3948E+01  0.4105E+02
     -0.786  0.2483E+01  0.4133E+02
     -0.696  0.6273E+00  0.4142E+02
     -0.607  0.5918E+00  0.4148E+02
     -0.517  0.5694E+00  0.4153E+02
     -0.428  0.5522E+00  0.4158E+02
     -0.338  0.3017E+01  0.4172E+02
     -0.249  0.3997E+01  0.4212E+02
     -0.159  0.3843E+01  0.4246E+02
     -0.070  0.6192E+01  0.4290E+02
      0.020  0.6669E+01  0.4342E+02
      0.109  0.4654E+01  0.4392E+02
      0.199  0.3799E+01  0.4429E+02
      0.288  0.3388E+01  0.4462E+02
      0.378  0.3151E+01  0.4491E+02
      0.467  0.4141E+01  0.4521E+02
      0.557  0.4598E+01  0.4559E+02
      0.646  0.5940E+01  0.4605E+02
      0.736  0.4431E+01  0.4651E+02
      0.825  0.4114E+01  0.4689E+02
      0.915  0.3444E+01  0.4723E+02
      1.004  0.3838E+01  0.4755E+02
      1.094  0.3897E+01  0.4791E+02
      1.183  0.5492E+01  0.4830E+02
      1.273  0.5456E+01  0.4881E+02
      1.362  0.5720E+01  0.4930E+02
      1.452  0.5623E+01  0.4985E+02
      1.541  0.4821E+01  0.5030E+02
      1.631  0.8143E+01  0.5083E+02
      1.720  0.6656E+01  0.5150E+02
      1.810  0.5405E+01  0.5203E+02
      1.899  0.6044E+01  0.5250E+02
      1.989  0.4345E+01  0.5294E+02
      2.078  0.3870E+01  0.5331E+02
      2.168  0.3180E+01  0.5365E+02
      2.257  0.3337E+01  0.5394E+02
      2.347  0.3733E+01  0.5425E+02
      2.436  0.5230E+01  0.5464E+02
      2.526  0.4378E+01  0.5510E+02
      2.615  0.3909E+01  0.5548E+02
      2.705  0.3592E+01  0.5582E+02
      2.794  0.4545E+01  0.5619E+02
      2.884  0.1097E+02  0.5673E+02
      2.973  0.9024E+01  0.5756E+02
      3.063  0.5688E+01  0.5811E+02
      3.152  0.1925E+01  0.5841E+02
      3.242  0.1795E+01  0.5857E+02
      3.331  0.2259E+01  0.5876E+02
      3.421  0.2105E+01  0.5897E+02
      3.510  0.1625E+01  0.5913E+02
      3.600  0.1578E+01  0.5927E+02
      3.689  0.1476E+01  0.5941E+02
      3.779  0.1536E+01  0.5953E+02
      3.868  0.3114E+01  0.5973E+02
      3.958  0.1204E+02  0.6047E+02
      4.047  0.7320E+01  0.6119E+02
      4.137  0.1567E+01  0.6171E+02
      4.226  0.8884E+00  0.6180E+02
      4.316  0.7417E+00  0.6187E+02
      4.405  0.6088E+00  0.6194E+02
      4.495  0.5364E+00  0.6199E+02
      4.584  0.0000E+00  0.6200E+02
      4.674  0.0000E+00  0.6200E+02
      4.763  0.0000E+00  0.6200E+02
      4.853  0.1283E-03  0.6200E+02
      4.942  0.5450E-02  0.6200E+02
      5.032  0.1858E-01  0.6200E+02
      5.121  0.4124E-01  0.6200E+02
      5.211  0.7852E-01  0.6201E+02
      5.300  0.1085E+00  0.6202E+02
      5.390  0.1515E+00  0.6203E+02
      5.479  0.2215E+00  0.6205E+02
      5.569  0.4127E+00  0.6207E+02
      5.658  0.9555E+00  0.6213E+02
      5.748  0.1512E+01  0.6224E+02
      5.837  0.1785E+01  0.6239E+02
      5.927  0.2240E+01  0.6257E+02
      6.016  0.3506E+01  0.6282E+02
      6.106  0.2852E+01  0.6313E+02
      6.195  0.2406E+01  0.6335E+02
      6.285  0.3681E+01  0.6362E+02
      6.374  0.5899E+01  0.6404E+02
      6.464  0.3673E+01  0.6447E+02
      6.553  0.3638E+01  0.6478E+02
      6.643  0.7190E+01  0.6521E+02
      6.732  0.4752E+01  0.6577E+02
      6.822  0.8292E+00  0.6600E+02
      6.911  0.4373E+00  0.6602E+02
      7.001  0.1016E+01  0.6608E+02
      7.090  0.1038E+01  0.6618E+02
      7.180  0.1064E+01  0.6627E+02
      7.269  0.1106E+01  0.6637E+02
      7.359  0.1274E+01  0.6647E+02
      7.448  0.1420E+01  0.6660E+02
      7.538  0.1467E+01  0.6673E+02
      7.627  0.1597E+01  0.6686E+02
      7.717  0.1758E+01  0.6701E+02
      7.806  0.2144E+01  0.6718E+02
      7.896  0.3673E+01  0.6743E+02
      7.985  0.2912E+01  0.6778E+02
      8.075  0.1361E+01  0.6796E+02
      8.164  0.7592E+00  0.6806E+02
      8.254  0.5137E+00  0.6810E+02
      8.343  0.6587E+00  0.6816E+02
      8.433  0.8433E+00  0.6822E+02
      8.522  0.1244E+01  0.6831E+02
      8.612  0.2797E+01  0.6847E+02
      8.701  0.6464E+01  0.6888E+02
      8.791  0.8086E+01  0.6953E+02
      8.880  0.6372E+01  0.7027E+02
      8.970  0.2511E+01  0.7064E+02
      9.059  0.3341E+01  0.7089E+02
      9.149  0.4502E+01  0.7124E+02
      9.238  0.2864E+01  0.7155E+02
      9.328  0.2935E+01  0.7180E+02
      9.417  0.3990E+01  0.7210E+02
      9.507  0.6837E+01  0.7258E+02
      9.596  0.6120E+01  0.7320E+02
      9.686  0.6021E+01  0.7372E+02
      9.775  0.6066E+01  0.7427E+02
      9.865  0.6166E+01  0.7482E+02
      9.954  0.5407E+01  0.7539E+02
     10.044  0.3435E+01  0.7580E+02
     10.133  0.2514E+01  0.7605E+02
     10.223  0.2232E+01  0.7626E+02
     10.312  0.3006E+01  0.7648E+02
     10.402  0.4464E+01  0.7683E+02
     10.491  0.4925E+01  0.7724E+02
     10.581  0.5603E+01  0.7774E+02
     10.670  0.4413E+01  0.7813E+02
     10.760  0.3408E+01  0.7844E+02
     10.849  0.3375E+01  0.7874E+02
     10.939  0.3354E+01  0.7905E+02
     11.028  0.4561E+01  0.7938E+02
     11.118  0.1957E+01  0.7971E+02
     11.207  0.7094E+00  0.7981E+02
     11.297  0.5471E+00  0.7986E+02
     11.386  0.4562E+00  0.7991E+02
     11.476  0.4475E+00  0.7995E+02
     11.565  0.3453E+00  0.7998E+02
     11.655  0.4204E-01  0.8000E+02
     11.744  0.0000E+00  0.8000E+02
     11.834  0.0000E+00  0.8000E+02
     11.923  0.0000E+00  0.8000E+02
     12.013  0.0000E+00  0.8000E+02
     12.102  0.0000E+00  0.8000E+02
     12.192  0.0000E+00  0.8000E+02
     12.281  0.0000E+00  0.8000E+02
     12.371  0.0000E+00  0.8000E+02
     12.460  0.0000E+00  0.8000E+02
     12.550  0.0000E+00  0.8000E+02
     12.639  0.0000E+00  0.8000E+02
     12.729  0.0000E+00  0.8000E+02
     12.818  0.0000E+00  0.8000E+02
     12.908  0.0000E+00  0.8000E+02
     12.997  0.0000E+00  0.8000E+02
     13.087  0.0000E+00  0.8000E+02
     13.176  0.0000E+00  0.8000E+02
     13.266  0.0000E+00  0.8000E+02
     13.355  0.0000E+00  0.8000E+02
     13.445  0.0000E+00  0.8000E+02
     13.534  0.0000E+00  0.8000E+02
     13.624  0.0000E+00  0.8000E+02
     13.713  0.0000E+00  0.8000E+02
