       N       E                     dE             d eps       ncg     rms          rms(c)
DAV:   1     0.587447691406E+03    0.58745E+03   -0.27434E+04  9528   0.174E+03
DAV:   2     0.584642802104E+02   -0.52898E+03   -0.50654E+03  9648   0.448E+02
DAV:   3    -0.235234486583E+02   -0.81988E+02   -0.79886E+02 11760   0.175E+02
DAV:   4    -0.282004529314E+02   -0.46770E+01   -0.46507E+01 11600   0.422E+01
DAV:   5    -0.284061686271E+02   -0.20572E+00   -0.20565E+00 14248   0.929E+00    0.133E+01
DAV:   6    -0.266582404668E+02    0.17479E+01   -0.30598E+00 15184   0.391E+01    0.968E+00
DAV:   7    -0.266759386682E+02   -0.17698E-01   -0.28656E+00 13464   0.115E+01    0.301E+00
DAV:   8    -0.266364684631E+02    0.39470E-01   -0.37557E-01 13336   0.536E+00    0.202E+00
DAV:   9    -0.266390887871E+02   -0.26203E-02   -0.45027E-02 12032   0.103E+00    0.850E-01
DAV:  10    -0.266385192242E+02    0.56956E-03   -0.58168E-03 13168   0.849E-01    0.600E-01
DAV:  11    -0.266388974034E+02   -0.37818E-03   -0.19801E-03 11616   0.244E-01    0.160E-01
DAV:  12    -0.266388575252E+02    0.39878E-04   -0.34424E-04 13664   0.146E-01    0.115E-01
DAV:  13    -0.266388650354E+02   -0.75102E-05   -0.63971E-05 11416   0.456E-02    0.445E-02
DAV:  14    -0.266388665071E+02   -0.14717E-05   -0.17635E-05 12296   0.307E-02    0.123E-02
DAV:  15    -0.266388668765E+02   -0.36938E-06   -0.32016E-06 15232   0.129E-02    0.799E-03
DAV:  16    -0.266388668316E+02    0.44892E-07   -0.55244E-07 10304   0.415E-03
   1 F= -.28755115E+02 E0= -.28755115E+02  d E =0.000000E+00
