 vasp.5.4.4.18Apr17-6-g9f103f2a35 (build Feb 10 2022 16:34:21) complex          
  
 executed on         VASP-optcell date 2026.09.03  14:11:33
 running on    8 total cores
 distrk:  each k-point on    8 cores,    1 groups
 distr:  one band on NCORES_PER_BAND=   1 cores,    8 groups


--------------------------------------------------------------------------------------------------------


 INCAR:
 POTCAR:    PAW_PBE S 06Sep2000                   
 POTCAR:    PAW_PBE In_d 06Sep2000                
 POTCAR:    PAW_PBE Zn 06Sep2000                  

 ----------------------------------------------------------------------------- 
|                                                                             |
|           W    W    AA    RRRRR   N    N  II  N    N   GGGG   !!!           |
|           W    W   A  A   R    R  NN   N  II  NN   N  G    G  !!!           |
|           W    W  A    A  R    R  N N  N  II  N N  N  G       !!!           |
|           W WW W  AAAAAA  RRRRR   N  N N  II  N  N N  G  GGG   !            |
|           WW  WW  A    A  R   R   N   NN  II  N   NN  G    G                |
|           W    W  A    A  R    R  N    N  II  N    N   GGGG   !!!           |
|                                                                             |
|      For optimal performance we recommend to set                            |
|        NCORE= 4 - approx SQRT( number of cores)                             |
|      NCORE specifies how many cores store one orbital (NPAR=cpu/NCORE).     |
|      This setting can  greatly improve the performance of VASP for DFT.     |
|      The default,   NCORE=1            might be grossly inefficient         |
|      on modern multi-core architectures or massively parallel machines.     |
|      Do your own testing !!!!                                               |
|      Unfortunately you need to use the default for GW and RPA calculations. |
|      (for HF NCORE is supported but not extensively tested yet)             |
|                                                                             |
 ----------------------------------------------------------------------------- 

 POTCAR:    PAW_PBE S 06Sep2000                   
   VRHFIN =S : s2p4                                                             
   LEXCH  = PE                                                                  
   EATOM  =   276.8230 eV,   20.3459 Ry                                         
                                                                                
   TITEL  = PAW_PBE S 06Sep2000                                                 
   LULTRA =        F    use ultrasoft PP ?                                      
   IUNSCR =        1    unscreen: 0-lin 1-nonlin 2-no                           
   RPACOR =    1.500    partial core radius                                     
   POMASS =   32.066; ZVAL   =    6.000    mass and valenz                      
   RCORE  =    1.900    outmost cutoff radius                                   
   RWIGS  =    2.200; RWIGS  =    1.164    wigner-seitz radius (au A)           
   ENMAX  =  258.689; ENMIN  =  194.016 eV                                      
   ICORE  =        2    local potential                                         
   LCOR   =        T    correct aug charges                                     
   LPAW   =        T    paw PP                                                  
   EAUG   =  335.092                                                            
   DEXC   =    0.000                                                            
   RMAX   =    1.942    core radius for proj-oper                               
   RAUG   =    1.300    factor for augmentation sphere                          
   RDEP   =    1.954    radius for radial grids                                 
   RDEPT  =    1.744    core radius for aug-charge                              
                                                                                
   Atomic configuration                                                         
    6 entries                                                                   
     n  l   j            E        occ.                                          
     1  0  0.50     -2405.8406   2.0000                                         
     2  0  0.50      -211.7007   2.0000                                         
     2  1  1.50      -156.4958   6.0000                                         
     3  0  0.50       -17.2562   2.0000                                         
     3  1  0.50        -7.0085   4.0000                                         
     3  2  1.50        -6.8029   0.0000                                         
   Description                                                                  
     l       E           TYP  RCUT    TYP  RCUT                                 
     0    -17.2561641     23  1.900                                             
     0    -15.8743224     23  1.900                                             
     1     -7.0085400     23  1.900                                             
     1     -2.7779785     23  1.900                                             
     2     -6.8029130     23  1.900                                             
  local pseudopotential read in
  partial core-charges read in
  partial kinetic energy density read in
  atomic valenz-charges read in
  non local Contribution for L=           0  read in
    real space projection operators read in
  non local Contribution for L=           0  read in
    real space projection operators read in
  non local Contribution for L=           1  read in
    real space projection operators read in
  non local Contribution for L=           1  read in
    real space projection operators read in
    PAW grid and wavefunctions read in
 
   number of l-projection  operators is LMAX  =           4
   number of lm-projection operators is LMMAX =           8
 
 POTCAR:    PAW_PBE In_d 06Sep2000                
   VRHFIN =In: s2p1                                                             
   LEXCH  = PE                                                                  
   EATOM  =  1576.8302 eV,  115.8937 Ry                                         
                                                                                
   TITEL  = PAW_PBE In_d 06Sep2000                                              
   LULTRA =        F    use ultrasoft PP ?                                      
   IUNSCR =        1    unscreen: 0-lin 1-nonlin 2-no                           
   RPACOR =    2.200    partial core radius                                     
   POMASS =  114.820; ZVAL   =   13.000    mass and valenz                      
   RCORE  =    2.500    outmost cutoff radius                                   
   RWIGS  =    3.170; RWIGS  =    1.677    wigner-seitz radius (au A)           
   ENMAX  =  239.211; ENMIN  =  179.409 eV                                      
   ICORE  =        3    local potential                                         
   LCOR   =        T    correct aug charges                                     
   LPAW   =        T    paw PP                                                  
   EAUG   =  449.704                                                            
   DEXC   =    0.000                                                            
   RMAX   =    2.552    core radius for proj-oper                               
   RAUG   =    1.300    factor for augmentation sphere                          
   RDEP   =    2.630    radius for radial grids                                 
   RDEPT  =    2.033    core radius for aug-charge                              
                                                                                
   Atomic configuration                                                         
   12 entries                                                                   
     n  l   j            E        occ.                                          
     1  0  0.50    -27747.9169   2.0000                                         
     2  0  0.50     -4154.4438   2.0000                                         
     2  1  1.50     -3728.4305   6.0000                                         
     3  0  0.50      -788.3680   2.0000                                         
     3  1  1.50      -648.9215   6.0000                                         
     3  2  2.50      -432.5893  10.0000                                         
     4  0  0.50      -119.6363   2.0000                                         
     4  1  1.50       -78.1086   6.0000                                         
     4  2  2.50       -18.6227  10.0000                                         
     5  0  0.50        -8.2107   2.0000                                         
     5  1  0.50        -2.5185   1.0000                                         
     4  3  2.50        -2.7212   0.0000                                         
   Description                                                                  
     l       E           TYP  RCUT    TYP  RCUT                                 
     2    -18.6226981     23  2.500                                             
     2     -1.3605826     23  2.500                                             
     0     -8.2107305     23  2.500                                             
     0     -6.1485975     23  2.500                                             
     1     -2.5184867     23  2.500                                             
     1      3.2427302     23  2.500                                             
     3     -1.3605826      7  2.500                                             
  local pseudopotential read in
  partial core-charges read in
  partial kinetic energy density read in
  atomic valenz-charges read in
  non local Contribution for L=           2  read in
    real space projection operators read in
  non local Contribution for L=           2  read in
    real space projection operators read in
  non local Contribution for L=           0  read in
    real space projection operators read in
  non local Contribution for L=           0  read in
    real space projection operators read in
  non local Contribution for L=           1  read in
    real space projection operators read in
  non local Contribution for L=           1  read in
    real space projection operators read in
    PAW grid and wavefunctions read in
 
   number of l-projection  operators is LMAX  =           6
   number of lm-projection operators is LMMAX =          18
 
 POTCAR:    PAW_PBE Zn 06Sep2000                  
   VRHFIN =Zn: d10 p2                                                           
   LEXCH  = PE                                                                  
   EATOM  =  1748.8345 eV,  128.5357 Ry                                         
                                                                                
   TITEL  = PAW_PBE Zn 06Sep2000                                                
   LULTRA =        F    use ultrasoft PP ?                                      
   IUNSCR =        1    unscreen: 0-lin 1-nonlin 2-no                           
   RPACOR =    2.000    partial core radius                                     
   POMASS =   65.390; ZVAL   =   12.000    mass and valenz                      
   RCORE  =    2.300    outmost cutoff radius                                   
   RWIGS  =    2.400; RWIGS  =    1.270    wigner-seitz radius (au A)           
   ENMAX  =  276.723; ENMIN  =  207.542 eV                                      
   RCLOC  =    1.828    cutoff for local pot                                    
   LCOR   =        T    correct aug charges                                     
   LPAW   =        T    paw PP                                                  
   EAUG   =  575.892                                                            
   DEXC   =    0.000                                                            
   RMAX   =    2.347    core radius for proj-oper                               
   RAUG   =    1.300    factor for augmentation sphere                          
   RDEP   =    2.324    radius for radial grids                                 
   RDEPT  =    1.788    core radius for aug-charge                              
                                                                                
   Atomic configuration                                                         
    9 entries                                                                   
     n  l   j            E        occ.                                          
     1  0  0.50     -9524.6913   2.0000                                         
     2  0  0.50     -1158.1882   2.0000                                         
     2  1  1.50     -1003.8506   6.0000                                         
     3  0  0.50      -129.2194   2.0000                                         
     3  1  1.50       -83.3890   6.0000                                         
     3  2  2.50       -10.1410  10.0000                                         
     4  0  0.50        -5.9785   2.0000                                         
     4  1  0.50        -4.0817   0.0000                                         
     4  3  2.50        -1.3606   0.0000                                         
   Description                                                                  
     l       E           TYP  RCUT    TYP  RCUT                                 
     2    -10.1410010     23  2.300                                             
     2    -11.5015836     23  2.300                                             
     0     -5.9785163     23  2.300                                             
     0      1.1858015     23  2.300                                             
     1     -2.7211652     23  2.300                                             
     1     13.2444212     23  2.300                                             
  local pseudopotential read in
  partial core-charges read in
  partial kinetic energy density read in
  atomic valenz-charges read in
  non local Contribution for L=           2  read in
    real space projection operators read in
  non local Contribution for L=           2  read in
    real space projection operators read in
  non local Contribution for L=           0  read in
    real space projection operators read in
  non local Contribution for L=           0  read in
    real space projection operators read in
  non local Contribution for L=           1  read in
    real space projection operators read in
  non local Contribution for L=           1  read in
    real space projection operators read in
    PAW grid and wavefunctions read in
 
   number of l-projection  operators is LMAX  =           6
   number of lm-projection operators is LMMAX =          18
 
  PAW_PBE S 06Sep2000                   :
 energy of atom  1       EATOM= -276.8230
 kinetic energy error for atom=    0.0020 (will be added to EATOM!!)
  PAW_PBE In_d 06Sep2000                :
 energy of atom  2       EATOM=-1576.8302
 kinetic energy error for atom=    0.0036 (will be added to EATOM!!)
  PAW_PBE Zn 06Sep2000                  :
 energy of atom  3       EATOM=-1748.8345
 kinetic energy error for atom=    0.0029 (will be added to EATOM!!)
 
 
 POSCAR: In2 S4 Zn                               
  positions in direct lattice
  velocities in cartesian coordinates
 exchange correlation table for  LEXCH =        8
   RHO(1)=    0.500       N(1)  =     2000
   RHO(2)=  100.500       N(2)  =     4000
 


--------------------------------------------------------------------------------------------------------


 ion  position               nearest neighbor table
   1  0.000  0.000  0.097-   5 2.49   5 2.49   5 2.49
   2  0.333  0.667  0.388-   5 2.45   6 2.71   6 2.71   6 2.71
   3  0.000  0.000  0.618-   7 2.54   6 2.57   6 2.57   6 2.57
   4  0.667  0.333  0.872-   7 2.31   7 2.31   7 2.31
   5  0.333  0.667  0.186-   2 2.45   1 2.49   1 2.49   1 2.49
   6  0.667  0.333  0.514-   3 2.57   3 2.57   3 2.57   2 2.71   2 2.71   2 2.71
   7  0.000  0.000  0.827-   4 2.31   4 2.31   4 2.31   3 2.54
 
  LATTYP: Found a hexagonal cell.
 ALAT       =     3.8782842924
 C/A-ratio  =     3.1324246026
  
  Lattice vectors:
  
 A1 = (   3.8782842923,   0.0000000000,   0.0000000000)
 A2 = (  -1.9391421462,   3.3586927203,   0.0000000000)
 A3 = (   0.0000000000,   0.0000000000,  12.1484331333)


Analysis of symmetry for initial positions (statically):
=====================================================================
 Subroutine PRICEL returns:
 Original cell was already a primitive cell.
 

 Routine SETGRP: Setting up the symmetry group for a 
 hexagonal supercell.


 Subroutine GETGRP returns: Found  6 space group operations
 (whereof  6 operations were pure point group operations)
 out of a pool of 24 trial point group operations.


The static configuration has the point symmetry C_3v.


Analysis of symmetry for dynamics (positions and initial velocities):
=====================================================================
 Subroutine PRICEL returns:
 Original cell was already a primitive cell.
 

 Routine SETGRP: Setting up the symmetry group for a 
 hexagonal supercell.


 Subroutine GETGRP returns: Found  6 space group operations
 (whereof  6 operations were pure point group operations)
 out of a pool of 24 trial point group operations.


The dynamic configuration has the point symmetry C_3v.


 Subroutine INISYM returns: Found  6 space group operations
 (whereof  6 operations are pure point group operations),
 and found     1 'primitive' translations

 
 
 KPOINTS: K-point convergence                     

Automatic generation of k-mesh.
Space group operators:
 irot       det(A)        alpha          n_x          n_y          n_z        tau_x        tau_y        tau_z
    1     1.000000     0.000000     1.000000     0.000000     0.000000     0.000000     0.000000     0.000000
    2     1.000000   120.000000     0.000000     0.000000    -1.000000     0.000000     0.000000     0.000000
    3     1.000000   120.000000     0.000000     0.000000     1.000000     0.000000     0.000000     0.000000
    4    -1.000000   180.000000     1.000000     0.000000     0.000000     0.000000     0.000000     0.000000
    5    -1.000000   180.000000     0.500000    -0.866025     0.000000     0.000000     0.000000     0.000000
    6    -1.000000   180.000000    -0.500000    -0.866025     0.000000     0.000000     0.000000     0.000000
 
 Subroutine IBZKPT returns following result:
 ===========================================
 
 Found    119 irreducible k-points:
 
 Following reciprocal coordinates:
            Coordinates               Weight
  0.000000  0.000000  0.000000      1.000000
  0.066667  0.000000  0.000000      6.000000
  0.133333 -0.000000  0.000000      6.000000
  0.200000  0.000000  0.000000      6.000000
  0.266667  0.000000  0.000000      6.000000
  0.333333 -0.000000  0.000000      6.000000
  0.400000  0.000000  0.000000      6.000000
  0.466667  0.000000  0.000000      6.000000
  0.066667  0.066667  0.000000      6.000000
  0.133333  0.066667  0.000000     12.000000
  0.200000  0.066667  0.000000     12.000000
  0.266667  0.066667  0.000000     12.000000
  0.333333  0.066667  0.000000     12.000000
  0.400000  0.066667  0.000000     12.000000
  0.466667  0.066667  0.000000      6.000000
  0.133333  0.133333  0.000000      6.000000
  0.200000  0.133333  0.000000     12.000000
  0.266667  0.133333  0.000000     12.000000
  0.333333  0.133333  0.000000     12.000000
  0.400000  0.133333  0.000000     12.000000
  0.200000  0.200000  0.000000      6.000000
  0.266667  0.200000  0.000000     12.000000
  0.333333  0.200000  0.000000     12.000000
  0.400000  0.200000  0.000000      6.000000
  0.266667  0.266667  0.000000      6.000000
  0.333333  0.266667  0.000000     12.000000
  0.333333  0.333333  0.000000      2.000000
  0.000000  0.000000  0.200000      2.000000
  0.066667  0.000000  0.200000      6.000000
  0.133333 -0.000000  0.200000      6.000000
  0.200000  0.000000  0.200000      6.000000
  0.266667  0.000000  0.200000      6.000000
  0.333333 -0.000000  0.200000      6.000000
  0.400000  0.000000  0.200000      6.000000
  0.466667  0.000000  0.200000      6.000000
 -0.466667  0.000000  0.200000      6.000000
 -0.400000  0.000000  0.200000      6.000000
 -0.333333  0.000000  0.200000      6.000000
 -0.266667  0.000000  0.200000      6.000000
 -0.200000  0.000000  0.200000      6.000000
 -0.133333  0.000000  0.200000      6.000000
 -0.066667  0.000000  0.200000      6.000000
  0.066667  0.066667  0.200000     12.000000
  0.133333  0.066667  0.200000     12.000000
  0.200000  0.066667  0.200000     12.000000
  0.266667  0.066667  0.200000     12.000000
  0.333333  0.066667  0.200000     12.000000
  0.400000  0.066667  0.200000     12.000000
  0.466667  0.066667  0.200000     12.000000
 -0.466667  0.066667  0.200000     12.000000
 -0.400000  0.066667  0.200000     12.000000
 -0.333333  0.066667  0.200000     12.000000
 -0.266667  0.066667  0.200000     12.000000
 -0.200000  0.066667  0.200000     12.000000
  0.133333  0.133333  0.200000     12.000000
  0.200000  0.133333  0.200000     12.000000
  0.266667  0.133333  0.200000     12.000000
  0.333333  0.133333  0.200000     12.000000
  0.400000  0.133333  0.200000     12.000000
  0.466667  0.133333  0.200000     12.000000
 -0.466667  0.133333  0.200000     12.000000
 -0.400000  0.133333  0.200000     12.000000
 -0.333333  0.133333  0.200000     12.000000
  0.200000  0.200000  0.200000     12.000000
  0.266667  0.200000  0.200000     12.000000
  0.333333  0.200000  0.200000     12.000000
  0.400000  0.200000  0.200000     12.000000
  0.466667  0.200000  0.200000     12.000000
 -0.466667  0.200000  0.200000     12.000000
  0.266667  0.266667  0.200000     12.000000
  0.333333  0.266667  0.200000     12.000000
  0.400000  0.266667  0.200000     12.000000
  0.333333  0.333333  0.200000      4.000000
  0.000000  0.000000  0.400000      2.000000
  0.066667  0.000000  0.400000      6.000000
  0.133333 -0.000000  0.400000      6.000000
  0.200000  0.000000  0.400000      6.000000
  0.266667  0.000000  0.400000      6.000000
  0.333333 -0.000000  0.400000      6.000000
  0.400000  0.000000  0.400000      6.000000
  0.466667  0.000000  0.400000      6.000000
 -0.466667  0.000000  0.400000      6.000000
 -0.400000  0.000000  0.400000      6.000000
 -0.333333  0.000000  0.400000      6.000000
 -0.266667  0.000000  0.400000      6.000000
 -0.200000  0.000000  0.400000      6.000000
 -0.133333  0.000000  0.400000      6.000000
 -0.066667  0.000000  0.400000      6.000000
  0.066667  0.066667  0.400000     12.000000
  0.133333  0.066667  0.400000     12.000000
  0.200000  0.066667  0.400000     12.000000
  0.266667  0.066667  0.400000     12.000000
  0.333333  0.066667  0.400000     12.000000
  0.400000  0.066667  0.400000     12.000000
  0.466667  0.066667  0.400000     12.000000
 -0.466667  0.066667  0.400000     12.000000
 -0.400000  0.066667  0.400000     12.000000
 -0.333333  0.066667  0.400000     12.000000
 -0.266667  0.066667  0.400000     12.000000
 -0.200000  0.066667  0.400000     12.000000
  0.133333  0.133333  0.400000     12.000000
  0.200000  0.133333  0.400000     12.000000
  0.266667  0.133333  0.400000     12.000000
  0.333333  0.133333  0.400000     12.000000
  0.400000  0.133333  0.400000     12.000000
  0.466667  0.133333  0.400000     12.000000
 -0.466667  0.133333  0.400000     12.000000
 -0.400000  0.133333  0.400000     12.000000
 -0.333333  0.133333  0.400000     12.000000
  0.200000  0.200000  0.400000     12.000000
  0.266667  0.200000  0.400000     12.000000
  0.333333  0.200000  0.400000     12.000000
  0.400000  0.200000  0.400000     12.000000
  0.466667  0.200000  0.400000     12.000000
 -0.466667  0.200000  0.400000     12.000000
  0.266667  0.266667  0.400000     12.000000
  0.333333  0.266667  0.400000     12.000000
  0.400000  0.266667  0.400000     12.000000
  0.333333  0.333333  0.400000      4.000000
 
 Following cartesian coordinates:
            Coordinates               Weight
  0.000000  0.000000  0.000000      1.000000
  0.017190  0.009924  0.000000      6.000000
  0.034379  0.019849  0.000000      6.000000
  0.051569  0.029773  0.000000      6.000000
  0.068759  0.039698  0.000000      6.000000
  0.085949  0.049622  0.000000      6.000000
  0.103138  0.059547  0.000000      6.000000
  0.120328  0.069471  0.000000      6.000000
  0.017190  0.029773  0.000000      6.000000
  0.034379  0.039698  0.000000     12.000000
  0.051569  0.049622  0.000000     12.000000
  0.068759  0.059547  0.000000     12.000000
  0.085949  0.069471  0.000000     12.000000
  0.103138  0.079396  0.000000     12.000000
  0.120328  0.089320  0.000000      6.000000
  0.034379  0.059547  0.000000      6.000000
  0.051569  0.069471  0.000000     12.000000
  0.068759  0.079396  0.000000     12.000000
  0.085949  0.089320  0.000000     12.000000
  0.103138  0.099245  0.000000     12.000000
  0.051569  0.089320  0.000000      6.000000
  0.068759  0.099245  0.000000     12.000000
  0.085949  0.109169  0.000000     12.000000
  0.103138  0.119094  0.000000      6.000000
  0.068759  0.119094  0.000000      6.000000
  0.085949  0.129018  0.000000     12.000000
  0.085949  0.148867  0.000000      2.000000
  0.000000  0.000000  0.016463      2.000000
  0.017190  0.009924  0.016463      6.000000
  0.034379  0.019849  0.016463      6.000000
  0.051569  0.029773  0.016463      6.000000
  0.068759  0.039698  0.016463      6.000000
  0.085949  0.049622  0.016463      6.000000
  0.103138  0.059547  0.016463      6.000000
  0.120328  0.069471  0.016463      6.000000
 -0.120328 -0.069471  0.016463      6.000000
 -0.103138 -0.059547  0.016463      6.000000
 -0.085949 -0.049622  0.016463      6.000000
 -0.068759 -0.039698  0.016463      6.000000
 -0.051569 -0.029773  0.016463      6.000000
 -0.034379 -0.019849  0.016463      6.000000
 -0.017190 -0.009924  0.016463      6.000000
  0.017190  0.029773  0.016463     12.000000
  0.034379  0.039698  0.016463     12.000000
  0.051569  0.049622  0.016463     12.000000
  0.068759  0.059547  0.016463     12.000000
  0.085949  0.069471  0.016463     12.000000
  0.103138  0.079396  0.016463     12.000000
  0.120328  0.089320  0.016463     12.000000
 -0.120328 -0.049622  0.016463     12.000000
 -0.103138 -0.039698  0.016463     12.000000
 -0.085949 -0.029773  0.016463     12.000000
 -0.068759 -0.019849  0.016463     12.000000
 -0.051569 -0.009924  0.016463     12.000000
  0.034379  0.059547  0.016463     12.000000
  0.051569  0.069471  0.016463     12.000000
  0.068759  0.079396  0.016463     12.000000
  0.085949  0.089320  0.016463     12.000000
  0.103138  0.099245  0.016463     12.000000
  0.120328  0.109169  0.016463     12.000000
 -0.120328 -0.029773  0.016463     12.000000
 -0.103138 -0.019849  0.016463     12.000000
 -0.085949 -0.009924  0.016463     12.000000
  0.051569  0.089320  0.016463     12.000000
  0.068759  0.099245  0.016463     12.000000
  0.085949  0.109169  0.016463     12.000000
  0.103138  0.119094  0.016463     12.000000
  0.120328  0.129018  0.016463     12.000000
 -0.120328 -0.009924  0.016463     12.000000
  0.068759  0.119094  0.016463     12.000000
  0.085949  0.129018  0.016463     12.000000
  0.103138  0.138943  0.016463     12.000000
  0.085949  0.148867  0.016463      4.000000
  0.000000  0.000000  0.032926      2.000000
  0.017190  0.009924  0.032926      6.000000
  0.034379  0.019849  0.032926      6.000000
  0.051569  0.029773  0.032926      6.000000
  0.068759  0.039698  0.032926      6.000000
  0.085949  0.049622  0.032926      6.000000
  0.103138  0.059547  0.032926      6.000000
  0.120328  0.069471  0.032926      6.000000
 -0.120328 -0.069471  0.032926      6.000000
 -0.103138 -0.059547  0.032926      6.000000
 -0.085949 -0.049622  0.032926      6.000000
 -0.068759 -0.039698  0.032926      6.000000
 -0.051569 -0.029773  0.032926      6.000000
 -0.034379 -0.019849  0.032926      6.000000
 -0.017190 -0.009924  0.032926      6.000000
  0.017190  0.029773  0.032926     12.000000
  0.034379  0.039698  0.032926     12.000000
  0.051569  0.049622  0.032926     12.000000
  0.068759  0.059547  0.032926     12.000000
  0.085949  0.069471  0.032926     12.000000
  0.103138  0.079396  0.032926     12.000000
  0.120328  0.089320  0.032926     12.000000
 -0.120328 -0.049622  0.032926     12.000000
 -0.103138 -0.039698  0.032926     12.000000
 -0.085949 -0.029773  0.032926     12.000000
 -0.068759 -0.019849  0.032926     12.000000
 -0.051569 -0.009924  0.032926     12.000000
  0.034379  0.059547  0.032926     12.000000
  0.051569  0.069471  0.032926     12.000000
  0.068759  0.079396  0.032926     12.000000
  0.085949  0.089320  0.032926     12.000000
  0.103138  0.099245  0.032926     12.000000
  0.120328  0.109169  0.032926     12.000000
 -0.120328 -0.029773  0.032926     12.000000
 -0.103138 -0.019849  0.032926     12.000000
 -0.085949 -0.009924  0.032926     12.000000
  0.051569  0.089320  0.032926     12.000000
  0.068759  0.099245  0.032926     12.000000
  0.085949  0.109169  0.032926     12.000000
  0.103138  0.119094  0.032926     12.000000
  0.120328  0.129018  0.032926     12.000000
 -0.120328 -0.009924  0.032926     12.000000
  0.068759  0.119094  0.032926     12.000000
  0.085949  0.129018  0.032926     12.000000
  0.103138  0.138943  0.032926     12.000000
  0.085949  0.148867  0.032926      4.000000
 
 TETIRR: Found   1608 inequivalent tetrahedra from     6750


--------------------------------------------------------------------------------------------------------




 Dimension of arrays:
   k-points           NKPTS =    119   k-points in BZ     NKDIM =    119   number of bands    NBANDS=     40
   number of dos      NEDOS =    301   number of ions     NIONS =      7
   non local maximal  LDIM  =      6   non local SUM 2l+1 LMDIM =     18
   total plane-waves  NPLWV =  70560
   max r-space proj   IRMAX =      1   max aug-charges    IRDMAX= 154262
   dimension x,y,z NGX =    28 NGY =   28 NGZ =   90
   dimension x,y,z NGXF=    56 NGYF=   56 NGZF=  180
   support grid    NGXF=   112 NGYF=  112 NGZF=  360
   ions per type =               4   2   1
   NGX,Y,Z   is equivalent  to a cutoff of  12.00, 12.00, 12.32 a.u.
   NGXF,Y,Z  is equivalent  to a cutoff of  24.00, 24.00, 24.63 a.u.

 SYSTEM =  ZnIn2S4 bulk k-point convergence        
 POSCAR =  In2 S4 Zn                               

 Startparameter for this run:
   NWRITE =      2    write-flag & timer
   PREC   = accura    normal or accurate (medium, high low for compatibility)
   ISTART =      0    job   : 0-new  1-cont  2-samecut
   ICHARG =      2    charge: 1-file 2-atom 10-const
   ISPIN  =      1    spin polarized calculation?
   LNONCOLLINEAR =      F non collinear calculations
   LSORBIT =      F    spin-orbit coupling
   INIWAV =      1    electr: 0-lowe 1-rand  2-diag
   LASPH  =      T    aspherical Exc in radial PAW
   METAGGA=      F    non-selfconsistent MetaGGA calc.

 Electronic Relaxation 1
   ENCUT  =  500.0 eV  36.75 Ry    6.06 a.u.   7.07  7.07 22.15*2*pi/ulx,y,z
   ENINI  =  500.0     initial cutoff
   ENAUG  =  575.9 eV  augmentation charge cutoff
   NELM   =    150;   NELMIN=  2; NELMDL= -5     # of ELM steps 
   EDIFF  = 0.1E-06   stopping-criterion for ELM
   LREAL  =      F    real-space projection
   NLSPLINE    = F    spline interpolate recip. space projectors
   LCOMPAT=      F    compatible to vasp.4.4
   GGA_COMPAT  = T    GGA compatible to vasp.4.4-vasp.4.6
   LMAXPAW     = -100 max onsite density
   LMAXMIX     =    2 max onsite mixed and CHGCAR
   VOSKOWN=      0    Vosko Wilk Nusair interpolation
   ROPT   =    0.00000   0.00000   0.00000
 Ionic relaxation
   EDIFFG = 0.1E-05   stopping-criterion for IOM
   NSW    =      0    number of steps for IOM
   NBLOCK =      1;   KBLOCK =      1    inner block; outer block 
   IBRION =     -1    ionic relax: 0-MD 1-quasi-New 2-CG
   NFREE  =      0    steps in history (QN), initial steepest desc. (CG)
   ISIF   =      2    stress and relaxation
   IWAVPR =     10    prediction:  0-non 1-charg 2-wave 3-comb
   ISYM   =      2    0-nonsym 1-usesym 2-fastsym
   LCORR  =      T    Harris-Foulkes like correction to forces

   POTIM  = 0.5000    time-step for ionic-motion
   TEIN   =    0.0    initial temperature
   TEBEG  =    0.0;   TEEND  =   0.0 temperature during run
   SMASS  =  -3.00    Nose mass-parameter (am)
   estimated Nose-frequenzy (Omega)   =  0.10E-29 period in steps =****** mass=  -0.344E-27a.u.
   SCALEE = 1.0000    scale energy and forces
   NPACO  =    256;   APACO  = 16.0  distance and # of slots for P.C.
   PSTRESS=    0.0 pullay stress

  Mass of Ions in am
   POMASS =  32.07114.82 65.39
  Ionic Valenz
   ZVAL   =   6.00 13.00 12.00
  Atomic Wigner-Seitz radii
   RWIGS  =  -1.00 -1.00 -1.00
  virtual crystal weights 
   VCA    =   1.00  1.00  1.00
   NELECT =      62.0000    total number of electrons
   NUPDOWN=      -1.0000    fix difference up-down

 DOS related values:
   EMIN   =  10.00;   EMAX   =-10.00  energy-range for DOS
   EFERMI =   0.00
   ISMEAR =    -5;   SIGMA  =   0.20  broadening in eV -4-tet -1-fermi 0-gaus

 Electronic relaxation 2 (details)
   IALGO  =     38    algorithm
   LDIAG  =      T    sub-space diagonalisation (order eigenvalues)
   LSUBROT=      F    optimize rotation matrix (better conditioning)
   TURBO    =      0    0=normal 1=particle mesh
   IRESTART =      0    0=no restart 2=restart with 2 vectors
   NREBOOT  =      0    no. of reboots
   NMIN     =      0    reboot dimension
   EREF     =   0.00    reference energy to select bands
   IMIX   =      4    mixing-type and parameters
     AMIX     =   0.40;   BMIX     =  1.00
     AMIX_MAG =   1.60;   BMIX_MAG =  1.00
     AMIN     =   0.10
     WC   =   100.;   INIMIX=   1;  MIXPRE=   1;  MAXMIX= -45

 Intra band minimization:
   WEIMIN = 0.0000     energy-eigenvalue tresh-hold
   EBREAK =  0.63E-09  absolut break condition
   DEPER  =   0.30     relativ break condition  

   TIME   =   0.40     timestep for ELM

  volume/ion in A,a.u.               =      22.61       152.56
  Fermi-wavevector in a.u.,A,eV,Ry     =   1.197922  2.263745 19.524605  1.435018
  Thomas-Fermi vector in A             =   2.333825
 
 Write flags
   LWAVE        =      F    write WAVECAR
   LDOWNSAMPLE  =      F    k-point downsampling of WAVECAR
   LCHARG       =      F    write CHGCAR
   LVTOT        =      F    write LOCPOT, total local potential
   LVHAR        =      F    write LOCPOT, Hartree potential only
   LELF         =      F    write electronic localiz. function (ELF)
   LORBIT       =      0    0 simple, 1 ext, 2 COOP (PROOUT), +10 PAW based schemes


 Dipole corrections
   LMONO  =      F    monopole corrections only (constant potential shift)
   LDIPOL =      F    correct potential (dipole corrections)
   IDIPOL =      0    1-x, 2-y, 3-z, 4-all directions 
   EPSILON=  1.0000000 bulk dielectric constant

 Exchange correlation treatment:
   GGA     =    PE    GGA type
   LEXCH   =     8    internal setting for exchange type
   VOSKOWN=      0    Vosko Wilk Nusair interpolation
   LHFCALC =     F    Hartree Fock is set to
   LHFONE  =     F    Hartree Fock one center treatment
   AEXX    =    0.0000 exact exchange contribution

 Linear response parameters
   LEPSILON=     F    determine dielectric tensor
   LRPA    =     F    only Hartree local field effects (RPA)
   LNABLA  =     F    use nabla operator in PAW spheres
   LVEL    =     F    velocity operator in full k-point grid
   LINTERFAST=   F  fast interpolation
   KINTER  =     0    interpolate to denser k-point grid
   CSHIFT  =0.1000    complex shift for real part using Kramers Kronig
   OMEGAMAX=  -1.0    maximum frequency
   DEG_THRESHOLD= 0.2000000E-02 threshold for treating states as degnerate
   RTIME   =   -0.100 relaxation time in fs
  (WPLASMAI=    0.000 imaginary part of plasma frequency in eV, 0.658/RTIME)
   DFIELD  = 0.0000000 0.0000000 0.0000000 field for delta impulse in time
 
 Orbital magnetization related:
   ORBITALMAG=     F  switch on orbital magnetization
   LCHIMAG   =     F  perturbation theory with respect to B field
   DQ        =  0.001000  dq finite difference perturbation B field
   LLRAUG    =     F  two centre corrections for induced B field



--------------------------------------------------------------------------------------------------------


 Static calculation
 charge density and potential will be updated during run
 non-spin polarized calculation
 Variant of blocked Davidson
 Davidson routine will perform the subspace rotation
 perform sub-space diagonalisation
    after iterative eigenvector-optimisation
 modified Broyden-mixing scheme, WC =      100.0
 initial mixing is a Kerker type mixing with AMIX =  0.4000 and BMIX =      1.0000
 Hartree-type preconditioning will be used
 using additional bands            9
 reciprocal scheme for non local part
 use partial core corrections
 calculate Harris-corrections to forces 
   (improved forces if not selfconsistent)
 use gradient corrections 
 use of overlap-Matrix (Vanderbilt PP)
 Fermi weights with tetrahedron method with Bloechl corrections


--------------------------------------------------------------------------------------------------------


  energy-cutoff  :      500.00
  volume of cell :      158.25
      direct lattice vectors                 reciprocal lattice vectors
     3.878284292  0.000000000  0.000000000     0.257845976  0.148867444  0.000000000
    -1.939142146  3.358692720  0.000000000     0.000000000  0.297734888  0.000000000
     0.000000000  0.000000000 12.148433133     0.000000000  0.000000000  0.082315142

  length of vectors
     3.878284292  3.878284292 12.148433133     0.297734888  0.297734888  0.082315142


 
 k-points in units of 2pi/SCALE and weight: K-point convergence                     
   0.00000000  0.00000000  0.00000000       0.001
   0.01718973  0.00992450  0.00000000       0.005
   0.03437946  0.01984899  0.00000000       0.005
   0.05156920  0.02977349  0.00000000       0.005
   0.06875893  0.03969799  0.00000000       0.005
   0.08594866  0.04962248  0.00000000       0.005
   0.10313839  0.05954698  0.00000000       0.005
   0.12032812  0.06947147  0.00000000       0.005
   0.01718973  0.02977349  0.00000000       0.005
   0.03437946  0.03969799  0.00000000       0.011
   0.05156920  0.04962248  0.00000000       0.011
   0.06875893  0.05954698  0.00000000       0.011
   0.08594866  0.06947147  0.00000000       0.011
   0.10313839  0.07939597  0.00000000       0.011
   0.12032812  0.08932047  0.00000000       0.005
   0.03437946  0.05954698  0.00000000       0.005
   0.05156920  0.06947147  0.00000000       0.011
   0.06875893  0.07939597  0.00000000       0.011
   0.08594866  0.08932047  0.00000000       0.011
   0.10313839  0.09924496  0.00000000       0.011
   0.05156920  0.08932047  0.00000000       0.005
   0.06875893  0.09924496  0.00000000       0.011
   0.08594866  0.10916946  0.00000000       0.011
   0.10313839  0.11909396  0.00000000       0.005
   0.06875893  0.11909396  0.00000000       0.005
   0.08594866  0.12901845  0.00000000       0.011
   0.08594866  0.14886744  0.00000000       0.002
   0.00000000  0.00000000  0.01646303       0.002
   0.01718973  0.00992450  0.01646303       0.005
   0.03437946  0.01984899  0.01646303       0.005
   0.05156920  0.02977349  0.01646303       0.005
   0.06875893  0.03969799  0.01646303       0.005
   0.08594866  0.04962248  0.01646303       0.005
   0.10313839  0.05954698  0.01646303       0.005
   0.12032812  0.06947147  0.01646303       0.005
  -0.12032812 -0.06947147  0.01646303       0.005
  -0.10313839 -0.05954698  0.01646303       0.005
  -0.08594866 -0.04962248  0.01646303       0.005
  -0.06875893 -0.03969799  0.01646303       0.005
  -0.05156920 -0.02977349  0.01646303       0.005
  -0.03437946 -0.01984899  0.01646303       0.005
  -0.01718973 -0.00992450  0.01646303       0.005
   0.01718973  0.02977349  0.01646303       0.011
   0.03437946  0.03969799  0.01646303       0.011
   0.05156920  0.04962248  0.01646303       0.011
   0.06875893  0.05954698  0.01646303       0.011
   0.08594866  0.06947147  0.01646303       0.011
   0.10313839  0.07939597  0.01646303       0.011
   0.12032812  0.08932047  0.01646303       0.011
  -0.12032812 -0.04962248  0.01646303       0.011
  -0.10313839 -0.03969799  0.01646303       0.011
  -0.08594866 -0.02977349  0.01646303       0.011
  -0.06875893 -0.01984899  0.01646303       0.011
  -0.05156920 -0.00992450  0.01646303       0.011
   0.03437946  0.05954698  0.01646303       0.011
   0.05156920  0.06947147  0.01646303       0.011
   0.06875893  0.07939597  0.01646303       0.011
   0.08594866  0.08932047  0.01646303       0.011
   0.10313839  0.09924496  0.01646303       0.011
   0.12032812  0.10916946  0.01646303       0.011
  -0.12032812 -0.02977349  0.01646303       0.011
  -0.10313839 -0.01984899  0.01646303       0.011
  -0.08594866 -0.00992450  0.01646303       0.011
   0.05156920  0.08932047  0.01646303       0.011
   0.06875893  0.09924496  0.01646303       0.011
   0.08594866  0.10916946  0.01646303       0.011
   0.10313839  0.11909396  0.01646303       0.011
   0.12032812  0.12901845  0.01646303       0.011
  -0.12032812 -0.00992450  0.01646303       0.011
   0.06875893  0.11909396  0.01646303       0.011
   0.08594866  0.12901845  0.01646303       0.011
   0.10313839  0.13894295  0.01646303       0.011
   0.08594866  0.14886744  0.01646303       0.004
   0.00000000  0.00000000  0.03292606       0.002
   0.01718973  0.00992450  0.03292606       0.005
   0.03437946  0.01984899  0.03292606       0.005
   0.05156920  0.02977349  0.03292606       0.005
   0.06875893  0.03969799  0.03292606       0.005
   0.08594866  0.04962248  0.03292606       0.005
   0.10313839  0.05954698  0.03292606       0.005
   0.12032812  0.06947147  0.03292606       0.005
  -0.12032812 -0.06947147  0.03292606       0.005
  -0.10313839 -0.05954698  0.03292606       0.005
  -0.08594866 -0.04962248  0.03292606       0.005
  -0.06875893 -0.03969799  0.03292606       0.005
  -0.05156920 -0.02977349  0.03292606       0.005
  -0.03437946 -0.01984899  0.03292606       0.005
  -0.01718973 -0.00992450  0.03292606       0.005
   0.01718973  0.02977349  0.03292606       0.011
   0.03437946  0.03969799  0.03292606       0.011
   0.05156920  0.04962248  0.03292606       0.011
   0.06875893  0.05954698  0.03292606       0.011
   0.08594866  0.06947147  0.03292606       0.011
   0.10313839  0.07939597  0.03292606       0.011
   0.12032812  0.08932047  0.03292606       0.011
  -0.12032812 -0.04962248  0.03292606       0.011
  -0.10313839 -0.03969799  0.03292606       0.011
  -0.08594866 -0.02977349  0.03292606       0.011
  -0.06875893 -0.01984899  0.03292606       0.011
  -0.05156920 -0.00992450  0.03292606       0.011
   0.03437946  0.05954698  0.03292606       0.011
   0.05156920  0.06947147  0.03292606       0.011
   0.06875893  0.07939597  0.03292606       0.011
   0.08594866  0.08932047  0.03292606       0.011
   0.10313839  0.09924496  0.03292606       0.011
   0.12032812  0.10916946  0.03292606       0.011
  -0.12032812 -0.02977349  0.03292606       0.011
  -0.10313839 -0.01984899  0.03292606       0.011
  -0.08594866 -0.00992450  0.03292606       0.011
   0.05156920  0.08932047  0.03292606       0.011
   0.06875893  0.09924496  0.03292606       0.011
   0.08594866  0.10916946  0.03292606       0.011
   0.10313839  0.11909396  0.03292606       0.011
   0.12032812  0.12901845  0.03292606       0.011
  -0.12032812 -0.00992450  0.03292606       0.011
   0.06875893  0.11909396  0.03292606       0.011
   0.08594866  0.12901845  0.03292606       0.011
   0.10313839  0.13894295  0.03292606       0.011
   0.08594866  0.14886744  0.03292606       0.004
 
 k-points in reciprocal lattice and weights: K-point convergence                     
   0.00000000  0.00000000  0.00000000       0.001
   0.06666667  0.00000000  0.00000000       0.005
   0.13333333 -0.00000000  0.00000000       0.005
   0.20000000  0.00000000  0.00000000       0.005
   0.26666667  0.00000000  0.00000000       0.005
   0.33333333 -0.00000000  0.00000000       0.005
   0.40000000  0.00000000  0.00000000       0.005
   0.46666667  0.00000000  0.00000000       0.005
   0.06666667  0.06666667  0.00000000       0.005
   0.13333333  0.06666667  0.00000000       0.011
   0.20000000  0.06666667  0.00000000       0.011
   0.26666667  0.06666667  0.00000000       0.011
   0.33333333  0.06666667  0.00000000       0.011
   0.40000000  0.06666667  0.00000000       0.011
   0.46666667  0.06666667  0.00000000       0.005
   0.13333333  0.13333333  0.00000000       0.005
   0.20000000  0.13333333  0.00000000       0.011
   0.26666667  0.13333333  0.00000000       0.011
   0.33333333  0.13333333  0.00000000       0.011
   0.40000000  0.13333333  0.00000000       0.011
   0.20000000  0.20000000  0.00000000       0.005
   0.26666667  0.20000000  0.00000000       0.011
   0.33333333  0.20000000  0.00000000       0.011
   0.40000000  0.20000000  0.00000000       0.005
   0.26666667  0.26666667  0.00000000       0.005
   0.33333333  0.26666667  0.00000000       0.011
   0.33333333  0.33333333  0.00000000       0.002
   0.00000000  0.00000000  0.20000000       0.002
   0.06666667  0.00000000  0.20000000       0.005
   0.13333333 -0.00000000  0.20000000       0.005
   0.20000000  0.00000000  0.20000000       0.005
   0.26666667  0.00000000  0.20000000       0.005
   0.33333333 -0.00000000  0.20000000       0.005
   0.40000000  0.00000000  0.20000000       0.005
   0.46666667  0.00000000  0.20000000       0.005
  -0.46666667  0.00000000  0.20000000       0.005
  -0.40000000  0.00000000  0.20000000       0.005
  -0.33333333  0.00000000  0.20000000       0.005
  -0.26666667  0.00000000  0.20000000       0.005
  -0.20000000  0.00000000  0.20000000       0.005
  -0.13333333  0.00000000  0.20000000       0.005
  -0.06666667  0.00000000  0.20000000       0.005
   0.06666667  0.06666667  0.20000000       0.011
   0.13333333  0.06666667  0.20000000       0.011
   0.20000000  0.06666667  0.20000000       0.011
   0.26666667  0.06666667  0.20000000       0.011
   0.33333333  0.06666667  0.20000000       0.011
   0.40000000  0.06666667  0.20000000       0.011
   0.46666667  0.06666667  0.20000000       0.011
  -0.46666667  0.06666667  0.20000000       0.011
  -0.40000000  0.06666667  0.20000000       0.011
  -0.33333333  0.06666667  0.20000000       0.011
  -0.26666667  0.06666667  0.20000000       0.011
  -0.20000000  0.06666667  0.20000000       0.011
   0.13333333  0.13333333  0.20000000       0.011
   0.20000000  0.13333333  0.20000000       0.011
   0.26666667  0.13333333  0.20000000       0.011
   0.33333333  0.13333333  0.20000000       0.011
   0.40000000  0.13333333  0.20000000       0.011
   0.46666667  0.13333333  0.20000000       0.011
  -0.46666667  0.13333333  0.20000000       0.011
  -0.40000000  0.13333333  0.20000000       0.011
  -0.33333333  0.13333333  0.20000000       0.011
   0.20000000  0.20000000  0.20000000       0.011
   0.26666667  0.20000000  0.20000000       0.011
   0.33333333  0.20000000  0.20000000       0.011
   0.40000000  0.20000000  0.20000000       0.011
   0.46666667  0.20000000  0.20000000       0.011
  -0.46666667  0.20000000  0.20000000       0.011
   0.26666667  0.26666667  0.20000000       0.011
   0.33333333  0.26666667  0.20000000       0.011
   0.40000000  0.26666667  0.20000000       0.011
   0.33333333  0.33333333  0.20000000       0.004
   0.00000000  0.00000000  0.40000000       0.002
   0.06666667  0.00000000  0.40000000       0.005
   0.13333333 -0.00000000  0.40000000       0.005
   0.20000000  0.00000000  0.40000000       0.005
   0.26666667  0.00000000  0.40000000       0.005
   0.33333333 -0.00000000  0.40000000       0.005
   0.40000000  0.00000000  0.40000000       0.005
   0.46666667  0.00000000  0.40000000       0.005
  -0.46666667  0.00000000  0.40000000       0.005
  -0.40000000  0.00000000  0.40000000       0.005
  -0.33333333  0.00000000  0.40000000       0.005
  -0.26666667  0.00000000  0.40000000       0.005
  -0.20000000  0.00000000  0.40000000       0.005
  -0.13333333  0.00000000  0.40000000       0.005
  -0.06666667  0.00000000  0.40000000       0.005
   0.06666667  0.06666667  0.40000000       0.011
   0.13333333  0.06666667  0.40000000       0.011
   0.20000000  0.06666667  0.40000000       0.011
   0.26666667  0.06666667  0.40000000       0.011
   0.33333333  0.06666667  0.40000000       0.011
   0.40000000  0.06666667  0.40000000       0.011
   0.46666667  0.06666667  0.40000000       0.011
  -0.46666667  0.06666667  0.40000000       0.011
  -0.40000000  0.06666667  0.40000000       0.011
  -0.33333333  0.06666667  0.40000000       0.011
  -0.26666667  0.06666667  0.40000000       0.011
  -0.20000000  0.06666667  0.40000000       0.011
   0.13333333  0.13333333  0.40000000       0.011
   0.20000000  0.13333333  0.40000000       0.011
   0.26666667  0.13333333  0.40000000       0.011
   0.33333333  0.13333333  0.40000000       0.011
   0.40000000  0.13333333  0.40000000       0.011
   0.46666667  0.13333333  0.40000000       0.011
  -0.46666667  0.13333333  0.40000000       0.011
  -0.40000000  0.13333333  0.40000000       0.011
  -0.33333333  0.13333333  0.40000000       0.011
   0.20000000  0.20000000  0.40000000       0.011
   0.26666667  0.20000000  0.40000000       0.011
   0.33333333  0.20000000  0.40000000       0.011
   0.40000000  0.20000000  0.40000000       0.011
   0.46666667  0.20000000  0.40000000       0.011
  -0.46666667  0.20000000  0.40000000       0.011
   0.26666667  0.26666667  0.40000000       0.011
   0.33333333  0.26666667  0.40000000       0.011
   0.40000000  0.26666667  0.40000000       0.011
   0.33333333  0.33333333  0.40000000       0.004
 
 position of ions in fractional coordinates (direct lattice) 
   0.00000000  0.00000000  0.09678648
   0.33333334  0.66666669  0.38799482
   0.00000000  0.00000000  0.61769726
   0.66666669  0.33333334  0.87218345
   0.33333334  0.66666669  0.18624456
   0.66666669  0.33333334  0.51353990
   0.00000000  0.00000000  0.82655349
 
 position of ions in cartesian coordinates  (Angst):
   0.00000000  0.00000000  1.17580410
  -0.00000000  2.23912855  4.71352907
   0.00000000  0.00000000  7.50405388
   1.93914221  1.11956427 10.59566231
  -0.00000000  2.23912855  2.26257961
   1.93914221  1.11956427  6.23870516
   0.00000000  0.00000000 10.04132976
 


--------------------------------------------------------------------------------------------------------


 k-point  1 :   0.0000 0.0000 0.0000  plane waves:    3975
 k-point  2 :   0.0667 0.0000 0.0000  plane waves:    3971
 k-point  3 :   0.1333-0.0000 0.0000  plane waves:    3994
 k-point  4 :   0.2000 0.0000 0.0000  plane waves:    4006
 k-point  5 :   0.2667 0.0000 0.0000  plane waves:    4016
 k-point  6 :   0.3333-0.0000 0.0000  plane waves:    4010
 k-point  7 :   0.4000 0.0000 0.0000  plane waves:    4018
 k-point  8 :   0.4667 0.0000 0.0000  plane waves:    4026
 k-point  9 :   0.0667 0.0667 0.0000  plane waves:    3985
 k-point 10 :   0.1333 0.0667 0.0000  plane waves:    3994
 k-point 11 :   0.2000 0.0667 0.0000  plane waves:    3999
 k-point 12 :   0.2667 0.0667 0.0000  plane waves:    4021
 k-point 13 :   0.3333 0.0667 0.0000  plane waves:    4012
 k-point 14 :   0.4000 0.0667 0.0000  plane waves:    4021
 k-point 15 :   0.4667 0.0667 0.0000  plane waves:    4028
 k-point 16 :   0.1333 0.1333 0.0000  plane waves:    4007
 k-point 17 :   0.2000 0.1333 0.0000  plane waves:    4007
 k-point 18 :   0.2667 0.1333 0.0000  plane waves:    4030
 k-point 19 :   0.3333 0.1333 0.0000  plane waves:    4022
 k-point 20 :   0.4000 0.1333 0.0000  plane waves:    4033
 k-point 21 :   0.2000 0.2000 0.0000  plane waves:    4025
 k-point 22 :   0.2667 0.2000 0.0000  plane waves:    4026
 k-point 23 :   0.3333 0.2000 0.0000  plane waves:    4031
 k-point 24 :   0.4000 0.2000 0.0000  plane waves:    4037
 k-point 25 :   0.2667 0.2667 0.0000  plane waves:    4019
 k-point 26 :   0.3333 0.2667 0.0000  plane waves:    4044
 k-point 27 :   0.3333 0.3333 0.0000  plane waves:    4047
 k-point 28 :   0.0000 0.0000 0.2000  plane waves:    3998
 k-point 29 :   0.0667 0.0000 0.2000  plane waves:    3986
 k-point 30 :   0.1333-0.0000 0.2000  plane waves:    3988
 k-point 31 :   0.2000 0.0000 0.2000  plane waves:    4006
 k-point 32 :   0.2667 0.0000 0.2000  plane waves:    4011
 k-point 33 :   0.3333-0.0000 0.2000  plane waves:    4020
 k-point 34 :   0.4000 0.0000 0.2000  plane waves:    4013
 k-point 35 :   0.4667 0.0000 0.2000  plane waves:    4011
 k-point 36 :  -0.4667 0.0000 0.2000  plane waves:    4011
 k-point 37 :  -0.4000 0.0000 0.2000  plane waves:    4013
 k-point 38 :  -0.3333 0.0000 0.2000  plane waves:    4020
 k-point 39 :  -0.2667 0.0000 0.2000  plane waves:    4011
 k-point 40 :  -0.2000 0.0000 0.2000  plane waves:    4006
 k-point 41 :  -0.1333 0.0000 0.2000  plane waves:    3988
 k-point 42 :  -0.0667 0.0000 0.2000  plane waves:    3986
 k-point 43 :   0.0667 0.0667 0.2000  plane waves:    3981
 k-point 44 :   0.1333 0.0667 0.2000  plane waves:    3994
 k-point 45 :   0.2000 0.0667 0.2000  plane waves:    4006
 k-point 46 :   0.2667 0.0667 0.2000  plane waves:    4019
 k-point 47 :   0.3333 0.0667 0.2000  plane waves:    4023
 k-point 48 :   0.4000 0.0667 0.2000  plane waves:    4023
 k-point 49 :   0.4667 0.0667 0.2000  plane waves:    4027
 k-point 50 :  -0.4667 0.0667 0.2000  plane waves:    4023
 k-point 51 :  -0.4000 0.0667 0.2000  plane waves:    4023
 k-point 52 :  -0.3333 0.0667 0.2000  plane waves:    4019
 k-point 53 :  -0.2667 0.0667 0.2000  plane waves:    4006
 k-point 54 :  -0.2000 0.0667 0.2000  plane waves:    3994
 k-point 55 :   0.1333 0.1333 0.2000  plane waves:    4005
 k-point 56 :   0.2000 0.1333 0.2000  plane waves:    4017
 k-point 57 :   0.2667 0.1333 0.2000  plane waves:    4025
 k-point 58 :   0.3333 0.1333 0.2000  plane waves:    4028
 k-point 59 :   0.4000 0.1333 0.2000  plane waves:    4030
 k-point 60 :   0.4667 0.1333 0.2000  plane waves:    4030
 k-point 61 :  -0.4667 0.1333 0.2000  plane waves:    4028
 k-point 62 :  -0.4000 0.1333 0.2000  plane waves:    4025
 k-point 63 :  -0.3333 0.1333 0.2000  plane waves:    4017
 k-point 64 :   0.2000 0.2000 0.2000  plane waves:    4016
 k-point 65 :   0.2667 0.2000 0.2000  plane waves:    4029
 k-point 66 :   0.3333 0.2000 0.2000  plane waves:    4028
 k-point 67 :   0.4000 0.2000 0.2000  plane waves:    4039
 k-point 68 :   0.4667 0.2000 0.2000  plane waves:    4028
 k-point 69 :  -0.4667 0.2000 0.2000  plane waves:    4029
 k-point 70 :   0.2667 0.2667 0.2000  plane waves:    4016
 k-point 71 :   0.3333 0.2667 0.2000  plane waves:    4036
 k-point 72 :   0.4000 0.2667 0.2000  plane waves:    4036
 k-point 73 :   0.3333 0.3333 0.2000  plane waves:    4032
 k-point 74 :   0.0000 0.0000 0.4000  plane waves:    3998
 k-point 75 :   0.0667 0.0000 0.4000  plane waves:    3994
 k-point 76 :   0.1333-0.0000 0.4000  plane waves:    3984
 k-point 77 :   0.2000 0.0000 0.4000  plane waves:    4014
 k-point 78 :   0.2667 0.0000 0.4000  plane waves:    4010
 k-point 79 :   0.3333-0.0000 0.4000  plane waves:    4014
 k-point 80 :   0.4000 0.0000 0.4000  plane waves:    4016
 k-point 81 :   0.4667 0.0000 0.4000  plane waves:    4021
 k-point 82 :  -0.4667 0.0000 0.4000  plane waves:    4021
 k-point 83 :  -0.4000 0.0000 0.4000  plane waves:    4016
 k-point 84 :  -0.3333 0.0000 0.4000  plane waves:    4014
 k-point 85 :  -0.2667 0.0000 0.4000  plane waves:    4010
 k-point 86 :  -0.2000 0.0000 0.4000  plane waves:    4014
 k-point 87 :  -0.1333 0.0000 0.4000  plane waves:    3984
 k-point 88 :  -0.0667 0.0000 0.4000  plane waves:    3994
 k-point 89 :   0.0667 0.0667 0.4000  plane waves:    3977
 k-point 90 :   0.1333 0.0667 0.4000  plane waves:    3993
 k-point 91 :   0.2000 0.0667 0.4000  plane waves:    4009
 k-point 92 :   0.2667 0.0667 0.4000  plane waves:    4013
 k-point 93 :   0.3333 0.0667 0.4000  plane waves:    4020
 k-point 94 :   0.4000 0.0667 0.4000  plane waves:    4021
 k-point 95 :   0.4667 0.0667 0.4000  plane waves:    4035
 k-point 96 :  -0.4667 0.0667 0.4000  plane waves:    4021
 k-point 97 :  -0.4000 0.0667 0.4000  plane waves:    4020
 k-point 98 :  -0.3333 0.0667 0.4000  plane waves:    4013
 k-point 99 :  -0.2667 0.0667 0.4000  plane waves:    4009
 k-point ** :  -0.2000 0.0667 0.4000  plane waves:    3993
 k-point ** :   0.1333 0.1333 0.4000  plane waves:    4013
 k-point ** :   0.2000 0.1333 0.4000  plane waves:    4026
 k-point ** :   0.2667 0.1333 0.4000  plane waves:    4024
 k-point ** :   0.3333 0.1333 0.4000  plane waves:    4024
 k-point ** :   0.4000 0.1333 0.4000  plane waves:    4032
 k-point ** :   0.4667 0.1333 0.4000  plane waves:    4032
 k-point ** :  -0.4667 0.1333 0.4000  plane waves:    4024
 k-point ** :  -0.4000 0.1333 0.4000  plane waves:    4024
 k-point ** :  -0.3333 0.1333 0.4000  plane waves:    4026
 k-point ** :   0.2000 0.2000 0.4000  plane waves:    4031
 k-point ** :   0.2667 0.2000 0.4000  plane waves:    4035
 k-point ** :   0.3333 0.2000 0.4000  plane waves:    4033
 k-point ** :   0.4000 0.2000 0.4000  plane waves:    4022
 k-point ** :   0.4667 0.2000 0.4000  plane waves:    4033
 k-point ** :  -0.4667 0.2000 0.4000  plane waves:    4035
 k-point ** :   0.2667 0.2667 0.4000  plane waves:    4039
 k-point ** :   0.3333 0.2667 0.4000  plane waves:    4033
 k-point ** :   0.4000 0.2667 0.4000  plane waves:    4033
 k-point ** :   0.3333 0.3333 0.4000  plane waves:    4047

 maximum and minimum number of plane-waves per node :      4047     3971

 maximum number of plane-waves:      4047
 maximum index in each direction: 
   IXMAX=    7   IYMAX=    7   IZMAX=   22
   IXMIN=   -7   IYMIN=   -7   IZMIN=  -22


 serial   3D FFT for wavefunctions
 parallel 3D FFT for charge:
    minimum data exchange during FFTs selected (reduces bandwidth)


 total amount of memory used by VASP MPI-rank0   296043. kBytes
=======================================================================

   base      :      30000. kBytes
   nonl-proj :     208552. kBytes
   fftplans  :      10621. kBytes
   grid      :       7388. kBytes
   one-center:        108. kBytes
   wavefun   :      39374. kBytes
 
     INWAV:  cpu time    0.0000: real time    0.0001
 Broyden mixing: mesh for mixing (old mesh)
   NGX = 15   NGY = 15   NGZ = 45
  (NGX  = 56   NGY  = 56   NGZ  =180)
  gives a total of  10125 points

 initial charge density was supplied:
 charge density of overlapping atoms calculated
 number of electron      62.0000000 magnetization 
 keeping initial charge density in first step


--------------------------------------------------------------------------------------------------------


 Maximum index for augmentation-charges        18641 (set IRDMAX)


--------------------------------------------------------------------------------------------------------


 First call to EWALD:  gamma=   0.328
 Maximum number of real-space cells 4x 4x 1
 Maximum number of reciprocal cells 2x 2x 6

    FEWALD:  cpu time    0.0021: real time    0.0138


--------------------------------------- Iteration      1(   1)  ---------------------------------------


    POTLOK:  cpu time    0.0727: real time    0.1187
    SETDIJ:  cpu time    0.1491: real time    0.3042
     EDDAV:  cpu time   13.3132: real time   13.9747
 BZINTS: Fermi energy: 19.623979; 62.000000 electrons
         Band energy: 375.463707;  BLOECHL correction: -0.185864
       DOS:  cpu time    0.0755: real time    0.0757
    --------------------------------------------
      LOOP:  cpu time   13.6105: real time   14.4734

 eigenvalue-minimisations  :  9528
 total energy-change (2. order) : 0.5874477E+03  (-0.2743390E+04)
 number of electron      62.0000000 magnetization 
 augmentation part       62.0000000 magnetization 

 Free energy of the ion-electron system (eV)
  ---------------------------------------------------
  alpha Z        PSCENC =       146.42802824
  Ewald energy   TEWEN  =     -4073.84861287
  -Hartree energ DENC   =     -1913.88535575
  -exchange      EXHF   =         0.00000000
  -V(xc)+E(xc)   XCENC  =       189.71025673
  PAW double counting   =      5087.04612586    -5233.23548032
  entropy T*S    EENTRO =         0.00000000
  eigenvalues    EBANDS =       375.46370718
  atomic energy  EATOM  =      6009.76902234
  Solvation  Ediel_sol  =         0.00000000
  ---------------------------------------------------
  free energy    TOTEN  =       587.44769141 eV

  energy without entropy =      587.44769141  energy(sigma->0) =      587.44769141


--------------------------------------------------------------------------------------------------------




--------------------------------------- Iteration      1(   2)  ---------------------------------------


     EDDAV:  cpu time   14.7721: real time   18.3407
 BZINTS: Fermi energy:  8.103276; 62.000000 electrons
         Band energy:-153.519704;  BLOECHL correction: -0.061742
       DOS:  cpu time    0.0926: real time    0.0928
    --------------------------------------------
      LOOP:  cpu time   14.8647: real time   18.4335

 eigenvalue-minimisations  :  9648
 total energy-change (2. order) :-0.5289834E+03  (-0.5065382E+03)
 number of electron      62.0000000 magnetization 
 augmentation part       62.0000000 magnetization 

 Free energy of the ion-electron system (eV)
  ---------------------------------------------------
  alpha Z        PSCENC =       146.42802824
  Ewald energy   TEWEN  =     -4073.84861287
  -Hartree energ DENC   =     -1913.88535575
  -exchange      EXHF   =         0.00000000
  -V(xc)+E(xc)   XCENC  =       189.71025673
  PAW double counting   =      5087.04612586    -5233.23548032
  entropy T*S    EENTRO =         0.00000000
  eigenvalues    EBANDS =      -153.51970402
  atomic energy  EATOM  =      6009.76902234
  Solvation  Ediel_sol  =         0.00000000
  ---------------------------------------------------
  free energy    TOTEN  =        58.46428021 eV

  energy without entropy =       58.46428021  energy(sigma->0) =       58.46428021


--------------------------------------------------------------------------------------------------------




--------------------------------------- Iteration      1(   3)  ---------------------------------------


     EDDAV:  cpu time   17.8215: real time   20.1789
 BZINTS: Fermi energy:  3.727194; 62.000000 electrons
         Band energy:-235.507433;  BLOECHL correction:  0.000000
       DOS:  cpu time    0.0211: real time    0.0211
    --------------------------------------------
      LOOP:  cpu time   17.8425: real time   20.2001

 eigenvalue-minimisations  : 11760
 total energy-change (2. order) :-0.8198773E+02  (-0.7988638E+02)
 number of electron      62.0000000 magnetization 
 augmentation part       62.0000000 magnetization 

 Free energy of the ion-electron system (eV)
  ---------------------------------------------------
  alpha Z        PSCENC =       146.42802824
  Ewald energy   TEWEN  =     -4073.84861287
  -Hartree energ DENC   =     -1913.88535575
  -exchange      EXHF   =         0.00000000
  -V(xc)+E(xc)   XCENC  =       189.71025673
  PAW double counting   =      5087.04612586    -5233.23548032
  entropy T*S    EENTRO =         0.00000000
  eigenvalues    EBANDS =      -235.50743289
  atomic energy  EATOM  =      6009.76902234
  Solvation  Ediel_sol  =         0.00000000
  ---------------------------------------------------
  free energy    TOTEN  =       -23.52344866 eV

  energy without entropy =      -23.52344866  energy(sigma->0) =      -23.52344866


--------------------------------------------------------------------------------------------------------




--------------------------------------- Iteration      1(   4)  ---------------------------------------


     EDDAV:  cpu time   17.1630: real time   18.7620
 BZINTS: Fermi energy:  3.364064; 62.000000 electrons
         Band energy:-240.184437;  BLOECHL correction:  0.000000
       DOS:  cpu time    0.0154: real time    0.0154
    --------------------------------------------
      LOOP:  cpu time   17.1784: real time   18.7774

 eigenvalue-minimisations  : 11600
 total energy-change (2. order) :-0.4677004E+01  (-0.4650745E+01)
 number of electron      62.0000000 magnetization 
 augmentation part       62.0000000 magnetization 

 Free energy of the ion-electron system (eV)
  ---------------------------------------------------
  alpha Z        PSCENC =       146.42802824
  Ewald energy   TEWEN  =     -4073.84861287
  -Hartree energ DENC   =     -1913.88535575
  -exchange      EXHF   =         0.00000000
  -V(xc)+E(xc)   XCENC  =       189.71025673
  PAW double counting   =      5087.04612586    -5233.23548032
  entropy T*S    EENTRO =         0.00000000
  eigenvalues    EBANDS =      -240.18443716
  atomic energy  EATOM  =      6009.76902234
  Solvation  Ediel_sol  =         0.00000000
  ---------------------------------------------------
  free energy    TOTEN  =       -28.20045293 eV

  energy without entropy =      -28.20045293  energy(sigma->0) =      -28.20045293


--------------------------------------------------------------------------------------------------------




--------------------------------------- Iteration      1(   5)  ---------------------------------------


     EDDAV:  cpu time   18.8974: real time   20.5842
 BZINTS: Fermi energy:  3.349938; 62.000000 electrons
         Band energy:-240.390153;  BLOECHL correction:  0.000000
       DOS:  cpu time    0.0158: real time    0.0158
    CHARGE:  cpu time    0.4327: real time    0.4351
    MIXING:  cpu time    0.0445: real time    0.0446
    --------------------------------------------
      LOOP:  cpu time   19.3904: real time   21.0797

 eigenvalue-minimisations  : 14248
 total energy-change (2. order) :-0.2057157E+00  (-0.2056472E+00)
 number of electron      62.0000000 magnetization 
 augmentation part       18.7071778 magnetization 

 Broyden mixing:
  rms(total) = 0.13293E+01    rms(broyden)= 0.13293E+01
  rms(prec ) = 0.14499E+01
  weight for this iteration     100.00

 Free energy of the ion-electron system (eV)
  ---------------------------------------------------
  alpha Z        PSCENC =       146.42802824
  Ewald energy   TEWEN  =     -4073.84861287
  -Hartree energ DENC   =     -1913.88535575
  -exchange      EXHF   =         0.00000000
  -V(xc)+E(xc)   XCENC  =       189.71025673
  PAW double counting   =      5087.04612586    -5233.23548032
  entropy T*S    EENTRO =         0.00000000
  eigenvalues    EBANDS =      -240.39015285
  atomic energy  EATOM  =      6009.76902234
  Solvation  Ediel_sol  =         0.00000000
  ---------------------------------------------------
  free energy    TOTEN  =       -28.40616863 eV

  energy without entropy =      -28.40616863  energy(sigma->0) =      -28.40616863


--------------------------------------------------------------------------------------------------------




--------------------------------------- Iteration      1(   6)  ---------------------------------------


    POTLOK:  cpu time    0.0396: real time    0.7347
    SETDIJ:  cpu time    0.1488: real time    0.1491
     EDDAV:  cpu time   20.9023: real time   22.0860
 BZINTS: Fermi energy:  4.011926; 62.000000 electrons
         Band energy:-256.556159;  BLOECHL correction:  0.000000
       DOS:  cpu time    0.0264: real time    0.0265
    CHARGE:  cpu time    0.6228: real time    0.6343
    MIXING:  cpu time    0.0533: real time    0.0534
    --------------------------------------------
      LOOP:  cpu time   21.7933: real time   23.6841

 eigenvalue-minimisations  : 15184
 total energy-change (2. order) : 0.1747928E+01  (-0.3059834E+00)
 number of electron      62.0000000 magnetization 
 augmentation part       18.8923486 magnetization 

 Broyden mixing:
  rms(total) = 0.96767E+00    rms(broyden)= 0.96767E+00
  rms(prec ) = 0.99113E+00
  weight for this iteration     100.00

 eigenvalues of (default mixing * dielectric matrix)
  average eigenvalue GAMMA=   2.2400
  2.2400

 Free energy of the ion-electron system (eV)
  ---------------------------------------------------
  alpha Z        PSCENC =       146.42802824
  Ewald energy   TEWEN  =     -4073.84861287
  -Hartree energ DENC   =     -1901.37183742
  -exchange      EXHF   =         0.00000000
  -V(xc)+E(xc)   XCENC  =       190.19579940
  PAW double counting   =      6109.96273325    -6251.23721435
  entropy T*S    EENTRO =         0.00000000
  eigenvalues    EBANDS =      -256.55615905
  atomic energy  EATOM  =      6009.76902234
  Solvation  Ediel_sol  =         0.00000000
  ---------------------------------------------------
  free energy    TOTEN  =       -26.65824047 eV

  energy without entropy =      -26.65824047  energy(sigma->0) =      -26.65824047


--------------------------------------------------------------------------------------------------------




--------------------------------------- Iteration      1(   7)  ---------------------------------------


    POTLOK:  cpu time    0.0996: real time    0.1859
    SETDIJ:  cpu time    0.2761: real time    0.2769
     EDDAV:  cpu time   16.3664: real time   17.1629
 BZINTS: Fermi energy:  4.741736; 62.000000 electrons
         Band energy:-253.095632;  BLOECHL correction:  0.000000
       DOS:  cpu time    0.0147: real time    0.0148
    CHARGE:  cpu time    0.6655: real time    0.8251
    MIXING:  cpu time    0.0054: real time    0.0144
    --------------------------------------------
      LOOP:  cpu time   17.4277: real time   18.4799

 eigenvalue-minimisations  : 13464
 total energy-change (2. order) :-0.1769820E-01  (-0.2865582E+00)
 number of electron      62.0000000 magnetization 
 augmentation part       18.9259523 magnetization 

 Broyden mixing:
  rms(total) = 0.30124E+00    rms(broyden)= 0.30124E+00
  rms(prec ) = 0.31885E+00
  weight for this iteration     100.00

 eigenvalues of (default mixing * dielectric matrix)
  average eigenvalue GAMMA=   1.6431
  1.1662  2.1201

 Free energy of the ion-electron system (eV)
  ---------------------------------------------------
  alpha Z        PSCENC =       146.42802824
  Ewald energy   TEWEN  =     -4073.84861287
  -Hartree energ DENC   =     -1902.61196652
  -exchange      EXHF   =         0.00000000
  -V(xc)+E(xc)   XCENC  =       190.95853169
  PAW double counting   =      7730.23548730    -7874.51079724
  entropy T*S    EENTRO =         0.00000000
  eigenvalues    EBANDS =      -253.09563161
  atomic energy  EATOM  =      6009.76902234
  Solvation  Ediel_sol  =         0.00000000
  ---------------------------------------------------
  free energy    TOTEN  =       -26.67593867 eV

  energy without entropy =      -26.67593867  energy(sigma->0) =      -26.67593867


--------------------------------------------------------------------------------------------------------




--------------------------------------- Iteration      1(   8)  ---------------------------------------


    POTLOK:  cpu time    0.0640: real time    0.1271
    SETDIJ:  cpu time    0.0881: real time    0.1788
     EDDAV:  cpu time   17.3659: real time   18.3435
 BZINTS: Fermi energy:  4.475807; 62.000000 electrons
         Band energy:-252.446020;  BLOECHL correction:  0.000000
       DOS:  cpu time    0.0155: real time    0.0156
    CHARGE:  cpu time    0.4135: real time    0.4795
    MIXING:  cpu time    0.0020: real time    0.0020
    --------------------------------------------
      LOOP:  cpu time   17.9490: real time   19.1465

 eigenvalue-minimisations  : 13336
 total energy-change (2. order) : 0.3947021E-01  (-0.3755651E-01)
 number of electron      62.0000000 magnetization 
 augmentation part       18.9057363 magnetization 

 Broyden mixing:
  rms(total) = 0.20225E+00    rms(broyden)= 0.20225E+00
  rms(prec ) = 0.20510E+00
  weight for this iteration     100.00

 eigenvalues of (default mixing * dielectric matrix)
  average eigenvalue GAMMA=   1.4158
  2.0924  1.4607  0.6943

 Free energy of the ion-electron system (eV)
  ---------------------------------------------------
  alpha Z        PSCENC =       146.42802824
  Ewald energy   TEWEN  =     -4073.84861287
  -Hartree energ DENC   =     -1902.05112304
  -exchange      EXHF   =         0.00000000
  -V(xc)+E(xc)   XCENC  =       190.78463093
  PAW double counting   =      8122.18726514    -8267.45965898
  entropy T*S    EENTRO =         0.00000000
  eigenvalues    EBANDS =      -252.44602021
  atomic energy  EATOM  =      6009.76902234
  Solvation  Ediel_sol  =         0.00000000
  ---------------------------------------------------
  free energy    TOTEN  =       -26.63646846 eV

  energy without entropy =      -26.63646846  energy(sigma->0) =      -26.63646846


--------------------------------------------------------------------------------------------------------




--------------------------------------- Iteration      1(   9)  ---------------------------------------


    POTLOK:  cpu time    0.1080: real time    0.1226
    SETDIJ:  cpu time    0.1665: real time    0.1670
     EDDAV:  cpu time   14.8558: real time   16.4428
 BZINTS: Fermi energy:  4.538739; 62.000000 electrons
         Band energy:-252.933714;  BLOECHL correction:  0.000000
       DOS:  cpu time    0.0180: real time    0.0310
    CHARGE:  cpu time    0.5555: real time    0.6477
    MIXING:  cpu time    0.0264: real time    0.0265
    --------------------------------------------
      LOOP:  cpu time   15.7301: real time   17.4376

 eigenvalue-minimisations  : 12032
 total energy-change (2. order) :-0.2620324E-02  (-0.4502748E-02)
 number of electron      62.0000000 magnetization 
 augmentation part       18.9008694 magnetization 

 Broyden mixing:
  rms(total) = 0.85024E-01    rms(broyden)= 0.85024E-01
  rms(prec ) = 0.87739E-01
  weight for this iteration     100.00

 eigenvalues of (default mixing * dielectric matrix)
  average eigenvalue GAMMA=   1.4098
  2.1382  1.0724  1.2144  1.2144

 Free energy of the ion-electron system (eV)
  ---------------------------------------------------
  alpha Z        PSCENC =       146.42802824
  Ewald energy   TEWEN  =     -4073.84861287
  -Hartree energ DENC   =     -1901.39026991
  -exchange      EXHF   =         0.00000000
  -V(xc)+E(xc)   XCENC  =       190.77348299
  PAW double counting   =      8250.35429297    -8395.79131844
  entropy T*S    EENTRO =         0.00000000
  eigenvalues    EBANDS =      -252.93371410
  atomic energy  EATOM  =      6009.76902234
  Solvation  Ediel_sol  =         0.00000000
  ---------------------------------------------------
  free energy    TOTEN  =       -26.63908879 eV

  energy without entropy =      -26.63908879  energy(sigma->0) =      -26.63908879


--------------------------------------------------------------------------------------------------------




--------------------------------------- Iteration      1(  10)  ---------------------------------------


    POTLOK:  cpu time    0.0715: real time    0.0718
    SETDIJ:  cpu time    0.2115: real time    0.2120
     EDDAV:  cpu time   17.9832: real time   18.1286
 BZINTS: Fermi energy:  4.533525; 62.000000 electrons
         Band energy:-252.967517;  BLOECHL correction:  0.000000
       DOS:  cpu time    0.0304: real time    0.0305
    CHARGE:  cpu time    0.4231: real time    0.4411
    MIXING:  cpu time    0.0044: real time    0.0044
    --------------------------------------------
      LOOP:  cpu time   18.7241: real time   18.8883

 eigenvalue-minimisations  : 13168
 total energy-change (2. order) : 0.5695629E-03  (-0.5816816E-03)
 number of electron      62.0000000 magnetization 
 augmentation part       18.9026236 magnetization 

 Broyden mixing:
  rms(total) = 0.60030E-01    rms(broyden)= 0.60030E-01
  rms(prec ) = 0.60762E-01
  weight for this iteration     100.00

 eigenvalues of (default mixing * dielectric matrix)
  average eigenvalue GAMMA=   1.6238
  2.4788  2.4788  1.1719  1.1719  0.8177

 Free energy of the ion-electron system (eV)
  ---------------------------------------------------
  alpha Z        PSCENC =       146.42802824
  Ewald energy   TEWEN  =     -4073.84861287
  -Hartree energ DENC   =     -1901.39062921
  -exchange      EXHF   =         0.00000000
  -V(xc)+E(xc)   XCENC  =       190.81667730
  PAW double counting   =      8224.77567849    -8370.22116685
  entropy T*S    EENTRO =         0.00000000
  eigenvalues    EBANDS =      -252.96751666
  atomic energy  EATOM  =      6009.76902234
  Solvation  Ediel_sol  =         0.00000000
  ---------------------------------------------------
  free energy    TOTEN  =       -26.63851922 eV

  energy without entropy =      -26.63851922  energy(sigma->0) =      -26.63851922


--------------------------------------------------------------------------------------------------------




--------------------------------------- Iteration      1(  11)  ---------------------------------------


    POTLOK:  cpu time    0.0790: real time    0.1077
    SETDIJ:  cpu time    0.2169: real time    0.2174
     EDDAV:  cpu time   15.8147: real time   16.5130
 BZINTS: Fermi energy:  4.605639; 62.000000 electrons
         Band energy:-252.901543;  BLOECHL correction:  0.000000
       DOS:  cpu time    0.0258: real time    0.0259
    CHARGE:  cpu time    0.5632: real time    0.5664
    MIXING:  cpu time    0.0054: real time    0.0054
    --------------------------------------------
      LOOP:  cpu time   16.7052: real time   17.4358

 eigenvalue-minimisations  : 11616
 total energy-change (2. order) :-0.3781792E-03  (-0.1980103E-03)
 number of electron      62.0000000 magnetization 
 augmentation part       18.9024250 magnetization 

 Broyden mixing:
  rms(total) = 0.16039E-01    rms(broyden)= 0.16039E-01
  rms(prec ) = 0.16556E-01
  weight for this iteration     100.00

 eigenvalues of (default mixing * dielectric matrix)
  average eigenvalue GAMMA=   1.5084
  2.4917  2.4917  1.1250  1.1250  0.9085  0.9085

 Free energy of the ion-electron system (eV)
  ---------------------------------------------------
  alpha Z        PSCENC =       146.42802824
  Ewald energy   TEWEN  =     -4073.84861287
  -Hartree energ DENC   =     -1901.38626949
  -exchange      EXHF   =         0.00000000
  -V(xc)+E(xc)   XCENC  =       190.82713742
  PAW double counting   =      8198.81277757    -8344.33943737
  entropy T*S    EENTRO =         0.00000000
  eigenvalues    EBANDS =      -252.90154324
  atomic energy  EATOM  =      6009.76902234
  Solvation  Ediel_sol  =         0.00000000
  ---------------------------------------------------
  free energy    TOTEN  =       -26.63889740 eV

  energy without entropy =      -26.63889740  energy(sigma->0) =      -26.63889740


--------------------------------------------------------------------------------------------------------




--------------------------------------- Iteration      1(  12)  ---------------------------------------


    POTLOK:  cpu time    0.0554: real time    0.0557
    SETDIJ:  cpu time    0.1490: real time    0.1494
     EDDAV:  cpu time   18.1511: real time   18.7154
 BZINTS: Fermi energy:  4.601589; 62.000000 electrons
         Band energy:-252.873181;  BLOECHL correction:  0.000000
       DOS:  cpu time    0.0167: real time    0.0168
    CHARGE:  cpu time    0.4682: real time    0.4695
    MIXING:  cpu time    0.0131: real time    0.0131
    --------------------------------------------
      LOOP:  cpu time   18.8536: real time   19.4199

 eigenvalue-minimisations  : 13664
 total energy-change (2. order) : 0.3987817E-04  (-0.3442396E-04)
 number of electron      62.0000000 magnetization 
 augmentation part       18.9017442 magnetization 

 Broyden mixing:
  rms(total) = 0.11472E-01    rms(broyden)= 0.11472E-01
  rms(prec ) = 0.11630E-01
  weight for this iteration     100.00

 eigenvalues of (default mixing * dielectric matrix)
  average eigenvalue GAMMA=   1.4873
  2.6329  2.6329  1.0366  1.0366  1.1509  1.1509  0.7700

 Free energy of the ion-electron system (eV)
  ---------------------------------------------------
  alpha Z        PSCENC =       146.42802824
  Ewald energy   TEWEN  =     -4073.84861287
  -Hartree energ DENC   =     -1901.40103097
  -exchange      EXHF   =         0.00000000
  -V(xc)+E(xc)   XCENC  =       190.82418579
  PAW double counting   =      8195.74272479    -8341.27999391
  entropy T*S    EENTRO =         0.00000000
  eigenvalues    EBANDS =      -252.87318092
  atomic energy  EATOM  =      6009.76902234
  Solvation  Ediel_sol  =         0.00000000
  ---------------------------------------------------
  free energy    TOTEN  =       -26.63885753 eV

  energy without entropy =      -26.63885753  energy(sigma->0) =      -26.63885753


--------------------------------------------------------------------------------------------------------




--------------------------------------- Iteration      1(  13)  ---------------------------------------


    POTLOK:  cpu time    0.0845: real time    0.1158
    SETDIJ:  cpu time    0.1658: real time    0.2121
     EDDAV:  cpu time   15.2551: real time   15.8761
 BZINTS: Fermi energy:  4.598964; 62.000000 electrons
         Band energy:-252.840272;  BLOECHL correction:  0.000000
       DOS:  cpu time    0.0174: real time    0.0175
    CHARGE:  cpu time    0.4853: real time    0.4864
    MIXING:  cpu time    0.0152: real time    0.0152
    --------------------------------------------
      LOOP:  cpu time   16.0233: real time   16.7230

 eigenvalue-minimisations  : 11416
 total energy-change (2. order) :-0.7510188E-05  (-0.6397066E-05)
 number of electron      62.0000000 magnetization 
 augmentation part       18.9014327 magnetization 

 Broyden mixing:
  rms(total) = 0.44547E-02    rms(broyden)= 0.44546E-02
  rms(prec ) = 0.45650E-02
  weight for this iteration     100.00

 eigenvalues of (default mixing * dielectric matrix)
  average eigenvalue GAMMA=   1.5241
  2.9236  2.4627  1.3222  1.3222  1.1273  1.1273  0.8015  1.1064

 Free energy of the ion-electron system (eV)
  ---------------------------------------------------
  alpha Z        PSCENC =       146.42802824
  Ewald energy   TEWEN  =     -4073.84861287
  -Hartree energ DENC   =     -1901.43238024
  -exchange      EXHF   =         0.00000000
  -V(xc)+E(xc)   XCENC  =       190.82648526
  PAW double counting   =      8184.39935585    -8329.94049139
  entropy T*S    EENTRO =         0.00000000
  eigenvalues    EBANDS =      -252.84027222
  atomic energy  EATOM  =      6009.76902234
  Solvation  Ediel_sol  =         0.00000000
  ---------------------------------------------------
  free energy    TOTEN  =       -26.63886504 eV

  energy without entropy =      -26.63886504  energy(sigma->0) =      -26.63886504


--------------------------------------------------------------------------------------------------------




--------------------------------------- Iteration      1(  14)  ---------------------------------------


    POTLOK:  cpu time    0.0736: real time    0.0967
    SETDIJ:  cpu time    0.1980: real time    0.2075
     EDDAV:  cpu time   15.5194: real time   16.1673
 BZINTS: Fermi energy:  4.596685; 62.000000 electrons
         Band energy:-252.830641;  BLOECHL correction:  0.000000
       DOS:  cpu time    0.0169: real time    0.0169
    CHARGE:  cpu time    0.6947: real time    0.7074
    MIXING:  cpu time    0.0121: real time    0.0122
    --------------------------------------------
      LOOP:  cpu time   16.5147: real time   17.2080

 eigenvalue-minimisations  : 12296
 total energy-change (2. order) :-0.1471687E-05  (-0.1763498E-05)
 number of electron      62.0000000 magnetization 
 augmentation part       18.9012582 magnetization 

 Broyden mixing:
  rms(total) = 0.12290E-02    rms(broyden)= 0.12285E-02
  rms(prec ) = 0.12634E-02
  weight for this iteration     100.00

 eigenvalues of (default mixing * dielectric matrix)
  average eigenvalue GAMMA=   1.5183
  3.0119  2.1284  1.7325  1.7325  1.1472  1.1472  1.0278  0.9330  0.8038

 Free energy of the ion-electron system (eV)
  ---------------------------------------------------
  alpha Z        PSCENC =       146.42802824
  Ewald energy   TEWEN  =     -4073.84861287
  -Hartree energ DENC   =     -1901.43359901
  -exchange      EXHF   =         0.00000000
  -V(xc)+E(xc)   XCENC  =       190.82729231
  PAW double counting   =      8185.62413521    -8331.17449218
  entropy T*S    EENTRO =         0.00000000
  eigenvalues    EBANDS =      -252.83064055
  atomic energy  EATOM  =      6009.76902234
  Solvation  Ediel_sol  =         0.00000000
  ---------------------------------------------------
  free energy    TOTEN  =       -26.63886651 eV

  energy without entropy =      -26.63886651  energy(sigma->0) =      -26.63886651


--------------------------------------------------------------------------------------------------------




--------------------------------------- Iteration      1(  15)  ---------------------------------------


    POTLOK:  cpu time    0.0660: real time    0.0795
    SETDIJ:  cpu time    0.2646: real time    0.2661
     EDDAV:  cpu time   19.1143: real time   20.2406
 BZINTS: Fermi energy:  4.595649; 62.000000 electrons
         Band energy:-252.820878;  BLOECHL correction:  0.000000
       DOS:  cpu time    0.0171: real time    0.0171
    CHARGE:  cpu time    0.4074: real time    0.4084
    MIXING:  cpu time    0.0024: real time    0.0024
    --------------------------------------------
      LOOP:  cpu time   19.8718: real time   21.0142

 eigenvalue-minimisations  : 15232
 total energy-change (2. order) :-0.3693840E-06  (-0.3201608E-06)
 number of electron      62.0000000 magnetization 
 augmentation part       18.9011340 magnetization 

 Broyden mixing:
  rms(total) = 0.79945E-03    rms(broyden)= 0.79868E-03
  rms(prec ) = 0.81575E-03
  weight for this iteration     100.00

 eigenvalues of (default mixing * dielectric matrix)
  average eigenvalue GAMMA=   1.5251
  3.1852  2.3650  2.3650  1.2349  1.2349  1.1660  1.1660  0.8065  0.8638  0.8638

 Free energy of the ion-electron system (eV)
  ---------------------------------------------------
  alpha Z        PSCENC =       146.42802824
  Ewald energy   TEWEN  =     -4073.84861287
  -Hartree energ DENC   =     -1901.43956217
  -exchange      EXHF   =         0.00000000
  -V(xc)+E(xc)   XCENC  =       190.82731578
  PAW double counting   =      8185.82727793    -8331.38145800
  entropy T*S    EENTRO =         0.00000000
  eigenvalues    EBANDS =      -252.82087812
  atomic energy  EATOM  =      6009.76902234
  Solvation  Ediel_sol  =         0.00000000
  ---------------------------------------------------
  free energy    TOTEN  =       -26.63886688 eV

  energy without entropy =      -26.63886688  energy(sigma->0) =      -26.63886688


--------------------------------------------------------------------------------------------------------




--------------------------------------- Iteration      1(  16)  ---------------------------------------


    POTLOK:  cpu time    0.0317: real time    0.0318
    SETDIJ:  cpu time    0.1483: real time    0.1486
     EDDAV:  cpu time   16.7453: real time   18.6521
 BZINTS: Fermi energy:  4.539342; 62.000000 electrons
         Band energy:-252.818310;  BLOECHL correction:  0.000000
       DOS:  cpu time    0.0127: real time    0.0127
    --------------------------------------------
      LOOP:  cpu time   16.9378: real time   18.8452

 eigenvalue-minimisations  : 10304
 total energy-change (2. order) : 0.4489175E-07  (-0.5524386E-07)
 number of electron      62.0000000 magnetization 
 augmentation part       18.9011340 magnetization 

 Free energy of the ion-electron system (eV)
  ---------------------------------------------------
  alpha Z        PSCENC =       146.42802824
  Ewald energy   TEWEN  =     -4073.84861287
  -Hartree energ DENC   =     -1901.44244155
  -exchange      EXHF   =         0.00000000
  -V(xc)+E(xc)   XCENC  =       190.82738812
  PAW double counting   =      8184.74345134    -8330.29739213
  entropy T*S    EENTRO =         0.00000000
  eigenvalues    EBANDS =      -252.81831031
  atomic energy  EATOM  =      6009.76902234
  Solvation  Ediel_sol  =         0.00000000
  ---------------------------------------------------
  free energy    TOTEN  =       -26.63886683 eV

  energy without entropy =      -26.63886683  energy(sigma->0) =      -26.63886683


--------------------------------------------------------------------------------------------------------




 average (electrostatic) potential at core
  the test charge radii are     0.9698  1.0774  0.9521
  (the norm of the test charge is              1.0000)
       1 -87.6320       2 -87.1273       3 -86.8681       4 -85.5476       5 -97.3446
       6 -96.8956       7 -33.6256
 
 
 
 E-fermi :   4.5393     XC(G=0):  -9.4651     alpha+bet :-10.1608


 k-point     1 :       0.0000    0.0000    0.0000
  band No.  band energies     occupation 
      1     -10.9225      2.00000
      2     -10.7135      2.00000
      3     -10.7135      2.00000
      4     -10.5432      2.00000
      5     -10.5432      2.00000
      6     -10.2307      2.00000
      7     -10.2307      2.00000
      8     -10.2170      2.00000
      9     -10.0840      2.00000
     10     -10.0840      2.00000
     11      -9.6643      2.00000
     12      -9.0833      2.00000
     13      -8.1589      2.00000
     14      -7.3764      2.00000
     15      -2.0013      2.00000
     16      -1.5440      2.00000
     17      -1.5440      2.00000
     18      -1.3368      2.00000
     19      -1.0981      2.00000
     20      -1.0981      2.00000
     21       0.4962      2.00000
     22       1.4109      2.00000
     23       2.1626      2.00000
     24       2.1626      2.00000
     25       2.7470      2.00000
     26       2.7470      2.00000
     27       3.0410      2.00000
     28       3.0410      2.00000
     29       3.9979      2.00000
     30       4.5312      2.00000
     31       4.5312      2.00000
     32       4.8364      0.00000
     33       6.3922      0.00000
     34       7.2551      0.00000
     35       7.9444      0.00000
     36       9.0520      0.00000
     37       9.0962      0.00000
     38       9.0962      0.00000
     39       9.6620      0.00000
     40       9.6620      0.00000

 k-point     2 :       0.0667    0.0000    0.0000
  band No.  band energies     occupation 
      1     -10.9266      2.00000
      2     -10.7281      2.00000
      3     -10.7094      2.00000
      4     -10.5473      2.00000
      5     -10.5429      2.00000
      6     -10.2587      2.00000
      7     -10.2270      2.00000
      8     -10.2010      2.00000
      9     -10.0882      2.00000
     10     -10.0835      2.00000
     11      -9.6099      2.00000
     12      -9.0481      2.00000
     13      -8.1165      2.00000
     14      -7.3517      2.00000
     15      -1.9819      2.00000
     16      -1.5437      2.00000
     17      -1.5346      2.00000
     18      -1.3317      2.00000
     19      -1.1033      2.00000
     20      -1.0983      2.00000
     21       0.4514      2.00000
     22       1.4097      2.00000
     23       1.9317      2.00000
     24       2.1040      2.00000
     25       2.4867      2.00000
     26       2.6376      2.00000
     27       2.9159      2.00000
     28       3.0830      2.00000
     29       4.0142      2.00000
     30       4.2119      2.00000
     31       4.4691      2.00000
     32       5.1505      0.00000
     33       6.5254      0.00000
     34       7.4741      0.00000
     35       8.1171      0.00000
     36       8.7882      0.00000
     37       9.1720      0.00000
     38       9.2175      0.00000
     39       9.6194      0.00000
     40       9.7694      0.00000

 k-point     3 :       0.1333   -0.0000    0.0000
  band No.  band energies     occupation 
      1     -10.9439      2.00000
      2     -10.7587      2.00000
      3     -10.6982      2.00000
      4     -10.5564      2.00000
      5     -10.5415      2.00000
      6     -10.3174      2.00000
      7     -10.2173      2.00000
      8     -10.1760      2.00000
      9     -10.0968      2.00000
     10     -10.0813      2.00000
     11      -9.4607      2.00000
     12      -8.9434      2.00000
     13      -7.9995      2.00000
     14      -7.2814      2.00000
     15      -1.9330      2.00000
     16      -1.5399      2.00000
     17      -1.5078      2.00000
     18      -1.3174      2.00000
     19      -1.1180      2.00000
     20      -1.0983      2.00000
     21       0.2776      2.00000
     22       1.2690      2.00000
     23       1.5383      2.00000
     24       1.9451      2.00000
     25       1.9912      2.00000
     26       2.4133      2.00000
     27       2.5686      2.00000
     28       3.1213      2.00000
     29       3.5730      2.00000
     30       4.1245      2.00000
     31       4.3016      2.00000
     32       5.5991      0.00000
     33       6.7540      0.00000
     34       7.8600      0.00000
     35       8.3301      0.00000
     36       8.6602      0.00000
     37       9.2712      0.00000
     38       9.3640      0.00000
     39       9.7427      0.00000
     40      10.0684      0.00000

 k-point     4 :       0.2000    0.0000    0.0000
  band No.  band energies     occupation 
      1     -10.9810      2.00000
      2     -10.7823      2.00000
      3     -10.6828      2.00000
      4     -10.5665      2.00000
      5     -10.5383      2.00000
      6     -10.3920      2.00000
      7     -10.2048      2.00000
      8     -10.1498      2.00000
      9     -10.1033      2.00000
     10     -10.0761      2.00000
     11      -9.2425      2.00000
     12      -8.7756      2.00000
     13      -7.8337      2.00000
     14      -7.1767      2.00000
     15      -1.8860      2.00000
     16      -1.5261      2.00000
     17      -1.4680      2.00000
     18      -1.2985      2.00000
     19      -1.1400      2.00000
     20      -1.0971      2.00000
     21      -0.0982      2.00000
     22       0.7651      2.00000
     23       1.2676      2.00000
     24       1.6983      2.00000
     25       1.7272      2.00000
     26       2.1397      2.00000
     27       2.1569      2.00000
     28       3.0258      2.00000
     29       3.1131      2.00000
     30       4.0745      2.00000
     31       4.0968      2.00000
     32       5.9474      0.00000
     33       6.7203      0.00000
     34       7.8133      0.00000
     35       8.4805      0.00000
     36       8.9145      0.00000
     37       9.5803      0.00000
     38       9.5978      0.00000
     39      10.0601      0.00000
     40      10.4888      0.00000

 k-point     5 :       0.2667    0.0000    0.0000
  band No.  band energies     occupation 
      1     -11.0311      2.00000
      2     -10.7945      2.00000
      3     -10.6672      2.00000
      4     -10.5764      2.00000
      5     -10.5323      2.00000
      6     -10.4645      2.00000
      7     -10.1937      2.00000
      8     -10.1367      2.00000
      9     -10.0975      2.00000
     10     -10.0666      2.00000
     11      -8.9799      2.00000
     12      -8.5613      2.00000
     13      -7.6514      2.00000
     14      -7.0555      2.00000
     15      -1.8987      2.00000
     16      -1.4973      2.00000
     17      -1.4223      2.00000
     18      -1.2942      2.00000
     19      -1.1665      2.00000
     20      -1.0933      2.00000
     21      -0.6105      2.00000
     22       0.3077      2.00000
     23       0.8746      2.00000
     24       1.4549      2.00000
     25       1.4966      2.00000
     26       1.8573      2.00000
     27       1.9087      2.00000
     28       2.6722      2.00000
     29       3.0664      2.00000
     30       3.8393      2.00000
     31       4.0266      2.00000
     32       6.0678      0.00000
     33       6.4682      0.00000
     34       7.5337      0.00000
     35       8.6115      0.00000
     36       9.1053      0.00000
     37       9.7236      0.00000
     38       9.8555      0.00000
     39      10.3876      0.00000
     40      10.9020      0.00000

 k-point     6 :       0.3333   -0.0000    0.0000
  band No.  band energies     occupation 
      1     -11.0791      2.00000
      2     -10.8039      2.00000
      3     -10.6550      2.00000
      4     -10.5865      2.00000
      5     -10.5236      2.00000
      6     -10.5198      2.00000
      7     -10.1866      2.00000
      8     -10.1393      2.00000
      9     -10.0795      2.00000
     10     -10.0538      2.00000
     11      -8.7003      2.00000
     12      -8.3329      2.00000
     13      -7.4870      2.00000
     14      -6.9398      2.00000
     15      -2.0326      2.00000
     16      -1.4794      2.00000
     17      -1.3795      2.00000
     18      -1.3788      2.00000
     19      -1.1856      2.00000
     20      -1.0859      2.00000
     21      -1.0000      2.00000
     22       0.0191      2.00000
     23       0.5390      2.00000
     24       0.9733      2.00000
     25       1.2920      2.00000
     26       1.6977      2.00000
     27       1.7972      2.00000
     28       2.5370      2.00000
     29       2.9982      2.00000
     30       3.6393      2.00000
     31       3.9576      2.00000
     32       5.9079      0.00000
     33       6.3140      0.00000
     34       7.2251      0.00000
     35       8.7025      0.00000
     36       9.0147      0.00000
     37       9.7498      0.00000
     38       9.7660      0.00000
     39      10.6871      0.00000
     40      10.9069      0.00000

 k-point     7 :       0.4000    0.0000    0.0000
  band No.  band energies     occupation 
      1     -11.1152      2.00000
      2     -10.8141      2.00000
      3     -10.6474      2.00000
      4     -10.5972      2.00000
      5     -10.5508      2.00000
      6     -10.5147      2.00000
      7     -10.1831      2.00000
      8     -10.1444      2.00000
      9     -10.0638      2.00000
     10     -10.0414      2.00000
     11      -8.4449      2.00000
     12      -8.1394      2.00000
     13      -7.3716      2.00000
     14      -6.8498      2.00000
     15      -2.2564      2.00000
     16      -1.7039      2.00000
     17      -1.3995      2.00000
     18      -1.3479      2.00000
     19      -1.2161      2.00000
     20      -1.0761      2.00000
     21      -1.0252      2.00000
     22      -0.1665      2.00000
     23       0.3014      2.00000
     24       0.6087      2.00000
     25       1.1410      2.00000
     26       1.5454      2.00000
     27       1.7181      2.00000
     28       2.5151      2.00000
     29       2.9296      2.00000
     30       3.5013      2.00000
     31       3.9284      2.00000
     32       5.6800      0.00000
     33       6.2365      0.00000
     34       6.9726      0.00000
     35       8.7471      0.00000
     36       8.8892      0.00000
     37       9.5525      0.00000
     38       9.7511      0.00000
     39      10.7206      0.00000
     40      10.7904      0.00000

 k-point     8 :       0.4667    0.0000    0.0000
  band No.  band energies     occupation 
      1     -11.1344      2.00000
      2     -10.8217      2.00000
      3     -10.6440      2.00000
      4     -10.6050      2.00000
      5     -10.5620      2.00000
      6     -10.5089      2.00000
      7     -10.1819      2.00000
      8     -10.1475      2.00000
      9     -10.0554      2.00000
     10     -10.0339      2.00000
     11      -8.2786      2.00000
     12      -8.0325      2.00000
     13      -7.3181      2.00000
     14      -6.8004      2.00000
     15      -2.4251      2.00000
     16      -1.8912      2.00000
     17      -1.3843      2.00000
     18      -1.3317      2.00000
     19      -1.2350      2.00000
     20      -1.0687      2.00000
     21      -0.9248      2.00000
     22      -0.3229      2.00000
     23       0.0972      2.00000
     24       0.5425      2.00000
     25       1.0612      2.00000
     26       1.4657      2.00000
     27       1.6329      2.00000
     28       2.5230      2.00000
     29       2.8859      2.00000
     30       3.4332      2.00000
     31       3.9315      2.00000
     32       5.5441      0.00000
     33       6.1901      0.00000
     34       6.8295      0.00000
     35       8.7219      0.00000
     36       8.8886      0.00000
     37       9.3960      0.00000
     38       9.7301      0.00000
     39      10.6392      0.00000
     40      10.7085      0.00000

 k-point     9 :       0.0667    0.0667    0.0000
  band No.  band energies     occupation 
      1     -10.9374      2.00000
      2     -10.7503      2.00000
      3     -10.7019      2.00000
      4     -10.5536      2.00000
      5     -10.5422      2.00000
      6     -10.2971      2.00000
      7     -10.2252      2.00000
      8     -10.1807      2.00000
      9     -10.0944      2.00000
     10     -10.0822      2.00000
     11      -9.5083      2.00000
     12      -8.9779      2.00000
     13      -8.0369      2.00000
     14      -7.3042      2.00000
     15      -1.9476      2.00000
     16      -1.5416      2.00000
     17      -1.5165      2.00000
     18      -1.3219      2.00000
     19      -1.1131      2.00000
     20      -1.0985      2.00000
     21       0.3431      2.00000
     22       1.3565      2.00000
     23       1.6236      2.00000
     24       1.9706      2.00000
     25       2.2019      2.00000
     26       2.3050      2.00000
     27       2.8790      2.00000
     28       3.0078      2.00000
     29       3.7433      2.00000
     30       4.1235      2.00000
     31       4.3380      2.00000
     32       5.4888      0.00000
     33       6.7126      0.00000
     34       7.8116      0.00000
     35       8.2753      0.00000
     36       8.6792      0.00000
     37       9.1106      0.00000
     38       9.4083      0.00000
     39       9.6271      0.00000
     40      10.0075      0.00000

 k-point    10 :       0.1333    0.0667    0.0000
  band No.  band energies     occupation 
      1     -10.9652      2.00000
      2     -10.7755      2.00000
      3     -10.6889      2.00000
      4     -10.5623      2.00000
      5     -10.5404      2.00000
      6     -10.3598      2.00000
      7     -10.2204      2.00000
      8     -10.1533      2.00000
      9     -10.1021      2.00000
     10     -10.0785      2.00000
     11      -9.3251      2.00000
     12      -8.8405      2.00000
     13      -7.8964      2.00000
     14      -7.2166      2.00000
     15      -1.8986      2.00000
     16      -1.5325      2.00000
     17      -1.4831      2.00000
     18      -1.3051      2.00000
     19      -1.1309      2.00000
     20      -1.0982      2.00000
     21       0.0696      2.00000
     22       0.9798      2.00000
     23       1.3905      2.00000
     24       1.7399      2.00000
     25       1.8144      2.00000
     26       1.9907      2.00000
     27       2.6038      2.00000
     28       2.9712      2.00000
     29       3.2627      2.00000
     30       4.0713      2.00000
     31       4.1525      2.00000
     32       5.8738      0.00000
     33       6.8254      0.00000
     34       7.9931      0.00000
     35       8.4622      0.00000
     36       8.7540      0.00000
     37       9.2147      0.00000
     38       9.6662      0.00000
     39       9.8137      0.00000
     40      10.4382      0.00000

 k-point    11 :       0.2000    0.0667    0.0000
  band No.  band energies     occupation 
      1     -11.0097      2.00000
      2     -10.7904      2.00000
      3     -10.6741      2.00000
      4     -10.5713      2.00000
      5     -10.5364      2.00000
      6     -10.4306      2.00000
      7     -10.2122      2.00000
      8     -10.1330      2.00000
      9     -10.1044      2.00000
     10     -10.0704      2.00000
     11      -9.0843      2.00000
     12      -8.6468      2.00000
     13      -7.7240      2.00000
     14      -7.1036      2.00000
     15      -1.8783      2.00000
     16      -1.5094      2.00000
     17      -1.4402      2.00000
     18      -1.2909      2.00000
     19      -1.1549      2.00000
     20      -1.0957      2.00000
     21      -0.3804      2.00000
     22       0.5065      2.00000
     23       1.0250      2.00000
     24       1.4704      2.00000
     25       1.5987      2.00000
     26       1.7692      2.00000
     27       2.2301      2.00000
     28       2.7751      2.00000
     29       3.0229      2.00000
     30       3.8282      2.00000
     31       4.0828      2.00000
     32       6.1190      0.00000
     33       6.6642      0.00000
     34       7.7936      0.00000
     35       8.6519      0.00000
     36       9.0740      0.00000
     37       9.4610      0.00000
     38       9.8797      0.00000
     39      10.1190      0.00000
     40      10.6802      0.00000

 k-point    12 :       0.2667    0.0667    0.0000
  band No.  band energies     occupation 
      1     -11.0586      2.00000
      2     -10.7989      2.00000
      3     -10.6611      2.00000
      4     -10.5802      2.00000
      5     -10.5299      2.00000
      6     -10.4925      2.00000
      7     -10.2047      2.00000
      8     -10.1321      2.00000
      9     -10.0911      2.00000
     10     -10.0583      2.00000
     11      -8.8104      2.00000
     12      -8.4213      2.00000
     13      -7.5531      2.00000
     14      -6.9851      2.00000
     15      -1.9491      2.00000
     16      -1.4755      2.00000
     17      -1.3971      2.00000
     18      -1.3182      2.00000
     19      -1.1778      2.00000
     20      -1.0893      2.00000
     21      -0.8538      2.00000
     22       0.1504      2.00000
     23       0.6647      2.00000
     24       1.1067      2.00000
     25       1.3249      2.00000
     26       1.6434      2.00000
     27       1.9683      2.00000
     28       2.5687      2.00000
     29       2.9612      2.00000
     30       3.5899      2.00000
     31       4.0084      2.00000
     32       6.1111      0.00000
     33       6.4559      0.00000
     34       7.4969      0.00000
     35       8.7724      0.00000
     36       9.2138      0.00000
     37       9.5500      0.00000
     38       9.8969      0.00000
     39      10.5397      0.00000
     40      10.7486      0.00000

 k-point    13 :       0.3333    0.0667    0.0000
  band No.  band energies     occupation 
      1     -11.0999      2.00000
      2     -10.8076      2.00000
      3     -10.6521      2.00000
      4     -10.5894      2.00000
      5     -10.5365      2.00000
      6     -10.5197      2.00000
      7     -10.2000      2.00000
      8     -10.1379      2.00000
      9     -10.0738      2.00000
     10     -10.0465      2.00000
     11      -8.5364      2.00000
     12      -8.2052      2.00000
     13      -7.4171      2.00000
     14      -6.8825      2.00000
     15      -2.1357      2.00000
     16      -1.5661      2.00000
     17      -1.4020      2.00000
     18      -1.3571      2.00000
     19      -1.1987      2.00000
     20      -1.0867      2.00000
     21      -1.0410      2.00000
     22      -0.0649      2.00000
     23       0.4082      2.00000
     24       0.6956      2.00000
     25       1.1174      2.00000
     26       1.4766      2.00000
     27       1.8367      2.00000
     28       2.4841      2.00000
     29       2.9160      2.00000
     30       3.4083      2.00000
     31       3.9547      2.00000
     32       5.9024      0.00000
     33       6.3644      0.00000
     34       7.2180      0.00000
     35       8.8440      0.00000
     36       9.1140      0.00000
     37       9.5264      0.00000
     38       9.7739      0.00000
     39      10.7820      0.00000
     40      10.8380      0.00000

 k-point    14 :       0.4000    0.0667    0.0000
  band No.  band energies     occupation 
      1     -11.1269      2.00000
      2     -10.8160      2.00000
      3     -10.6473      2.00000
      4     -10.5985      2.00000
      5     -10.5557      2.00000
      6     -10.5134      2.00000
      7     -10.1978      2.00000
      8     -10.1426      2.00000
      9     -10.0602      2.00000
     10     -10.0391      2.00000
     11      -8.3142      2.00000
     12      -8.0521      2.00000
     13      -7.3389      2.00000
     14      -6.8129      2.00000
     15      -2.3426      2.00000
     16      -1.8122      2.00000
     17      -1.3835      2.00000
     18      -1.3360      2.00000
     19      -1.2252      2.00000
     20      -1.0780      2.00000
     21      -0.9668      2.00000
     22      -0.2372      2.00000
     23       0.1809      2.00000
     24       0.5182      2.00000
     25       0.9839      2.00000
     26       1.3649      2.00000
     27       1.7255      2.00000
     28       2.4447      2.00000
     29       2.8946      2.00000
     30       3.2990      2.00000
     31       3.9402      2.00000
     32       5.7217      0.00000
     33       6.3061      0.00000
     34       7.0220      0.00000
     35       8.9019      0.00000
     36       9.0137      0.00000
     37       9.4437      0.00000
     38       9.6397      0.00000
     39      10.6997      0.00000
     40      10.8458      0.00000

 k-point    15 :       0.4667    0.0667    0.0000
  band No.  band energies     occupation 
      1     -11.1362      2.00000
      2     -10.8196      2.00000
      3     -10.6458      2.00000
      4     -10.6024      2.00000
      5     -10.5607      2.00000
      6     -10.5107      2.00000
      7     -10.1973      2.00000
      8     -10.1443      2.00000
      9     -10.0549      2.00000
     10     -10.0369      2.00000
     11      -8.2221      2.00000
     12      -8.0004      2.00000
     13      -7.3160      2.00000
     14      -6.7881      2.00000
     15      -2.4308      2.00000
     16      -1.9085      2.00000
     17      -1.3760      2.00000
     18      -1.3287      2.00000
     19      -1.2339      2.00000
     20      -1.0727      2.00000
     21      -0.8927      2.00000
     22      -0.3369      2.00000
     23       0.0643      2.00000
     24       0.5120      2.00000
     25       0.9374      2.00000
     26       1.3332      2.00000
     27       1.6685      2.00000
     28       2.4299      2.00000
     29       2.8905      2.00000
     30       3.2629      2.00000
     31       3.9421      2.00000
     32       5.6550      0.00000
     33       6.2827      0.00000
     34       6.9515      0.00000
     35       8.9086      0.00000
     36       9.0167      0.00000
     37       9.3667      0.00000
     38       9.5974      0.00000
     39      10.6484      0.00000
     40      10.8298      0.00000

 k-point    16 :       0.1333    0.1333    0.0000
  band No.  band energies     occupation 
      1     -11.0015      2.00000
      2     -10.7887      2.00000
      3     -10.6772      2.00000
      4     -10.5686      2.00000
      5     -10.5386      2.00000
      6     -10.4123      2.00000
      7     -10.2287      2.00000
      8     -10.1284      2.00000
      9     -10.1082      2.00000
     10     -10.0714      2.00000
     11      -9.1192      2.00000
     12      -8.6750      2.00000
     13      -7.7508      2.00000
     14      -7.1206      2.00000
     15      -1.8737      2.00000
     16      -1.5131      2.00000
     17      -1.4464      2.00000
     18      -1.2917      2.00000
     19      -1.1499      2.00000
     20      -1.0968      2.00000
     21      -0.2803      2.00000
     22       0.6168      2.00000
     23       1.0697      2.00000
     24       1.4557      2.00000
     25       1.5526      2.00000
     26       1.7427      2.00000
     27       2.5299      2.00000
     28       2.6717      2.00000
     29       3.0158      2.00000
     30       3.7587      2.00000
     31       4.1132      2.00000
     32       6.1596      0.00000
     33       6.8064      0.00000
     34       8.0360      0.00000
     35       8.7917      0.00000
     36       8.8332      0.00000
     37       9.2688      0.00000
     38       9.8611      0.00000
     39      10.0702      0.00000
     40      10.6651      0.00000

 k-point    17 :       0.2000    0.1333    0.0000
  band No.  band energies     occupation 
      1     -11.0452      2.00000
      2     -10.7960      2.00000
      3     -10.6662      2.00000
      4     -10.5746      2.00000
      5     -10.5354      2.00000
      6     -10.4659      2.00000
      7     -10.2335      2.00000
      8     -10.1193      2.00000
      9     -10.1050      2.00000
     10     -10.0597      2.00000
     11      -8.8646      2.00000
     12      -8.4646      2.00000
     13      -7.5931      2.00000
     14      -7.0102      2.00000
     15      -1.9057      2.00000
     16      -1.4789      2.00000
     17      -1.4060      2.00000
     18      -1.2968      2.00000
     19      -1.1715      2.00000
     20      -1.0912      2.00000
     21      -0.7046      2.00000
     22       0.2890      2.00000
     23       0.6985      2.00000
     24       1.1267      2.00000
     25       1.2130      2.00000
     26       1.6444      2.00000
     27       2.2001      2.00000
     28       2.5359      2.00000
     29       2.8876      2.00000
     30       3.4226      2.00000
     31       4.0593      2.00000
     32       6.3093      0.00000
     33       6.6705      0.00000
     34       7.9062      0.00000
     35       8.8895      0.00000
     36       9.1481      0.00000
     37       9.5303      0.00000
     38       9.9005      0.00000
     39      10.3406      0.00000
     40      10.6446      0.00000

 k-point    18 :       0.2667    0.1333    0.0000
  band No.  band energies     occupation 
      1     -11.0861      2.00000
      2     -10.8013      2.00000
      3     -10.6582      2.00000
      4     -10.5804      2.00000
      5     -10.5320      2.00000
      6     -10.5083      2.00000
      7     -10.2358      2.00000
      8     -10.1253      2.00000
      9     -10.0891      2.00000
     10     -10.0490      2.00000
     11      -8.5886      2.00000
     12      -8.2423      2.00000
     13      -7.4563      2.00000
     14      -6.9052      2.00000
     15      -2.0332      2.00000
     16      -1.4738      2.00000
     17      -1.3911      2.00000
     18      -1.3456      2.00000
     19      -1.1862      2.00000
     20      -1.0848      2.00000
     21      -1.0136      2.00000
     22       0.0519      2.00000
     23       0.4325      2.00000
     24       0.7514      2.00000
     25       0.9522      2.00000
     26       1.4600      2.00000
     27       1.9513      2.00000
     28       2.4077      2.00000
     29       2.8641      2.00000
     30       3.1554      2.00000
     31       3.9981      2.00000
     32       6.2391      0.00000
     33       6.5689      0.00000
     34       7.6735      0.00000
     35       8.9434      0.00000
     36       9.3056      0.00000
     37       9.6973      0.00000
     38       9.8817      0.00000
     39      10.5951      0.00000
     40      10.7382      0.00000

 k-point    19 :       0.3333    0.1333    0.0000
  band No.  band energies     occupation 
      1     -11.1168      2.00000
      2     -10.8070      2.00000
      3     -10.6535      2.00000
      4     -10.5865      2.00000
      5     -10.5420      2.00000
      6     -10.5204      2.00000
      7     -10.2372      2.00000
      8     -10.1309      2.00000
      9     -10.0727      2.00000
     10     -10.0439      2.00000
     11      -8.3317      2.00000
     12      -8.0569      2.00000
     13      -7.3681      2.00000
     14      -6.8233      2.00000
     15      -2.2217      2.00000
     16      -1.6951      2.00000
     17      -1.3757      2.00000
     18      -1.3360      2.00000
     19      -1.2085      2.00000
     20      -1.0992      2.00000
     21      -0.9947      2.00000
     22      -0.1204      2.00000
     23       0.2316      2.00000
     24       0.4619      2.00000
     25       0.7986      2.00000
     26       1.2773      2.00000
     27       1.7900      2.00000
     28       2.2831      2.00000
     29       2.8888      2.00000
     30       2.9858      2.00000
     31       3.9584      2.00000
     32       6.0768      0.00000
     33       6.5198      0.00000
     34       7.4637      0.00000
     35       8.9513      0.00000
     36       9.3885      0.00000
     37       9.5789      0.00000
     38       9.8204      0.00000
     39      10.6579      0.00000
     40      10.9082      0.00000

 k-point    20 :       0.4000    0.1333    0.0000
  band No.  band energies     occupation 
      1     -11.1331      2.00000
      2     -10.8111      2.00000
      3     -10.6514      2.00000
      4     -10.5915      2.00000
      5     -10.5518      2.00000
      6     -10.5182      2.00000
      7     -10.2379      2.00000
      8     -10.1341      2.00000
      9     -10.0592      2.00000
     10     -10.0455      2.00000
     11      -8.1589      2.00000
     12      -7.9590      2.00000
     13      -7.3334      2.00000
     14      -6.7780      2.00000
     15      -2.3606      2.00000
     16      -1.8682      2.00000
     17      -1.3614      2.00000
     18      -1.3266      2.00000
     19      -1.2237      2.00000
     20      -1.0873      2.00000
     21      -0.8899      2.00000
     22      -0.2695      2.00000
     23       0.0617      2.00000
     24       0.3678      2.00000
     25       0.7370      2.00000
     26       1.1963      2.00000
     27       1.6960      2.00000
     28       2.1905      2.00000
     29       2.8874      2.00000
     30       2.9342      2.00000
     31       3.9459      2.00000
     32       5.9738      0.00000
     33       6.4859      0.00000
     34       7.3449      0.00000
     35       8.9784      0.00000
     36       9.4007      0.00000
     37       9.4849      0.00000
     38       9.7273      0.00000
     39      10.5867      0.00000
     40      10.9153      0.00000

 k-point    21 :       0.2000    0.2000    0.0000
  band No.  band energies     occupation 
      1     -11.0804      2.00000
      2     -10.7990      2.00000
      3     -10.6609      2.00000
      4     -10.5761      2.00000
      5     -10.5355      2.00000
      6     -10.4950      2.00000
      7     -10.2561      2.00000
      8     -10.1140      2.00000
      9     -10.1014      2.00000
     10     -10.0495      2.00000
     11      -8.6055      2.00000
     12      -8.2536      2.00000
     13      -7.4718      2.00000
     14      -6.9133      2.00000
     15      -1.9936      2.00000
     16      -1.4545      2.00000
     17      -1.3877      2.00000
     18      -1.3286      2.00000
     19      -1.1831      2.00000
     20      -1.0811      2.00000
     21      -0.9791      2.00000
     22       0.1139      2.00000
     23       0.4044      2.00000
     24       0.7964      2.00000
     25       0.8304      2.00000
     26       1.4877      2.00000
     27       2.0213      2.00000
     28       2.3466      2.00000
     29       2.8579      2.00000
     30       3.0012      2.00000
     31       4.0172      2.00000
     32       6.4022      0.00000
     33       6.6697      0.00000
     34       7.9884      0.00000
     35       8.8308      0.00000
     36       9.4211      0.00000
     37       9.6958      0.00000
     38      10.0998      0.00000
     39      10.5534      0.00000
     40      10.7481      0.00000

 k-point    22 :       0.2667    0.2000    0.0000
  band No.  band energies     occupation 
      1     -11.1094      2.00000
      2     -10.8007      2.00000
      3     -10.6582      2.00000
      4     -10.5767      2.00000
      5     -10.5370      2.00000
      6     -10.5151      2.00000
      7     -10.2745      2.00000
      8     -10.1162      2.00000
      9     -10.0889      2.00000
     10     -10.0455      2.00000
     11      -8.3389      2.00000
     12      -8.0535      2.00000
     13      -7.3896      2.00000
     14      -6.8291      2.00000
     15      -2.1310      2.00000
     16      -1.6019      2.00000
     17      -1.3702      2.00000
     18      -1.3265      2.00000
     19      -1.1914      2.00000
     20      -1.1164      2.00000
     21      -1.0072      2.00000
     22      -0.0410      2.00000
     23       0.1720      2.00000
     24       0.4427      2.00000
     25       0.6650      2.00000
     26       1.3248      2.00000
     27       1.7649      2.00000
     28       2.1934      2.00000
     29       2.6827      2.00000
     30       2.9089      2.00000
     31       3.9688      2.00000
     32       6.3712      0.00000
     33       6.6661      0.00000
     34       7.9174      0.00000
     35       8.7672      0.00000
     36       9.5824      0.00000
     37       9.9401      0.00000
     38      10.2333      0.00000
     39      10.5655      0.00000
     40      10.9131      0.00000

 k-point    23 :       0.3333    0.2000    0.0000
  band No.  band energies     occupation 
      1     -11.1284      2.00000
      2     -10.8020      2.00000
      3     -10.6572      2.00000
      4     -10.5779      2.00000
      5     -10.5390      2.00000
      6     -10.5250      2.00000
      7     -10.2860      2.00000
      8     -10.1189      2.00000
      9     -10.0736      2.00000
     10     -10.0491      2.00000
     11      -8.1137      2.00000
     12      -7.9154      2.00000
     13      -7.3597      2.00000
     14      -6.7714      2.00000
     15      -2.2598      2.00000
     16      -1.8011      2.00000
     17      -1.3481      2.00000
     18      -1.3219      2.00000
     19      -1.2066      2.00000
     20      -1.1094      2.00000
     21      -0.9047      2.00000
     22      -0.1750      2.00000
     23      -0.0080      2.00000
     24       0.1706      2.00000
     25       0.6514      2.00000
     26       1.2077      2.00000
     27       1.6040      2.00000
     28       2.0183      2.00000
     29       2.5132      2.00000
     30       2.9681      2.00000
     31       3.9341      2.00000
     32       6.3086      0.00000
     33       6.6564      0.00000
     34       7.8135      0.00000
     35       8.7166      0.00000
     36       9.7063      0.00000
     37       9.9412      0.00000
     38      10.2364      0.00000
     39      10.4628      0.00000
     40      11.0263      0.00000

 k-point    24 :       0.4000    0.2000    0.0000
  band No.  band energies     occupation 
      1     -11.1349      2.00000
      2     -10.8025      2.00000
      3     -10.6570      2.00000
      4     -10.5788      2.00000
      5     -10.5397      2.00000
      6     -10.5277      2.00000
      7     -10.2899      2.00000
      8     -10.1200      2.00000
      9     -10.0600      2.00000
     10     -10.0585      2.00000
     11      -8.0131      2.00000
     12      -7.8738      2.00000
     13      -7.3585      2.00000
     14      -6.7507      2.00000
     15      -2.3126      2.00000
     16      -1.8808      2.00000
     17      -1.3430      2.00000
     18      -1.3196      2.00000
     19      -1.2128      2.00000
     20      -1.1007      2.00000
     21      -0.8250      2.00000
     22      -0.2735      2.00000
     23      -0.0522      2.00000
     24       0.0675      2.00000
     25       0.6591      2.00000
     26       1.1579      2.00000
     27       1.5788      2.00000
     28       1.9239      2.00000
     29       2.4602      2.00000
     30       2.9933      2.00000
     31       3.9223      2.00000
     32       6.2826      0.00000
     33       6.6493      0.00000
     34       7.7713      0.00000
     35       8.6986      0.00000
     36       9.7641      0.00000
     37       9.8938      0.00000
     38      10.2305      0.00000
     39      10.3925      0.00000
     40      11.0005      0.00000

 k-point    25 :       0.2667    0.2667    0.0000
  band No.  band energies     occupation 
      1     -11.1261      2.00000
      2     -10.7981      2.00000
      3     -10.6596      2.00000
      4     -10.5707      2.00000
      5     -10.5399      2.00000
      6     -10.5197      2.00000
      7     -10.3096      2.00000
      8     -10.1070      2.00000
      9     -10.0859      2.00000
     10     -10.0496      2.00000
     11      -8.0986      2.00000
     12      -7.8946      2.00000
     13      -7.3731      2.00000
     14      -6.7691      2.00000
     15      -2.2100      2.00000
     16      -1.7659      2.00000
     17      -1.3436      2.00000
     18      -1.3184      2.00000
     19      -1.1915      2.00000
     20      -1.1256      2.00000
     21      -0.9137      2.00000
     22      -0.1677      2.00000
     23      -0.0379      2.00000
     24       0.0902      2.00000
     25       0.6493      2.00000
     26       1.2902      2.00000
     27       1.4748      2.00000
     28       1.9851      2.00000
     29       2.3462      2.00000
     30       2.9811      2.00000
     31       3.9260      2.00000
     32       6.4547      0.00000
     33       6.7207      0.00000
     34       8.0307      0.00000
     35       8.6092      0.00000
     36       9.7902      0.00000
     37      10.1529      0.00000
     38      10.3758      0.00000
     39      10.7327      0.00000
     40      11.1458      0.00000

 k-point    26 :       0.3333    0.2667    0.0000
  band No.  band energies     occupation 
      1     -11.1348      2.00000
      2     -10.7959      2.00000
      3     -10.6609      2.00000
      4     -10.5658      2.00000
      5     -10.5408      2.00000
      6     -10.5224      2.00000
      7     -10.3309      2.00000
      8     -10.1031      2.00000
      9     -10.0764      2.00000
     10     -10.0590      2.00000
     11      -7.9286      2.00000
     12      -7.8075      2.00000
     13      -7.3944      2.00000
     14      -6.7357      2.00000
     15      -2.2494      2.00000
     16      -1.8764      2.00000
     17      -1.3344      2.00000
     18      -1.3172      2.00000
     19      -1.1951      2.00000
     20      -1.1146      2.00000
     21      -0.7988      2.00000
     22      -0.2892      2.00000
     23      -0.1510      2.00000
     24      -0.1195      2.00000
     25       0.7168      2.00000
     26       1.1840      2.00000
     27       1.3997      2.00000
     28       1.7931      2.00000
     29       2.1905      2.00000
     30       3.0321      2.00000
     31       3.8939      2.00000
     32       6.4926      0.00000
     33       6.7437      0.00000
     34       8.0440      0.00000
     35       8.5198      0.00000
     36       9.9123      0.00000
     37      10.1902      0.00000
     38      10.3017      0.00000
     39      10.8858      0.00000
     40      11.4245      0.00000

 k-point    27 :       0.3333    0.3333    0.0000
  band No.  band energies     occupation 
      1     -11.1368      2.00000
      2     -10.7931      2.00000
      3     -10.6624      2.00000
      4     -10.5527      2.00000
      5     -10.5527      2.00000
      6     -10.5160      2.00000
      7     -10.3505      2.00000
      8     -10.0891      2.00000
      9     -10.0841      2.00000
     10     -10.0644      2.00000
     11      -7.8526      2.00000
     12      -7.7582      2.00000
     13      -7.4266      2.00000
     14      -6.7229      2.00000
     15      -2.2330      2.00000
     16      -1.9077      2.00000
     17      -1.3327      2.00000
     18      -1.3159      2.00000
     19      -1.1888      2.00000
     20      -1.1149      2.00000
     21      -0.7464      2.00000
     22      -0.3271      2.00000
     23      -0.2949      2.00000
     24      -0.1586      2.00000
     25       0.8441      2.00000
     26       1.0315      2.00000
     27       1.4087      2.00000
     28       1.6695      2.00000
     29       2.0846      2.00000
     30       3.0573      2.00000
     31       3.8740      2.00000
     32       6.5634      0.00000
     33       6.7732      0.00000
     34       8.1128      0.00000
     35       8.4424      0.00000
     36       9.9221      0.00000
     37      10.2866      0.00000
     38      10.3419      0.00000
     39      11.1988      0.00000
     40      11.6436      0.00000

 k-point    28 :       0.0000    0.0000    0.2000
  band No.  band energies     occupation 
      1     -10.9225      2.00000
      2     -10.7135      2.00000
      3     -10.7135      2.00000
      4     -10.5432      2.00000
      5     -10.5432      2.00000
      6     -10.2307      2.00000
      7     -10.2307      2.00000
      8     -10.2169      2.00000
      9     -10.0840      2.00000
     10     -10.0840      2.00000
     11      -9.6608      2.00000
     12      -9.0945      2.00000
     13      -8.1398      2.00000
     14      -7.3895      2.00000
     15      -2.0212      2.00000
     16      -1.5440      2.00000
     17      -1.5440      2.00000
     18      -1.2510      2.00000
     19      -1.0981      2.00000
     20      -1.0981      2.00000
     21       0.2542      2.00000
     22       1.6934      2.00000
     23       2.1619      2.00000
     24       2.1619      2.00000
     25       2.7510      2.00000
     26       2.7510      2.00000
     27       3.0373      2.00000
     28       3.0373      2.00000
     29       3.7040      2.00000
     30       4.5317      2.00000
     31       4.5317      2.00000
     32       5.0975      0.00000
     33       6.3332      0.00000
     34       7.2693      0.00000
     35       7.8916      0.00000
     36       9.0657      0.00000
     37       9.0945      0.00000
     38       9.0945      0.00000
     39       9.6697      0.00000
     40       9.6697      0.00000

 k-point    29 :       0.0667    0.0000    0.2000
  band No.  band energies     occupation 
      1     -10.9267      2.00000
      2     -10.7280      2.00000
      3     -10.7094      2.00000
      4     -10.5473      2.00000
      5     -10.5429      2.00000
      6     -10.2586      2.00000
      7     -10.2271      2.00000
      8     -10.2009      2.00000
      9     -10.0882      2.00000
     10     -10.0835      2.00000
     11      -9.6063      2.00000
     12      -9.0592      2.00000
     13      -8.0976      2.00000
     14      -7.3646      2.00000
     15      -2.0039      2.00000
     16      -1.5438      2.00000
     17      -1.5346      2.00000
     18      -1.2457      2.00000
     19      -1.1028      2.00000
     20      -1.0983      2.00000
     21       0.2344      2.00000
     22       1.6327      2.00000
     23       1.9599      2.00000
     24       2.1020      2.00000
     25       2.4705      2.00000
     26       2.6449      2.00000
     27       2.9018      2.00000
     28       3.0764      2.00000
     29       3.7951      2.00000
     30       4.2650      2.00000
     31       4.4706      2.00000
     32       5.3147      0.00000
     33       6.4671      0.00000
     34       7.4907      0.00000
     35       8.0659      0.00000
     36       8.7899      0.00000
     37       9.1696      0.00000
     38       9.2119      0.00000
     39       9.6468      0.00000
     40       9.7759      0.00000

 k-point    30 :       0.1333   -0.0000    0.2000
  band No.  band energies     occupation 
      1     -10.9439      2.00000
      2     -10.7586      2.00000
      3     -10.6982      2.00000
      4     -10.5564      2.00000
      5     -10.5416      2.00000
      6     -10.3174      2.00000
      7     -10.2173      2.00000
      8     -10.1760      2.00000
      9     -10.0968      2.00000
     10     -10.0813      2.00000
     11      -9.4569      2.00000
     12      -8.9541      2.00000
     13      -7.9818      2.00000
     14      -7.2936      2.00000
     15      -1.9606      2.00000
     16      -1.5407      2.00000
     17      -1.5078      2.00000
     18      -1.2312      2.00000
     19      -1.1152      2.00000
     20      -1.0983      2.00000
     21       0.1319      2.00000
     22       1.2349      2.00000
     23       1.7715      2.00000
     24       1.9399      2.00000
     25       1.9433      2.00000
     26       2.4179      2.00000
     27       2.5220      2.00000
     28       3.1168      2.00000
     29       3.5810      2.00000
     30       4.0683      2.00000
     31       4.3036      2.00000
     32       5.6798      0.00000
     33       6.7044      0.00000
     34       7.8848      0.00000
     35       8.2483      0.00000
     36       8.7194      0.00000
     37       9.2245      0.00000
     38       9.3554      0.00000
     39       9.7795      0.00000
     40      10.0816      0.00000

 k-point    31 :       0.2000    0.0000    0.2000
  band No.  band energies     occupation 
      1     -10.9811      2.00000
      2     -10.7823      2.00000
      3     -10.6828      2.00000
      4     -10.5664      2.00000
      5     -10.5383      2.00000
      6     -10.3921      2.00000
      7     -10.2048      2.00000
      8     -10.1498      2.00000
      9     -10.1033      2.00000
     10     -10.0761      2.00000
     11      -9.2390      2.00000
     12      -8.7849      2.00000
     13      -7.8185      2.00000
     14      -7.1870      2.00000
     15      -1.9186      2.00000
     16      -1.5285      2.00000
     17      -1.4680      2.00000
     18      -1.2165      2.00000
     19      -1.1328      2.00000
     20      -1.0971      2.00000
     21      -0.1584      2.00000
     22       0.6778      2.00000
     23       1.3855      2.00000
     24       1.7267      2.00000
     25       1.7370      2.00000
     26       2.0481      2.00000
     27       2.1578      2.00000
     28       3.0777      2.00000
     29       3.1119      2.00000
     30       4.0730      2.00000
     31       4.0755      2.00000
     32       5.9723      0.00000
     33       6.7055      0.00000
     34       7.7658      0.00000
     35       8.5373      0.00000
     36       8.9002      0.00000
     37       9.5552      0.00000
     38       9.5670      0.00000
     39      10.0650      0.00000
     40      10.5127      0.00000

 k-point    32 :       0.2667    0.0000    0.2000
  band No.  band energies     occupation 
      1     -11.0311      2.00000
      2     -10.7945      2.00000
      3     -10.6672      2.00000
      4     -10.5764      2.00000
      5     -10.5323      2.00000
      6     -10.4645      2.00000
      7     -10.1937      2.00000
      8     -10.1367      2.00000
      9     -10.0975      2.00000
     10     -10.0666      2.00000
     11      -8.9771      2.00000
     12      -8.5684      2.00000
     13      -7.6403      2.00000
     14      -7.0627      2.00000
     15      -1.9283      2.00000
     16      -1.4999      2.00000
     17      -1.4223      2.00000
     18      -1.2315      2.00000
     19      -1.1550      2.00000
     20      -1.0933      2.00000
     21      -0.6278      2.00000
     22       0.2340      2.00000
     23       0.9504      2.00000
     24       1.4534      2.00000
     25       1.4981      2.00000
     26       1.7907      2.00000
     27       1.9058      2.00000
     28       2.7227      2.00000
     29       3.0699      2.00000
     30       3.8371      2.00000
     31       4.0199      2.00000
     32       6.0451      0.00000
     33       6.5125      0.00000
     34       7.5221      0.00000
     35       8.6439      0.00000
     36       9.0072      0.00000
     37       9.7151      0.00000
     38       9.9396      0.00000
     39      10.2644      0.00000
     40      11.0215      0.00000

 k-point    33 :       0.3333   -0.0000    0.2000
  band No.  band energies     occupation 
      1     -11.0791      2.00000
      2     -10.8039      2.00000
      3     -10.6550      2.00000
      4     -10.5864      2.00000
      5     -10.5236      2.00000
      6     -10.5199      2.00000
      7     -10.1865      2.00000
      8     -10.1393      2.00000
      9     -10.0795      2.00000
     10     -10.0538      2.00000
     11      -8.6984      2.00000
     12      -8.3374      2.00000
     13      -7.4807      2.00000
     14      -6.9436      2.00000
     15      -2.0485      2.00000
     16      -1.4580      2.00000
     17      -1.3797      2.00000
     18      -1.3796      2.00000
     19      -1.1786      2.00000
     20      -1.0859      2.00000
     21      -0.9927      2.00000
     22      -0.0403      2.00000
     23       0.6205      2.00000
     24       0.9321      2.00000
     25       1.2954      2.00000
     26       1.6913      2.00000
     27       1.7944      2.00000
     28       2.5454      2.00000
     29       3.0080      2.00000
     30       3.6319      2.00000
     31       3.9341      2.00000
     32       5.8687      0.00000
     33       6.4000      0.00000
     34       7.2809      0.00000
     35       8.6366      0.00000
     36       8.8923      0.00000
     37       9.7705      0.00000
     38       9.8624      0.00000
     39      10.4744      0.00000
     40      11.1874      0.00000

 k-point    34 :       0.4000    0.0000    0.2000
  band No.  band energies     occupation 
      1     -11.1152      2.00000
      2     -10.8141      2.00000
      3     -10.6474      2.00000
      4     -10.5971      2.00000
      5     -10.5508      2.00000
      6     -10.5147      2.00000
      7     -10.1831      2.00000
      8     -10.1444      2.00000
      9     -10.0638      2.00000
     10     -10.0414      2.00000
     11      -8.4437      2.00000
     12      -8.1418      2.00000
     13      -7.3687      2.00000
     14      -6.8514      2.00000
     15      -2.2586      2.00000
     16      -1.6965      2.00000
     17      -1.4001      2.00000
     18      -1.3479      2.00000
     19      -1.2177      2.00000
     20      -1.0761      2.00000
     21      -1.0186      2.00000
     22      -0.2159      2.00000
     23       0.3143      2.00000
     24       0.6420      2.00000
     25       1.1462      2.00000
     26       1.5358      2.00000
     27       1.7550      2.00000
     28       2.4848      2.00000
     29       2.9462      2.00000
     30       3.4880      2.00000
     31       3.8651      2.00000
     32       5.6708      0.00000
     33       6.3283      0.00000
     34       7.0608      0.00000
     35       8.6242      0.00000
     36       8.7530      0.00000
     37       9.6716      0.00000
     38       9.7692      0.00000
     39      10.4673      0.00000
     40      11.0550      0.00000

 k-point    35 :       0.4667    0.0000    0.2000
  band No.  band energies     occupation 
      1     -11.1343      2.00000
      2     -10.8217      2.00000
      3     -10.6440      2.00000
      4     -10.6049      2.00000
      5     -10.5621      2.00000
      6     -10.5089      2.00000
      7     -10.1819      2.00000
      8     -10.1475      2.00000
      9     -10.0554      2.00000
     10     -10.0339      2.00000
     11      -8.2772      2.00000
     12      -8.0349      2.00000
     13      -7.3161      2.00000
     14      -6.8016      2.00000
     15      -2.4205      2.00000
     16      -1.8924      2.00000
     17      -1.3761      2.00000
     18      -1.3317      2.00000
     19      -1.2397      2.00000
     20      -1.0687      2.00000
     21      -0.9222      2.00000
     22      -0.3615      2.00000
     23       0.0413      2.00000
     24       0.6572      2.00000
     25       1.0678      2.00000
     26       1.4537      2.00000
     27       1.6604      2.00000
     28       2.4785      2.00000
     29       2.9080      2.00000
     30       3.4150      2.00000
     31       3.8467      2.00000
     32       5.5824      0.00000
     33       6.2679      0.00000
     34       6.8967      0.00000
     35       8.5998      0.00000
     36       8.7429      0.00000
     37       9.5209      0.00000
     38       9.7583      0.00000
     39      10.4223      0.00000
     40      10.9531      0.00000

 k-point    36 :      -0.4667    0.0000    0.2000
  band No.  band energies     occupation 
      1     -11.1343      2.00000
      2     -10.8217      2.00000
      3     -10.6440      2.00000
      4     -10.6050      2.00000
      5     -10.5620      2.00000
      6     -10.5089      2.00000
      7     -10.1819      2.00000
      8     -10.1475      2.00000
      9     -10.0554      2.00000
     10     -10.0339      2.00000
     11      -8.2758      2.00000
     12      -8.0371      2.00000
     13      -7.3150      2.00000
     14      -6.8017      2.00000
     15      -2.4196      2.00000
     16      -1.8968      2.00000
     17      -1.3726      2.00000
     18      -1.3317      2.00000
     19      -1.2403      2.00000
     20      -1.0688      2.00000
     21      -0.9264      2.00000
     22      -0.3466      2.00000
     23       0.0159      2.00000
     24       0.7058      2.00000
     25       1.0688      2.00000
     26       1.4519      2.00000
     27       1.6066      2.00000
     28       2.4806      2.00000
     29       2.9112      2.00000
     30       3.4123      2.00000
     31       3.8756      2.00000
     32       5.6273      0.00000
     33       6.2223      0.00000
     34       6.8452      0.00000
     35       8.6026      0.00000
     36       8.8204      0.00000
     37       9.4876      0.00000
     38       9.7636      0.00000
     39      10.4344      0.00000
     40      10.9430      0.00000

 k-point    37 :      -0.4000    0.0000    0.2000
  band No.  band energies     occupation 
      1     -11.1152      2.00000
      2     -10.8142      2.00000
      3     -10.6474      2.00000
      4     -10.5972      2.00000
      5     -10.5507      2.00000
      6     -10.5147      2.00000
      7     -10.1831      2.00000
      8     -10.1444      2.00000
      9     -10.0638      2.00000
     10     -10.0414      2.00000
     11      -8.4405      2.00000
     12      -8.1474      2.00000
     13      -7.3648      2.00000
     14      -6.8528      2.00000
     15      -2.2552      2.00000
     16      -1.7169      2.00000
     17      -1.3776      2.00000
     18      -1.3479      2.00000
     19      -1.2229      2.00000
     20      -1.0761      2.00000
     21      -1.0350      2.00000
     22      -0.1508      2.00000
     23       0.2133      2.00000
     24       0.7571      2.00000
     25       1.1491      2.00000
     26       1.5306      2.00000
     27       1.6347      2.00000
     28       2.5085      2.00000
     29       2.9554      2.00000
     30       3.4805      2.00000
     31       3.9244      2.00000
     32       5.7809      0.00000
     33       6.2082      0.00000
     34       6.9380      0.00000
     35       8.6582      0.00000
     36       8.9175      0.00000
     37       9.5994      0.00000
     38       9.7851      0.00000
     39      10.5145      0.00000
     40      10.9907      0.00000

 k-point    38 :      -0.3333    0.0000    0.2000
  band No.  band energies     occupation 
      1     -11.0791      2.00000
      2     -10.8039      2.00000
      3     -10.6550      2.00000
      4     -10.5865      2.00000
      5     -10.5236      2.00000
      6     -10.5198      2.00000
      7     -10.1865      2.00000
      8     -10.1393      2.00000
      9     -10.0795      2.00000
     10     -10.0538      2.00000
     11      -8.6950      2.00000
     12      -8.3439      2.00000
     13      -7.4748      2.00000
     14      -6.9464      2.00000
     15      -2.0420      2.00000
     16      -1.5067      2.00000
     17      -1.3796      2.00000
     18      -1.3418      2.00000
     19      -1.1856      2.00000
     20      -1.0859      2.00000
     21      -1.0020      2.00000
     22       0.0874      2.00000
     23       0.4742      2.00000
     24       0.9934      2.00000
     25       1.3001      2.00000
     26       1.6827      2.00000
     27       1.7103      2.00000
     28       2.5949      2.00000
     29       3.0212      2.00000
     30       3.6216      2.00000
     31       3.9753      2.00000
     32       5.9680      0.00000
     33       6.2722      0.00000
     34       7.1619      0.00000
     35       8.7069      0.00000
     36       9.0354      0.00000
     37       9.7949      0.00000
     38       9.7992      0.00000
     39      10.5790      0.00000
     40      10.9304      0.00000

 k-point    39 :      -0.2667    0.0000    0.2000
  band No.  band energies     occupation 
      1     -11.0310      2.00000
      2     -10.7946      2.00000
      3     -10.6672      2.00000
      4     -10.5765      2.00000
      5     -10.5323      2.00000
      6     -10.4645      2.00000
      7     -10.1937      2.00000
      8     -10.1367      2.00000
      9     -10.0975      2.00000
     10     -10.0666      2.00000
     11      -8.9743      2.00000
     12      -8.5736      2.00000
     13      -7.6351      2.00000
     14      -7.0654      2.00000
     15      -1.9223      2.00000
     16      -1.5036      2.00000
     17      -1.4223      2.00000
     18      -1.2598      2.00000
     19      -1.1545      2.00000
     20      -1.0934      2.00000
     21      -0.6106      2.00000
     22       0.4003      2.00000
     23       0.7473      2.00000
     24       1.3730      2.00000
     25       1.5041      2.00000
     26       1.8942      2.00000
     27       1.8960      2.00000
     28       2.7624      2.00000
     29       3.0847      2.00000
     30       3.8267      2.00000
     31       4.0205      2.00000
     32       6.0368      0.00000
     33       6.4835      0.00000
     34       7.4829      0.00000
     35       8.6413      0.00000
     36       9.1159      0.00000
     37       9.7415      0.00000
     38       9.8560      0.00000
     39      10.4180      0.00000
     40      10.9091      0.00000

 k-point    40 :      -0.2000    0.0000    0.2000
  band No.  band energies     occupation 
      1     -10.9810      2.00000
      2     -10.7823      2.00000
      3     -10.6828      2.00000
      4     -10.5665      2.00000
      5     -10.5383      2.00000
      6     -10.3921      2.00000
      7     -10.2048      2.00000
      8     -10.1498      2.00000
      9     -10.1033      2.00000
     10     -10.0761      2.00000
     11      -9.2374      2.00000
     12      -8.7879      2.00000
     13      -7.8155      2.00000
     14      -7.1886      2.00000
     15      -1.9158      2.00000
     16      -1.5282      2.00000
     17      -1.4680      2.00000
     18      -1.2346      2.00000
     19      -1.1307      2.00000
     20      -1.0972      2.00000
     21      -0.1332      2.00000
     22       0.8350      2.00000
     23       1.0810      2.00000
     24       1.7258      2.00000
     25       1.7334      2.00000
     26       2.1439      2.00000
     27       2.2123      2.00000
     28       3.0999      2.00000
     29       3.1265      2.00000
     30       4.0396      2.00000
     31       4.0669      2.00000
     32       5.9324      0.00000
     33       6.7251      0.00000
     34       7.8227      0.00000
     35       8.4462      0.00000
     36       8.9452      0.00000
     37       9.4586      0.00000
     38       9.5847      0.00000
     39      10.2623      0.00000
     40      10.4958      0.00000

 k-point    41 :      -0.1333    0.0000    0.2000
  band No.  band energies     occupation 
      1     -10.9439      2.00000
      2     -10.7586      2.00000
      3     -10.6982      2.00000
      4     -10.5564      2.00000
      5     -10.5416      2.00000
      6     -10.3175      2.00000
      7     -10.2173      2.00000
      8     -10.1759      2.00000
      9     -10.0968      2.00000
     10     -10.0813      2.00000
     11      -9.4563      2.00000
     12      -8.9552      2.00000
     13      -7.9807      2.00000
     14      -7.2941      2.00000
     15      -1.9598      2.00000
     16      -1.5405      2.00000
     17      -1.5079      2.00000
     18      -1.2367      2.00000
     19      -1.1145      2.00000
     20      -1.0983      2.00000
     21       0.1477      2.00000
     22       1.3236      2.00000
     23       1.5194      2.00000
     24       1.9491      2.00000
     25       2.0534      2.00000
     26       2.4031      2.00000
     27       2.5780      2.00000
     28       3.1305      2.00000
     29       3.6161      2.00000
     30       4.0120      2.00000
     31       4.2980      2.00000
     32       5.6663      0.00000
     33       6.7212      0.00000
     34       7.8782      0.00000
     35       8.3691      0.00000
     36       8.5801      0.00000
     37       9.1661      0.00000
     38       9.3598      0.00000
     39       9.8995      0.00000
     40      10.0844      0.00000

 k-point    42 :      -0.0667    0.0000    0.2000
  band No.  band energies     occupation 
      1     -10.9267      2.00000
      2     -10.7280      2.00000
      3     -10.7094      2.00000
      4     -10.5473      2.00000
      5     -10.5429      2.00000
      6     -10.2587      2.00000
      7     -10.2271      2.00000
      8     -10.2009      2.00000
      9     -10.0882      2.00000
     10     -10.0835      2.00000
     11      -9.6062      2.00000
     12      -9.0594      2.00000
     13      -8.0975      2.00000
     14      -7.3647      2.00000
     15      -2.0038      2.00000
     16      -1.5438      2.00000
     17      -1.5346      2.00000
     18      -1.2464      2.00000
     19      -1.1027      2.00000
     20      -1.0983      2.00000
     21       0.2369      2.00000
     22       1.6385      2.00000
     23       1.9361      2.00000
     24       2.1055      2.00000
     25       2.4824      2.00000
     26       2.6324      2.00000
     27       2.9116      2.00000
     28       3.0877      2.00000
     29       3.8000      2.00000
     30       4.2511      2.00000
     31       4.4680      2.00000
     32       5.3157      0.00000
     33       6.4703      0.00000
     34       7.4868      0.00000
     35       8.0818      0.00000
     36       8.7661      0.00000
     37       9.1673      0.00000
     38       9.2122      0.00000
     39       9.6591      0.00000
     40       9.7831      0.00000

 k-point    43 :       0.0667    0.0667    0.2000
  band No.  band energies     occupation 
      1     -10.9374      2.00000
      2     -10.7503      2.00000
      3     -10.7019      2.00000
      4     -10.5536      2.00000
      5     -10.5422      2.00000
      6     -10.2971      2.00000
      7     -10.2252      2.00000
      8     -10.1807      2.00000
      9     -10.0944      2.00000
     10     -10.0822      2.00000
     11      -9.5044      2.00000
     12      -8.9892      2.00000
     13      -8.0184      2.00000
     14      -7.3168      2.00000
     15      -1.9733      2.00000
     16      -1.5421      2.00000
     17      -1.5165      2.00000
     18      -1.2375      2.00000
     19      -1.1109      2.00000
     20      -1.0985      2.00000
     21       0.1795      2.00000
     22       1.4192      2.00000
     23       1.7050      2.00000
     24       1.9883      2.00000
     25       2.1955      2.00000
     26       2.2983      2.00000
     27       2.8848      2.00000
     28       2.9915      2.00000
     29       3.7363      2.00000
     30       4.0473      2.00000
     31       4.3388      2.00000
     32       5.5841      0.00000
     33       6.6653      0.00000
     34       7.8315      0.00000
     35       8.2559      0.00000
     36       8.6587      0.00000
     37       9.0490      0.00000
     38       9.3975      0.00000
     39       9.7228      0.00000
     40      10.0176      0.00000

 k-point    44 :       0.1333    0.0667    0.2000
  band No.  band energies     occupation 
      1     -10.9652      2.00000
      2     -10.7755      2.00000
      3     -10.6889      2.00000
      4     -10.5623      2.00000
      5     -10.5404      2.00000
      6     -10.3598      2.00000
      7     -10.2204      2.00000
      8     -10.1533      2.00000
      9     -10.1021      2.00000
     10     -10.0785      2.00000
     11      -9.3212      2.00000
     12      -8.8509      2.00000
     13      -7.8796      2.00000
     14      -7.2280      2.00000
     15      -1.9296      2.00000
     16      -1.5342      2.00000
     17      -1.4831      2.00000
     18      -1.2234      2.00000
     19      -1.1251      2.00000
     20      -1.0981      2.00000
     21      -0.0153      2.00000
     22       0.9196      2.00000
     23       1.5106      2.00000
     24       1.6976      2.00000
     25       1.8336      2.00000
     26       2.0005      2.00000
     27       2.5781      2.00000
     28       2.9737      2.00000
     29       3.3031      2.00000
     30       4.0541      2.00000
     31       4.1309      2.00000
     32       5.9045      0.00000
     33       6.7999      0.00000
     34       7.9829      0.00000
     35       8.4426      0.00000
     36       8.8290      0.00000
     37       9.0840      0.00000
     38       9.6555      0.00000
     39       9.9247      0.00000
     40      10.4320      0.00000

 k-point    45 :       0.2000    0.0667    0.2000
  band No.  band energies     occupation 
      1     -11.0097      2.00000
      2     -10.7904      2.00000
      3     -10.6741      2.00000
      4     -10.5713      2.00000
      5     -10.5364      2.00000
      6     -10.4306      2.00000
      7     -10.2122      2.00000
      8     -10.1330      2.00000
      9     -10.1044      2.00000
     10     -10.0704      2.00000
     11      -9.0808      2.00000
     12      -8.6554      2.00000
     13      -7.7106      2.00000
     14      -7.1124      2.00000
     15      -1.9103      2.00000
     16      -1.5130      2.00000
     17      -1.4402      2.00000
     18      -1.2205      2.00000
     19      -1.1441      2.00000
     20      -1.0955      2.00000
     21      -0.4095      2.00000
     22       0.4362      2.00000
     23       1.1164      2.00000
     24       1.4134      2.00000
     25       1.6294      2.00000
     26       1.7392      2.00000
     27       2.2095      2.00000
     28       2.8080      2.00000
     29       3.0419      2.00000
     30       3.8355      2.00000
     31       4.0725      2.00000
     32       6.1064      0.00000
     33       6.6810      0.00000
     34       7.7576      0.00000
     35       8.7140      0.00000
     36       9.0738      0.00000
     37       9.3186      0.00000
     38       9.9308      0.00000
     39      10.1798      0.00000
     40      10.6870      0.00000

 k-point    46 :       0.2667    0.0667    0.2000
  band No.  band energies     occupation 
      1     -11.0586      2.00000
      2     -10.7989      2.00000
      3     -10.6611      2.00000
      4     -10.5802      2.00000
      5     -10.5299      2.00000
      6     -10.4926      2.00000
      7     -10.2047      2.00000
      8     -10.1321      2.00000
      9     -10.0911      2.00000
     10     -10.0583      2.00000
     11      -8.8078      2.00000
     12      -8.4275      2.00000
     13      -7.5443      2.00000
     14      -6.9905      2.00000
     15      -1.9720      2.00000
     16      -1.4739      2.00000
     17      -1.3962      2.00000
     18      -1.2826      2.00000
     19      -1.1659      2.00000
     20      -1.0889      2.00000
     21      -0.8595      2.00000
     22       0.0906      2.00000
     23       0.7366      2.00000
     24       1.0996      2.00000
     25       1.3280      2.00000
     26       1.5690      2.00000
     27       1.9977      2.00000
     28       2.5682      2.00000
     29       2.9780      2.00000
     30       3.5940      2.00000
     31       4.0036      2.00000
     32       6.0672      0.00000
     33       6.5237      0.00000
     34       7.5136      0.00000
     35       8.7596      0.00000
     36       9.1180      0.00000
     37       9.5078      0.00000
     38      10.0099      0.00000
     39      10.4484      0.00000
     40      10.8066      0.00000

 k-point    47 :       0.3333    0.0667    0.2000
  band No.  band energies     occupation 
      1     -11.0999      2.00000
      2     -10.8076      2.00000
      3     -10.6521      2.00000
      4     -10.5894      2.00000
      5     -10.5366      2.00000
      6     -10.5197      2.00000
      7     -10.2000      2.00000
      8     -10.1379      2.00000
      9     -10.0738      2.00000
     10     -10.0465      2.00000
     11      -8.5348      2.00000
     12      -8.2088      2.00000
     13      -7.4129      2.00000
     14      -6.8849      2.00000
     15      -2.1440      2.00000
     16      -1.5467      2.00000
     17      -1.4121      2.00000
     18      -1.3593      2.00000
     19      -1.1957      2.00000
     20      -1.0849      2.00000
     21      -1.0319      2.00000
     22      -0.1168      2.00000
     23       0.4419      2.00000
     24       0.7270      2.00000
     25       1.1158      2.00000
     26       1.4225      2.00000
     27       1.9019      2.00000
     28       2.4443      2.00000
     29       2.9266      2.00000
     30       3.4052      2.00000
     31       3.9258      2.00000
     32       5.8734      0.00000
     33       6.4498      0.00000
     34       7.2816      0.00000
     35       8.7455      0.00000
     36       8.9890      0.00000
     37       9.5567      0.00000
     38       9.8506      0.00000
     39      10.5727      0.00000
     40      11.0996      0.00000

 k-point    48 :       0.4000    0.0667    0.2000
  band No.  band energies     occupation 
      1     -11.1269      2.00000
      2     -10.8160      2.00000
      3     -10.6473      2.00000
      4     -10.5984      2.00000
      5     -10.5557      2.00000
      6     -10.5134      2.00000
      7     -10.1978      2.00000
      8     -10.1426      2.00000
      9     -10.0602      2.00000
     10     -10.0391      2.00000
     11      -8.3130      2.00000
     12      -8.0543      2.00000
     13      -7.3368      2.00000
     14      -6.8141      2.00000
     15      -2.3408      2.00000
     16      -1.8106      2.00000
     17      -1.3784      2.00000
     18      -1.3371      2.00000
     19      -1.2276      2.00000
     20      -1.0779      2.00000
     21      -0.9634      2.00000
     22      -0.2777      2.00000
     23       0.1426      2.00000
     24       0.6105      2.00000
     25       0.9840      2.00000
     26       1.3391      2.00000
     27       1.7866      2.00000
     28       2.4067      2.00000
     29       2.8919      2.00000
     30       3.2877      2.00000
     31       3.8812      2.00000
     32       5.7306      0.00000
     33       6.3912      0.00000
     34       7.0882      0.00000
     35       8.7548      0.00000
     36       8.8873      0.00000
     37       9.5498      0.00000
     38       9.6710      0.00000
     39      10.5414      0.00000
     40      11.0210      0.00000

 k-point    49 :       0.4667    0.0667    0.2000
  band No.  band energies     occupation 
      1     -11.1362      2.00000
      2     -10.8197      2.00000
      3     -10.6458      2.00000
      4     -10.6024      2.00000
      5     -10.5607      2.00000
      6     -10.5107      2.00000
      7     -10.1973      2.00000
      8     -10.1443      2.00000
      9     -10.0548      2.00000
     10     -10.0369      2.00000
     11      -8.2200      2.00000
     12      -8.0036      2.00000
     13      -7.3138      2.00000
     14      -6.7891      2.00000
     15      -2.4253      2.00000
     16      -1.9124      2.00000
     17      -1.3670      2.00000
     18      -1.3286      2.00000
     19      -1.2382      2.00000
     20      -1.0729      2.00000
     21      -0.8897      2.00000
     22      -0.3715      2.00000
     23       0.0067      2.00000
     24       0.6221      2.00000
     25       0.9394      2.00000
     26       1.3509      2.00000
     27       1.6658      2.00000
     28       2.4118      2.00000
     29       2.8745      2.00000
     30       3.2473      2.00000
     31       3.8874      2.00000
     32       5.7100      0.00000
     33       6.3378      0.00000
     34       6.9834      0.00000
     35       8.7749      0.00000
     36       8.8900      0.00000
     37       9.4947      0.00000
     38       9.6337      0.00000
     39      10.5040      0.00000
     40      10.9653      0.00000

 k-point    50 :      -0.4667    0.0667    0.2000
  band No.  band energies     occupation 
      1     -11.1269      2.00000
      2     -10.8160      2.00000
      3     -10.6473      2.00000
      4     -10.5985      2.00000
      5     -10.5557      2.00000
      6     -10.5134      2.00000
      7     -10.1978      2.00000
      8     -10.1426      2.00000
      9     -10.0602      2.00000
     10     -10.0391      2.00000
     11      -8.3106      2.00000
     12      -8.0583      2.00000
     13      -7.3346      2.00000
     14      -6.8145      2.00000
     15      -2.3385      2.00000
     16      -1.8210      2.00000
     17      -1.3704      2.00000
     18      -1.3341      2.00000
     19      -1.2307      2.00000
     20      -1.0787      2.00000
     21      -0.9729      2.00000
     22      -0.2466      2.00000
     23       0.1130      2.00000
     24       0.6367      2.00000
     25       0.9832      2.00000
     26       1.4256      2.00000
     27       1.6287      2.00000
     28       2.4548      2.00000
     29       2.8715      2.00000
     30       3.2841      2.00000
     31       3.9293      2.00000
     32       5.8103      0.00000
     33       6.3008      0.00000
     34       7.0106      0.00000
     35       8.7987      0.00000
     36       8.9754      0.00000
     37       9.5170      0.00000
     38       9.6775      0.00000
     39      10.5223      0.00000
     40      10.9857      0.00000

 k-point    51 :      -0.4000    0.0667    0.2000
  band No.  band energies     occupation 
      1     -11.0999      2.00000
      2     -10.8076      2.00000
      3     -10.6521      2.00000
      4     -10.5894      2.00000
      5     -10.5365      2.00000
      6     -10.5197      2.00000
      7     -10.2000      2.00000
      8     -10.1379      2.00000
      9     -10.0738      2.00000
     10     -10.0465      2.00000
     11      -8.5316      2.00000
     12      -8.2145      2.00000
     13      -7.4082      2.00000
     14      -6.8868      2.00000
     15      -2.1388      2.00000
     16      -1.5882      2.00000
     17      -1.3776      2.00000
     18      -1.3501      2.00000
     19      -1.2034      2.00000
     20      -1.0882      2.00000
     21      -1.0466      2.00000
     22      -0.0293      2.00000
     23       0.3571      2.00000
     24       0.7523      2.00000
     25       1.1086      2.00000
     26       1.5240      2.00000
     27       1.7087      2.00000
     28       2.5432      2.00000
     29       2.8951      2.00000
     30       3.3961      2.00000
     31       3.9818      2.00000
     32       5.9847      0.00000
     33       6.3139      0.00000
     34       7.1726      0.00000
     35       8.8264      0.00000
     36       9.1041      0.00000
     37       9.5933      0.00000
     38       9.7798      0.00000
     39      10.5642      0.00000
     40      10.9745      0.00000

 k-point    52 :      -0.3333    0.0667    0.2000
  band No.  band energies     occupation 
      1     -11.0586      2.00000
      2     -10.7990      2.00000
      3     -10.6611      2.00000
      4     -10.5802      2.00000
      5     -10.5299      2.00000
      6     -10.4925      2.00000
      7     -10.2047      2.00000
      8     -10.1321      2.00000
      9     -10.0911      2.00000
     10     -10.0583      2.00000
     11      -8.8051      2.00000
     12      -8.4327      2.00000
     13      -7.5393      2.00000
     14      -6.9930      2.00000
     15      -1.9658      2.00000
     16      -1.4880      2.00000
     17      -1.3967      2.00000
     18      -1.2923      2.00000
     19      -1.1687      2.00000
     20      -1.0895      2.00000
     21      -0.8525      2.00000
     22       0.2280      2.00000
     23       0.5915      2.00000
     24       1.0875      2.00000
     25       1.3119      2.00000
     26       1.6178      2.00000
     27       1.9358      2.00000
     28       2.6703      2.00000
     29       2.9451      2.00000
     30       3.5798      2.00000
     31       4.0333      2.00000
     32       6.1105      0.00000
     33       6.4453      0.00000
     34       7.4448      0.00000
     35       8.7988      0.00000
     36       9.2097      0.00000
     37       9.5902      0.00000
     38       9.9324      0.00000
     39      10.4320      0.00000
     40      10.8087      0.00000

 k-point    53 :      -0.2667    0.0667    0.2000
  band No.  band energies     occupation 
      1     -11.0097      2.00000
      2     -10.7904      2.00000
      3     -10.6741      2.00000
      4     -10.5713      2.00000
      5     -10.5364      2.00000
      6     -10.4306      2.00000
      7     -10.2122      2.00000
      8     -10.1330      2.00000
      9     -10.1044      2.00000
     10     -10.0704      2.00000
     11      -9.0791      2.00000
     12      -8.6587      2.00000
     13      -7.7073      2.00000
     14      -7.1142      2.00000
     15      -1.9066      2.00000
     16      -1.5136      2.00000
     17      -1.4402      2.00000
     18      -1.2409      2.00000
     19      -1.1425      2.00000
     20      -1.0957      2.00000
     21      -0.3921      2.00000
     22       0.5782      2.00000
     23       0.8878      2.00000
     24       1.4323      2.00000
     25       1.6151      2.00000
     26       1.7519      2.00000
     27       2.2768      2.00000
     28       2.8574      2.00000
     29       3.0197      2.00000
     30       3.8176      2.00000
     31       4.0741      2.00000
     32       6.0767      0.00000
     33       6.6829      0.00000
     34       7.7805      0.00000
     35       8.6307      0.00000
     36       9.0799      0.00000
     37       9.4598      0.00000
     38       9.8772      0.00000
     39      10.1781      0.00000
     40      10.7259      0.00000

 k-point    54 :      -0.2000    0.0667    0.2000
  band No.  band energies     occupation 
      1     -10.9652      2.00000
      2     -10.7755      2.00000
      3     -10.6889      2.00000
      4     -10.5623      2.00000
      5     -10.5404      2.00000
      6     -10.3598      2.00000
      7     -10.2204      2.00000
      8     -10.1533      2.00000
      9     -10.1021      2.00000
     10     -10.0785      2.00000
     11      -9.3205      2.00000
     12      -8.8522      2.00000
     13      -7.8784      2.00000
     14      -7.2287      2.00000
     15      -1.9285      2.00000
     16      -1.5340      2.00000
     17      -1.4831      2.00000
     18      -1.2303      2.00000
     19      -1.1242      2.00000
     20      -1.0982      2.00000
     21      -0.0018      2.00000
     22       0.9994      2.00000
     23       1.2991      2.00000
     24       1.7587      2.00000
     25       1.8937      2.00000
     26       1.9713      2.00000
     27       2.6304      2.00000
     28       2.9694      2.00000
     29       3.3141      2.00000
     30       4.0238      2.00000
     31       4.1342      2.00000
     32       5.8869      0.00000
     33       6.8120      0.00000
     34       8.0301      0.00000
     35       8.4418      0.00000
     36       8.7016      0.00000
     37       9.1635      0.00000
     38       9.6283      0.00000
     39       9.9635      0.00000
     40      10.4631      0.00000

 k-point    55 :       0.1333    0.1333    0.2000
  band No.  band energies     occupation 
      1     -11.0015      2.00000
      2     -10.7887      2.00000
      3     -10.6772      2.00000
      4     -10.5686      2.00000
      5     -10.5386      2.00000
      6     -10.4123      2.00000
      7     -10.2287      2.00000
      8     -10.1284      2.00000
      9     -10.1082      2.00000
     10     -10.0714      2.00000
     11      -9.1149      2.00000
     12      -8.6854      2.00000
     13      -7.7353      2.00000
     14      -7.1308      2.00000
     15      -1.9049      2.00000
     16      -1.5167      2.00000
     17      -1.4465      2.00000
     18      -1.2276      2.00000
     19      -1.1385      2.00000
     20      -1.0967      2.00000
     21      -0.3091      2.00000
     22       0.6051      2.00000
     23       1.0599      2.00000
     24       1.4126      2.00000
     25       1.5455      2.00000
     26       1.7595      2.00000
     27       2.5782      2.00000
     28       2.6558      2.00000
     29       3.0483      2.00000
     30       3.7625      2.00000
     31       4.1043      2.00000
     32       6.1298      0.00000
     33       6.8188      0.00000
     34       8.0438      0.00000
     35       8.7058      0.00000
     36       8.8404      0.00000
     37       9.3069      0.00000
     38       9.8383      0.00000
     39      10.1574      0.00000
     40      10.6950      0.00000

 k-point    56 :       0.2000    0.1333    0.2000
  band No.  band energies     occupation 
      1     -11.0452      2.00000
      2     -10.7960      2.00000
      3     -10.6662      2.00000
      4     -10.5746      2.00000
      5     -10.5354      2.00000
      6     -10.4659      2.00000
      7     -10.2335      2.00000
      8     -10.1193      2.00000
      9     -10.1050      2.00000
     10     -10.0597      2.00000
     11      -8.8610      2.00000
     12      -8.4729      2.00000
     13      -7.5818      2.00000
     14      -7.0172      2.00000
     15      -1.9313      2.00000
     16      -1.4833      2.00000
     17      -1.4051      2.00000
     18      -1.2533      2.00000
     19      -1.1578      2.00000
     20      -1.0903      2.00000
     21      -0.7157      2.00000
     22       0.2560      2.00000
     23       0.7430      2.00000
     24       1.1065      2.00000
     25       1.2253      2.00000
     26       1.5699      2.00000
     27       2.2520      2.00000
     28       2.4992      2.00000
     29       2.9145      2.00000
     30       3.4384      2.00000
     31       4.0725      2.00000
     32       6.2603      0.00000
     33       6.7108      0.00000
     34       7.9000      0.00000
     35       8.8628      0.00000
     36       9.1562      0.00000
     37       9.4917      0.00000
     38       9.9087      0.00000
     39      10.4225      0.00000
     40      10.6778      0.00000

 k-point    57 :       0.2667    0.1333    0.2000
  band No.  band energies     occupation 
      1     -11.0861      2.00000
      2     -10.8013      2.00000
      3     -10.6582      2.00000
      4     -10.5804      2.00000
      5     -10.5320      2.00000
      6     -10.5083      2.00000
      7     -10.2358      2.00000
      8     -10.1253      2.00000
      9     -10.0891      2.00000
     10     -10.0490      2.00000
     11      -8.5861      2.00000
     12      -8.2479      2.00000
     13      -7.4499      2.00000
     14      -6.9085      2.00000
     15      -2.0469      2.00000
     16      -1.4572      2.00000
     17      -1.3849      2.00000
     18      -1.3576      2.00000
     19      -1.1766      2.00000
     20      -1.0828      2.00000
     21      -1.0100      2.00000
     22       0.0128      2.00000
     23       0.4437      2.00000
     24       0.8036      2.00000
     25       0.9893      2.00000
     26       1.3332      2.00000
     27       2.0595      2.00000
     28       2.3209      2.00000
     29       2.8715      2.00000
     30       3.1728      2.00000
     31       4.0077      2.00000
     32       6.1995      0.00000
     33       6.6235      0.00000
     34       7.7006      0.00000
     35       8.9156      0.00000
     36       9.2621      0.00000
     37       9.5683      0.00000
     38      10.0029      0.00000
     39      10.5921      0.00000
     40      10.6895      0.00000

 k-point    58 :       0.3333    0.1333    0.2000
  band No.  band energies     occupation 
      1     -11.1168      2.00000
      2     -10.8070      2.00000
      3     -10.6535      2.00000
      4     -10.5865      2.00000
      5     -10.5420      2.00000
      6     -10.5204      2.00000
      7     -10.2372      2.00000
      8     -10.1309      2.00000
      9     -10.0727      2.00000
     10     -10.0439      2.00000
     11      -8.3302      2.00000
     12      -8.0599      2.00000
     13      -7.3655      2.00000
     14      -6.8244      2.00000
     15      -2.2244      2.00000
     16      -1.6898      2.00000
     17      -1.3747      2.00000
     18      -1.3409      2.00000
     19      -1.2061      2.00000
     20      -1.0971      2.00000
     21      -0.9895      2.00000
     22      -0.1527      2.00000
     23       0.1835      2.00000
     24       0.5555      2.00000
     25       0.8366      2.00000
     26       1.1756      2.00000
     27       1.9130      2.00000
     28       2.2125      2.00000
     29       2.8615      2.00000
     30       2.9963      2.00000
     31       3.9451      2.00000
     32       6.0612      0.00000
     33       6.5819      0.00000
     34       7.5070      0.00000
     35       8.9129      0.00000
     36       9.3125      0.00000
     37       9.4484      0.00000
     38       9.9301      0.00000
     39      10.6192      0.00000
     40      10.9091      0.00000

 k-point    59 :       0.4000    0.1333    0.2000
  band No.  band energies     occupation 
      1     -11.1331      2.00000
      2     -10.8111      2.00000
      3     -10.6514      2.00000
      4     -10.5915      2.00000
      5     -10.5519      2.00000
      6     -10.5182      2.00000
      7     -10.2379      2.00000
      8     -10.1341      2.00000
      9     -10.0592      2.00000
     10     -10.0455      2.00000
     11      -8.1574      2.00000
     12      -7.9614      2.00000
     13      -7.3319      2.00000
     14      -6.7787      2.00000
     15      -2.3571      2.00000
     16      -1.8705      2.00000
     17      -1.3559      2.00000
     18      -1.3276      2.00000
     19      -1.2248      2.00000
     20      -1.0876      2.00000
     21      -0.8853      2.00000
     22      -0.3014      2.00000
     23       0.0281      2.00000
     24       0.4283      2.00000
     25       0.7273      2.00000
     26       1.1993      2.00000
     27       1.7599      2.00000
     28       2.1700      2.00000
     29       2.8466      2.00000
     30       2.9267      2.00000
     31       3.9193      2.00000
     32       5.9894      0.00000
     33       6.5388      0.00000
     34       7.3755      0.00000
     35       8.9374      0.00000
     36       9.2848      0.00000
     37       9.4089      0.00000
     38       9.8293      0.00000
     39      10.5342      0.00000
     40      11.0408      0.00000

 k-point    60 :       0.4667    0.1333    0.2000
  band No.  band energies     occupation 
      1     -11.1331      2.00000
      2     -10.8111      2.00000
      3     -10.6514      2.00000
      4     -10.5915      2.00000
      5     -10.5518      2.00000
      6     -10.5182      2.00000
      7     -10.2379      2.00000
      8     -10.1341      2.00000
      9     -10.0592      2.00000
     10     -10.0455      2.00000
     11      -8.1561      2.00000
     12      -7.9632      2.00000
     13      -7.3313      2.00000
     14      -6.7787      2.00000
     15      -2.3556      2.00000
     16      -1.8753      2.00000
     17      -1.3559      2.00000
     18      -1.3225      2.00000
     19      -1.2265      2.00000
     20      -1.0883      2.00000
     21      -0.8905      2.00000
     22      -0.2979      2.00000
     23       0.0618      2.00000
     24       0.3974      2.00000
     25       0.6869      2.00000
     26       1.3281      2.00000
     27       1.6300      2.00000
     28       2.2137      2.00000
     29       2.8172      2.00000
     30       2.9389      2.00000
     31       3.9406      2.00000
     32       6.0250      0.00000
     33       6.4943      0.00000
     34       7.3518      0.00000
     35       8.9643      0.00000
     36       9.2536      0.00000
     37       9.4808      0.00000
     38       9.7984      0.00000
     39      10.5086      0.00000
     40      11.0642      0.00000

 k-point    61 :      -0.4667    0.1333    0.2000
  band No.  band energies     occupation 
      1     -11.1168      2.00000
      2     -10.8070      2.00000
      3     -10.6535      2.00000
      4     -10.5866      2.00000
      5     -10.5419      2.00000
      6     -10.5204      2.00000
      7     -10.2372      2.00000
      8     -10.1309      2.00000
      9     -10.0727      2.00000
     10     -10.0439      2.00000
     11      -8.3278      2.00000
     12      -8.0639      2.00000
     13      -7.3630      2.00000
     14      -6.8251      2.00000
     15      -2.2205      2.00000
     16      -1.7078      2.00000
     17      -1.3673      2.00000
     18      -1.3270      2.00000
     19      -1.2112      2.00000
     20      -1.1021      2.00000
     21      -0.9992      2.00000
     22      -0.1246      2.00000
     23       0.2692      2.00000
     24       0.4448      2.00000
     25       0.7507      2.00000
     26       1.4424      2.00000
     27       1.6352      2.00000
     28       2.3422      2.00000
     29       2.7888      2.00000
     30       3.0171      2.00000
     31       3.9894      2.00000
     32       6.1467      0.00000
     33       6.4746      0.00000
     34       7.4475      0.00000
     35       8.9576      0.00000
     36       9.3309      0.00000
     37       9.5623      0.00000
     38       9.8394      0.00000
     39      10.5478      0.00000
     40      11.0377      0.00000

 k-point    62 :      -0.4000    0.1333    0.2000
  band No.  band energies     occupation 
      1     -11.0861      2.00000
      2     -10.8014      2.00000
      3     -10.6582      2.00000
      4     -10.5804      2.00000
      5     -10.5320      2.00000
      6     -10.5083      2.00000
      7     -10.2358      2.00000
      8     -10.1253      2.00000
      9     -10.0891      2.00000
     10     -10.0490      2.00000
     11      -8.5841      2.00000
     12      -8.2516      2.00000
     13      -7.4467      2.00000
     14      -6.9099      2.00000
     15      -2.0422      2.00000
     16      -1.4953      2.00000
     17      -1.3800      2.00000
     18      -1.3296      2.00000
     19      -1.1802      2.00000
     20      -1.0860      2.00000
     21      -1.0146      2.00000
     22       0.0851      2.00000
     23       0.4471      2.00000
     24       0.7052      2.00000
     25       0.9456      2.00000
     26       1.4860      2.00000
     27       1.8695      2.00000
     28       2.4976      2.00000
     29       2.7848      2.00000
     30       3.1793      2.00000
     31       4.0421      2.00000
     32       6.2656      0.00000
     33       6.5316      0.00000
     34       7.6449      0.00000
     35       8.9332      0.00000
     36       9.3548      0.00000
     37       9.6367      0.00000
     38       9.9375      0.00000
     39      10.4573      0.00000
     40      10.8437      0.00000

 k-point    63 :      -0.3333    0.1333    0.2000
  band No.  band energies     occupation 
      1     -11.0452      2.00000
      2     -10.7960      2.00000
      3     -10.6662      2.00000
      4     -10.5747      2.00000
      5     -10.5354      2.00000
      6     -10.4659      2.00000
      7     -10.2335      2.00000
      8     -10.1193      2.00000
      9     -10.1050      2.00000
     10     -10.0597      2.00000
     11      -8.8600      2.00000
     12      -8.4749      2.00000
     13      -7.5798      2.00000
     14      -7.0182      2.00000
     15      -1.9286      2.00000
     16      -1.4861      2.00000
     17      -1.4053      2.00000
     18      -1.2625      2.00000
     19      -1.1577      2.00000
     20      -1.0910      2.00000
     21      -0.7092      2.00000
     22       0.3297      2.00000
     23       0.6658      2.00000
     24       1.0709      2.00000
     25       1.2458      2.00000
     26       1.5765      2.00000
     27       2.2208      2.00000
     28       2.5952      2.00000
     29       2.8666      2.00000
     30       3.4334      2.00000
     31       4.0843      2.00000
     32       6.2604      0.00000
     33       6.6925      0.00000
     34       7.8953      0.00000
     35       8.8056      0.00000
     36       9.2009      0.00000
     37       9.5786      0.00000
     38       9.9759      0.00000
     39      10.2335      0.00000
     40      10.6854      0.00000

 k-point    64 :       0.2000    0.2000    0.2000
  band No.  band energies     occupation 
      1     -11.0804      2.00000
      2     -10.7990      2.00000
      3     -10.6609      2.00000
      4     -10.5761      2.00000
      5     -10.5355      2.00000
      6     -10.4949      2.00000
      7     -10.2561      2.00000
      8     -10.1140      2.00000
      9     -10.1014      2.00000
     10     -10.0495      2.00000
     11      -8.6018      2.00000
     12      -8.2614      2.00000
     13      -7.4633      2.00000
     14      -6.9176      2.00000
     15      -2.0076      2.00000
     16      -1.4602      2.00000
     17      -1.3778      2.00000
     18      -1.3235      2.00000
     19      -1.1709      2.00000
     20      -1.0797      2.00000
     21      -0.9806      2.00000
     22       0.1141      2.00000
     23       0.4213      2.00000
     24       0.7333      2.00000
     25       0.9048      2.00000
     26       1.4193      2.00000
     27       2.0602      2.00000
     28       2.3172      2.00000
     29       2.8142      2.00000
     30       3.0515      2.00000
     31       4.0531      2.00000
     32       6.3716      0.00000
     33       6.6832      0.00000
     34       7.9931      0.00000
     35       8.7925      0.00000
     36       9.4253      0.00000
     37       9.7396      0.00000
     38      10.0726      0.00000
     39      10.5001      0.00000
     40      10.8072      0.00000

 k-point    65 :       0.2667    0.2000    0.2000
  band No.  band energies     occupation 
      1     -11.1094      2.00000
      2     -10.8007      2.00000
      3     -10.6582      2.00000
      4     -10.5767      2.00000
      5     -10.5370      2.00000
      6     -10.5151      2.00000
      7     -10.2745      2.00000
      8     -10.1162      2.00000
      9     -10.0889      2.00000
     10     -10.0455      2.00000
     11      -8.3364      2.00000
     12      -8.0583      2.00000
     13      -7.3857      2.00000
     14      -6.8305      2.00000
     15      -2.1364      2.00000
     16      -1.5984      2.00000
     17      -1.3679      2.00000
     18      -1.3351      2.00000
     19      -1.1845      2.00000
     20      -1.1134      2.00000
     21      -1.0040      2.00000
     22      -0.0397      2.00000
     23       0.1360      2.00000
     24       0.4497      2.00000
     25       0.7393      2.00000
     26       1.2274      2.00000
     27       1.8728      2.00000
     28       2.1170      2.00000
     29       2.7071      2.00000
     30       2.8791      2.00000
     31       3.9942      2.00000
     32       6.3553      0.00000
     33       6.6751      0.00000
     34       7.9441      0.00000
     35       8.7749      0.00000
     36       9.5299      0.00000
     37       9.9160      0.00000
     38      10.1640      0.00000
     39      10.5568      0.00000
     40      10.9545      0.00000

 k-point    66 :       0.3333    0.2000    0.2000
  band No.  band energies     occupation 
      1     -11.1284      2.00000
      2     -10.8020      2.00000
      3     -10.6572      2.00000
      4     -10.5779      2.00000
      5     -10.5390      2.00000
      6     -10.5250      2.00000
      7     -10.2860      2.00000
      8     -10.1189      2.00000
      9     -10.0736      2.00000
     10     -10.0491      2.00000
     11      -8.1122      2.00000
     12      -7.9179      2.00000
     13      -7.3584      2.00000
     14      -6.7718      2.00000
     15      -2.2594      2.00000
     16      -1.8020      2.00000
     17      -1.3459      2.00000
     18      -1.3256      2.00000
     19      -1.2039      2.00000
     20      -1.1090      2.00000
     21      -0.8998      2.00000
     22      -0.1736      2.00000
     23      -0.0497      2.00000
     24       0.1998      2.00000
     25       0.6686      2.00000
     26       1.1305      2.00000
     27       1.7462      2.00000
     28       1.9544      2.00000
     29       2.5539      2.00000
     30       2.8998      2.00000
     31       3.9423      2.00000
     32       6.2934      0.00000
     33       6.6705      0.00000
     34       7.8445      0.00000
     35       8.7585      0.00000
     36       9.6355      0.00000
     37       9.8108      0.00000
     38      10.2240      0.00000
     39      10.5356      0.00000
     40      11.0790      0.00000

 k-point    67 :       0.4000    0.2000    0.2000
  band No.  band energies     occupation 
      1     -11.1349      2.00000
      2     -10.8025      2.00000
      3     -10.6570      2.00000
      4     -10.5787      2.00000
      5     -10.5397      2.00000
      6     -10.5278      2.00000
      7     -10.2899      2.00000
      8     -10.1200      2.00000
      9     -10.0600      2.00000
     10     -10.0585      2.00000
     11      -8.0113      2.00000
     12      -7.8764      2.00000
     13      -7.3576      2.00000
     14      -6.7509      2.00000
     15      -2.3091      2.00000
     16      -1.8858      2.00000
     17      -1.3427      2.00000
     18      -1.3172      2.00000
     19      -1.2112      2.00000
     20      -1.1017      2.00000
     21      -0.8223      2.00000
     22      -0.2957      2.00000
     23      -0.0266      2.00000
     24       0.0875      2.00000
     25       0.5608      2.00000
     26       1.2184      2.00000
     27       1.6450      2.00000
     28       1.8881      2.00000
     29       2.5031      2.00000
     30       2.9134      2.00000
     31       3.9306      2.00000
     32       6.2798      0.00000
     33       6.6495      0.00000
     34       7.7944      0.00000
     35       8.7574      0.00000
     36       9.6686      0.00000
     37       9.7560      0.00000
     38      10.2080      0.00000
     39      10.5339      0.00000
     40      11.1582      0.00000

 k-point    68 :       0.4667    0.2000    0.2000
  band No.  band energies     occupation 
      1     -11.1284      2.00000
      2     -10.8020      2.00000
      3     -10.6572      2.00000
      4     -10.5779      2.00000
      5     -10.5390      2.00000
      6     -10.5250      2.00000
      7     -10.2860      2.00000
      8     -10.1189      2.00000
      9     -10.0736      2.00000
     10     -10.0491      2.00000
     11      -8.1109      2.00000
     12      -7.9199      2.00000
     13      -7.3577      2.00000
     14      -6.7718      2.00000
     15      -2.2569      2.00000
     16      -1.8097      2.00000
     17      -1.3485      2.00000
     18      -1.3153      2.00000
     19      -1.2042      2.00000
     20      -1.1118      2.00000
     21      -0.9063      2.00000
     22      -0.2026      2.00000
     23       0.0853      2.00000
     24       0.1545      2.00000
     25       0.5214      2.00000
     26       1.4147      2.00000
     27       1.5008      2.00000
     28       2.0017      2.00000
     29       2.5556      2.00000
     30       2.8916      2.00000
     31       3.9625      2.00000
     32       6.3322      0.00000
     33       6.6227      0.00000
     34       7.8258      0.00000
     35       8.7692      0.00000
     36       9.6193      0.00000
     37       9.8128      0.00000
     38      10.2189      0.00000
     39      10.6281      0.00000
     40      11.1566      0.00000

 k-point    69 :      -0.4667    0.2000    0.2000
  band No.  band energies     occupation 
      1     -11.1094      2.00000
      2     -10.8008      2.00000
      3     -10.6582      2.00000
      4     -10.5767      2.00000
      5     -10.5370      2.00000
      6     -10.5151      2.00000
      7     -10.2745      2.00000
      8     -10.1162      2.00000
      9     -10.0889      2.00000
     10     -10.0455      2.00000
     11      -8.3355      2.00000
     12      -8.0600      2.00000
     13      -7.3846      2.00000
     14      -6.8308      2.00000
     15      -2.1340      2.00000
     16      -1.6109      2.00000
     17      -1.3664      2.00000
     18      -1.3231      2.00000
     19      -1.1844      2.00000
     20      -1.1191      2.00000
     21      -1.0073      2.00000
     22      -0.0486      2.00000
     23       0.2468      2.00000
     24       0.3853      2.00000
     25       0.6358      2.00000
     26       1.3904      2.00000
     27       1.7215      2.00000
     28       2.1849      2.00000
     29       2.6822      2.00000
     30       2.8844      2.00000
     31       4.0119      2.00000
     32       6.3958      0.00000
     33       6.6248      0.00000
     34       7.9199      0.00000
     35       8.7875      0.00000
     36       9.5669      0.00000
     37       9.8176      0.00000
     38      10.2805      0.00000
     39      10.6418      0.00000
     40      10.9018      0.00000

 k-point    70 :       0.2667    0.2667    0.2000
  band No.  band energies     occupation 
      1     -11.1261      2.00000
      2     -10.7982      2.00000
      3     -10.6596      2.00000
      4     -10.5707      2.00000
      5     -10.5399      2.00000
      6     -10.5197      2.00000
      7     -10.3096      2.00000
      8     -10.1070      2.00000
      9     -10.0859      2.00000
     10     -10.0496      2.00000
     11      -8.0964      2.00000
     12      -7.8981      2.00000
     13      -7.3714      2.00000
     14      -6.7694      2.00000
     15      -2.2100      2.00000
     16      -1.7701      2.00000
     17      -1.3435      2.00000
     18      -1.3197      2.00000
     19      -1.1856      2.00000
     20      -1.1268      2.00000
     21      -0.9117      2.00000
     22      -0.1578      2.00000
     23      -0.0317      2.00000
     24       0.0915      2.00000
     25       0.6006      2.00000
     26       1.2583      2.00000
     27       1.5816      2.00000
     28       1.9171      2.00000
     29       2.4260      2.00000
     30       2.9002      2.00000
     31       3.9581      2.00000
     32       6.4440      0.00000
     33       6.6899      0.00000
     34       8.0589      0.00000
     35       8.6704      0.00000
     36       9.7548      0.00000
     37       9.9629      0.00000
     38      10.5492      0.00000
     39      10.7033      0.00000
     40      11.1892      0.00000

 k-point    71 :       0.3333    0.2667    0.2000
  band No.  band energies     occupation 
      1     -11.1348      2.00000
      2     -10.7959      2.00000
      3     -10.6609      2.00000
      4     -10.5658      2.00000
      5     -10.5408      2.00000
      6     -10.5225      2.00000
      7     -10.3309      2.00000
      8     -10.1031      2.00000
      9     -10.0764      2.00000
     10     -10.0590      2.00000
     11      -7.9275      2.00000
     12      -7.8089      2.00000
     13      -7.3941      2.00000
     14      -6.7357      2.00000
     15      -2.2483      2.00000
     16      -1.8793      2.00000
     17      -1.3345      2.00000
     18      -1.3191      2.00000
     19      -1.1908      2.00000
     20      -1.1156      2.00000
     21      -0.7977      2.00000
     22      -0.2795      2.00000
     23      -0.1372      2.00000
     24      -0.1098      2.00000
     25       0.6247      2.00000
     26       1.1134      2.00000
     27       1.5856      2.00000
     28       1.7247      2.00000
     29       2.2780      2.00000
     30       2.9392      2.00000
     31       3.9188      2.00000
     32       6.4498      0.00000
     33       6.7169      0.00000
     34       8.0804      0.00000
     35       8.6206      0.00000
     36       9.8611      0.00000
     37      10.0116      0.00000
     38      10.4758      0.00000
     39      10.8644      0.00000
     40      11.4981      0.00000

 k-point    72 :       0.4000    0.2667    0.2000
  band No.  band energies     occupation 
      1     -11.1348      2.00000
      2     -10.7959      2.00000
      3     -10.6609      2.00000
      4     -10.5658      2.00000
      5     -10.5408      2.00000
      6     -10.5225      2.00000
      7     -10.3309      2.00000
      8     -10.1031      2.00000
      9     -10.0764      2.00000
     10     -10.0590      2.00000
     11      -7.9272      2.00000
     12      -7.8093      2.00000
     13      -7.3940      2.00000
     14      -6.7357      2.00000
     15      -2.2476      2.00000
     16      -1.8809      2.00000
     17      -1.3356      2.00000
     18      -1.3171      2.00000
     19      -1.1901      2.00000
     20      -1.1163      2.00000
     21      -0.7996      2.00000
     22      -0.2842      2.00000
     23      -0.1426      2.00000
     24      -0.0852      2.00000
     25       0.5819      2.00000
     26       1.1786      2.00000
     27       1.5468      2.00000
     28       1.7224      2.00000
     29       2.2834      2.00000
     30       2.9374      2.00000
     31       3.9222      2.00000
     32       6.4558      0.00000
     33       6.7097      0.00000
     34       8.0793      0.00000
     35       8.6216      0.00000
     36       9.8385      0.00000
     37      10.0071      0.00000
     38      10.5019      0.00000
     39      10.9285      0.00000
     40      11.4549      0.00000

 k-point    73 :       0.3333    0.3333    0.2000
  band No.  band energies     occupation 
      1     -11.1368      2.00000
      2     -10.7931      2.00000
      3     -10.6624      2.00000
      4     -10.5527      2.00000
      5     -10.5527      2.00000
      6     -10.5161      2.00000
      7     -10.3505      2.00000
      8     -10.0891      2.00000
      9     -10.0841      2.00000
     10     -10.0644      2.00000
     11      -7.8525      2.00000
     12      -7.7582      2.00000
     13      -7.4268      2.00000
     14      -6.7229      2.00000
     15      -2.2326      2.00000
     16      -1.9099      2.00000
     17      -1.3319      2.00000
     18      -1.3196      2.00000
     19      -1.1838      2.00000
     20      -1.1163      2.00000
     21      -0.7506      2.00000
     22      -0.3001      2.00000
     23      -0.2870      2.00000
     24      -0.1402      2.00000
     25       0.6790      2.00000
     26       1.0166      2.00000
     27       1.5705      2.00000
     28       1.6258      2.00000
     29       2.1813      2.00000
     30       2.9583      2.00000
     31       3.9042      2.00000
     32       6.4992      0.00000
     33       6.7328      0.00000
     34       8.1563      0.00000
     35       8.5708      0.00000
     36       9.8866      0.00000
     37      10.1183      0.00000
     38      10.5334      0.00000
     39      11.1852      0.00000
     40      11.7131      0.00000

 k-point    74 :       0.0000    0.0000    0.4000
  band No.  band energies     occupation 
      1     -10.9226      2.00000
      2     -10.7135      2.00000
      3     -10.7135      2.00000
      4     -10.5432      2.00000
      5     -10.5432      2.00000
      6     -10.2307      2.00000
      7     -10.2307      2.00000
      8     -10.2168      2.00000
      9     -10.0840      2.00000
     10     -10.0840      2.00000
     11      -9.6550      2.00000
     12      -9.1123      2.00000
     13      -8.1083      2.00000
     14      -7.4118      2.00000
     15      -2.0481      2.00000
     16      -1.5440      2.00000
     17      -1.5440      2.00000
     18      -1.0981      2.00000
     19      -1.0981      2.00000
     20      -1.0860      2.00000
     21      -0.0661      2.00000
     22       2.1245      2.00000
     23       2.1606      2.00000
     24       2.1606      2.00000
     25       2.7576      2.00000
     26       2.7576      2.00000
     27       3.0312      2.00000
     28       3.0312      2.00000
     29       3.2692      2.00000
     30       4.5325      2.00000
     31       4.5325      2.00000
     32       5.4461      0.00000
     33       6.1936      0.00000
     34       7.3022      0.00000
     35       7.7974      0.00000
     36       9.0891      0.00000
     37       9.0919      0.00000
     38       9.0919      0.00000
     39       9.6824      0.00000
     40       9.6824      0.00000

 k-point    75 :       0.0667    0.0000    0.4000
  band No.  band energies     occupation 
      1     -10.9268      2.00000
      2     -10.7280      2.00000
      3     -10.7094      2.00000
      4     -10.5473      2.00000
      5     -10.5429      2.00000
      6     -10.2587      2.00000
      7     -10.2271      2.00000
      8     -10.2009      2.00000
      9     -10.0882      2.00000
     10     -10.0835      2.00000
     11      -9.6001      2.00000
     12      -9.0771      2.00000
     13      -8.0663      2.00000
     14      -7.3868      2.00000
     15      -2.0334      2.00000
     16      -1.5439      2.00000
     17      -1.5346      2.00000
     18      -1.1122      2.00000
     19      -1.0983      2.00000
     20      -1.0731      2.00000
     21      -0.0637      2.00000
     22       1.8466      2.00000
     23       2.1022      2.00000
     24       2.1286      2.00000
     25       2.4186      2.00000
     26       2.6440      2.00000
     27       2.8697      2.00000
     28       3.0772      2.00000
     29       3.5216      2.00000
     30       4.2804      2.00000
     31       4.4705      2.00000
     32       5.5774      0.00000
     33       6.3423      0.00000
     34       7.5220      0.00000
     35       7.9899      0.00000
     36       8.7700      0.00000
     37       9.1635      0.00000
     38       9.2097      0.00000
     39       9.6996      0.00000
     40       9.7935      0.00000

 k-point    76 :       0.1333   -0.0000    0.4000
  band No.  band energies     occupation 
      1     -10.9440      2.00000
      2     -10.7586      2.00000
      3     -10.6982      2.00000
      4     -10.5564      2.00000
      5     -10.5416      2.00000
      6     -10.3175      2.00000
      7     -10.2173      2.00000
      8     -10.1759      2.00000
      9     -10.0968      2.00000
     10     -10.0813      2.00000
     11      -9.4499      2.00000
     12      -8.9722      2.00000
     13      -7.9513      2.00000
     14      -7.3150      2.00000
     15      -1.9964      2.00000
     16      -1.5412      2.00000
     17      -1.5078      2.00000
     18      -1.1346      2.00000
     19      -1.0983      2.00000
     20      -1.0562      2.00000
     21      -0.0883      2.00000
     22       1.2546      2.00000
     23       1.8074      2.00000
     24       1.9461      2.00000
     25       2.0815      2.00000
     26       2.4106      2.00000
     27       2.4685      2.00000
     28       3.1235      2.00000
     29       3.6580      2.00000
     30       3.8989      2.00000
     31       4.3012      2.00000
     32       5.8038      0.00000
     33       6.6280      0.00000
     34       7.9335      0.00000
     35       8.1996      0.00000
     36       8.6952      0.00000
     37       9.1160      0.00000
     38       9.3463      0.00000
     39       9.9437      0.00000
     40      10.1055      0.00000

 k-point    77 :       0.2000    0.0000    0.4000
  band No.  band energies     occupation 
      1     -10.9811      2.00000
      2     -10.7823      2.00000
      3     -10.6828      2.00000
      4     -10.5665      2.00000
      5     -10.5383      2.00000
      6     -10.3921      2.00000
      7     -10.2048      2.00000
      8     -10.1498      2.00000
      9     -10.1034      2.00000
     10     -10.0761      2.00000
     11      -9.2314      2.00000
     12      -8.8029      2.00000
     13      -7.7902      2.00000
     14      -7.2063      2.00000
     15      -1.9593      2.00000
     16      -1.5302      2.00000
     17      -1.4680      2.00000
     18      -1.1618      2.00000
     19      -1.0971      2.00000
     20      -1.0528      2.00000
     21      -0.2517      2.00000
     22       0.6629      2.00000
     23       1.2781      2.00000
     24       1.7326      2.00000
     25       1.8269      2.00000
     26       2.0499      2.00000
     27       2.1454      2.00000
     28       3.1246      2.00000
     29       3.2010      2.00000
     30       3.9866      2.00000
     31       4.0685      2.00000
     32       5.9754      0.00000
     33       6.6987      0.00000
     34       7.7487      0.00000
     35       8.5291      0.00000
     36       8.9298      0.00000
     37       9.4038      0.00000
     38       9.5632      0.00000
     39      10.2678      0.00000
     40      10.5344      0.00000

 k-point    78 :       0.2667    0.0000    0.4000
  band No.  band energies     occupation 
      1     -11.0311      2.00000
      2     -10.7946      2.00000
      3     -10.6672      2.00000
      4     -10.5764      2.00000
      5     -10.5323      2.00000
      6     -10.4645      2.00000
      7     -10.1937      2.00000
      8     -10.1367      2.00000
      9     -10.0975      2.00000
     10     -10.0666      2.00000
     11      -8.9695      2.00000
     12      -8.5851      2.00000
     13      -7.6167      2.00000
     14      -7.0779      2.00000
     15      -1.9639      2.00000
     16      -1.5046      2.00000
     17      -1.4223      2.00000
     18      -1.2019      2.00000
     19      -1.0943      2.00000
     20      -1.0934      2.00000
     21      -0.6448      2.00000
     22       0.2487      2.00000
     23       0.8872      2.00000
     24       1.3930      2.00000
     25       1.5066      2.00000
     26       1.7811      2.00000
     27       1.8894      2.00000
     28       2.8484      2.00000
     29       3.0904      2.00000
     30       3.8230      2.00000
     31       4.0011      2.00000
     32       6.0166      0.00000
     33       6.5413      0.00000
     34       7.4630      0.00000
     35       8.7053      0.00000
     36       8.9526      0.00000
     37       9.7271      0.00000
     38       9.9664      0.00000
     39      10.2601      0.00000
     40      10.9453      0.00000

 k-point    79 :       0.3333   -0.0000    0.4000
  band No.  band energies     occupation 
      1     -11.0791      2.00000
      2     -10.8040      2.00000
      3     -10.6550      2.00000
      4     -10.5864      2.00000
      5     -10.5236      2.00000
      6     -10.5198      2.00000
      7     -10.1865      2.00000
      8     -10.1393      2.00000
      9     -10.0795      2.00000
     10     -10.0538      2.00000
     11      -8.6918      2.00000
     12      -8.3512      2.00000
     13      -7.4644      2.00000
     14      -6.9528      2.00000
     15      -2.0664      2.00000
     16      -1.4812      2.00000
     17      -1.3796      2.00000
     18      -1.3397      2.00000
     19      -1.1668      2.00000
     20      -1.0859      2.00000
     21      -0.9938      2.00000
     22      -0.0179      2.00000
     23       0.5855      2.00000
     24       0.9752      2.00000
     25       1.3060      2.00000
     26       1.6720      2.00000
     27       1.6760      2.00000
     28       2.6271      2.00000
     29       3.0378      2.00000
     30       3.6087      2.00000
     31       3.9257      2.00000
     32       5.9109      0.00000
     33       6.4106      0.00000
     34       7.2425      0.00000
     35       8.6506      0.00000
     36       8.8051      0.00000
     37       9.8025      0.00000
     38       9.9914      0.00000
     39      10.3310      0.00000
     40      11.2297      0.00000

 k-point    80 :       0.4000    0.0000    0.4000
  band No.  band energies     occupation 
      1     -11.1152      2.00000
      2     -10.8142      2.00000
      3     -10.6474      2.00000
      4     -10.5970      2.00000
      5     -10.5508      2.00000
      6     -10.5147      2.00000
      7     -10.1831      2.00000
      8     -10.1444      2.00000
      9     -10.0638      2.00000
     10     -10.0414      2.00000
     11      -8.4385      2.00000
     12      -8.1515      2.00000
     13      -7.3601      2.00000
     14      -6.8555      2.00000
     15      -2.2586      2.00000
     16      -1.7064      2.00000
     17      -1.3764      2.00000
     18      -1.3479      2.00000
     19      -1.2247      2.00000
     20      -1.0761      2.00000
     21      -1.0269      2.00000
     22      -0.2255      2.00000
     23       0.2260      2.00000
     24       0.8306      2.00000
     25       1.1582      2.00000
     26       1.5147      2.00000
     27       1.6595      2.00000
     28       2.4862      2.00000
     29       2.9845      2.00000
     30       3.4564      2.00000
     31       3.8130      2.00000
     32       5.7685      0.00000
     33       6.3493      0.00000
     34       7.0947      0.00000
     35       8.5382      0.00000
     36       8.6226      0.00000
     37       9.7839      0.00000
     38       9.8169      0.00000
     39      10.3457      0.00000
     40      11.1503      0.00000

 k-point    81 :       0.4667    0.0000    0.4000
  band No.  band energies     occupation 
      1     -11.1343      2.00000
      2     -10.8217      2.00000
      3     -10.6440      2.00000
      4     -10.6049      2.00000
      5     -10.5621      2.00000
      6     -10.5089      2.00000
      7     -10.1819      2.00000
      8     -10.1475      2.00000
      9     -10.0554      2.00000
     10     -10.0339      2.00000
     11      -8.2735      2.00000
     12      -8.0411      2.00000
     13      -7.3117      2.00000
     14      -6.8036      2.00000
     15      -2.4118      2.00000
     16      -1.8996      2.00000
     17      -1.3541      2.00000
     18      -1.3317      2.00000
     19      -1.2523      2.00000
     20      -1.0688      2.00000
     21      -0.9229      2.00000
     22      -0.4059      2.00000
     23      -0.0393      2.00000
     24       0.8749      2.00000
     25       1.0804      2.00000
     26       1.4319      2.00000
     27       1.6208      2.00000
     28       2.4243      2.00000
     29       2.9507      2.00000
     30       3.3790      2.00000
     31       3.7377      2.00000
     32       5.6961      0.00000
     33       6.3159      0.00000
     34       6.9964      0.00000
     35       8.4716      0.00000
     36       8.5335      0.00000
     37       9.6497      0.00000
     38       9.8135      0.00000
     39      10.3245      0.00000
     40      11.0797      0.00000

 k-point    82 :      -0.4667    0.0000    0.4000
  band No.  band energies     occupation 
      1     -11.1343      2.00000
      2     -10.8217      2.00000
      3     -10.6440      2.00000
      4     -10.6049      2.00000
      5     -10.5621      2.00000
      6     -10.5089      2.00000
      7     -10.1819      2.00000
      8     -10.1475      2.00000
      9     -10.0554      2.00000
     10     -10.0339      2.00000
     11      -8.2726      2.00000
     12      -8.0425      2.00000
     13      -7.3111      2.00000
     14      -6.8037      2.00000
     15      -2.4113      2.00000
     16      -1.9023      2.00000
     17      -1.3514      2.00000
     18      -1.3317      2.00000
     19      -1.2534      2.00000
     20      -1.0688      2.00000
     21      -0.9256      2.00000
     22      -0.3975      2.00000
     23      -0.0498      2.00000
     24       0.9085      2.00000
     25       1.0811      2.00000
     26       1.4307      2.00000
     27       1.5781      2.00000
     28       2.4265      2.00000
     29       2.9530      2.00000
     30       3.3770      2.00000
     31       3.7558      2.00000
     32       5.7233      0.00000
     33       6.2946      0.00000
     34       6.9506      0.00000
     35       8.4706      0.00000
     36       8.5889      0.00000
     37       9.6257      0.00000
     38       9.8172      0.00000
     39      10.3384      0.00000
     40      11.0713      0.00000

 k-point    83 :      -0.4000    0.0000    0.4000
  band No.  band energies     occupation 
      1     -11.1152      2.00000
      2     -10.8142      2.00000
      3     -10.6474      2.00000
      4     -10.5971      2.00000
      5     -10.5508      2.00000
      6     -10.5147      2.00000
      7     -10.1831      2.00000
      8     -10.1444      2.00000
      9     -10.0638      2.00000
     10     -10.0414      2.00000
     11      -8.4364      2.00000
     12      -8.1550      2.00000
     13      -7.3577      2.00000
     14      -6.8564      2.00000
     15      -2.2565      2.00000
     16      -1.7184      2.00000
     17      -1.3613      2.00000
     18      -1.3479      2.00000
     19      -1.2301      2.00000
     20      -1.0761      2.00000
     21      -1.0366      2.00000
     22      -0.1880      2.00000
     23       0.1832      2.00000
     24       0.8960      2.00000
     25       1.1602      2.00000
     26       1.5113      2.00000
     27       1.5761      2.00000
     28       2.4972      2.00000
     29       2.9908      2.00000
     30       3.4511      2.00000
     31       3.8508      2.00000
     32       5.8356      0.00000
     33       6.2851      0.00000
     34       6.9980      0.00000
     35       8.5465      0.00000
     36       8.7477      0.00000
     37       9.7200      0.00000
     38       9.8277      0.00000
     39      10.3923      0.00000
     40      11.1073      0.00000

 k-point    84 :      -0.3333    0.0000    0.4000
  band No.  band energies     occupation 
      1     -11.0791      2.00000
      2     -10.8040      2.00000
      3     -10.6550      2.00000
      4     -10.5865      2.00000
      5     -10.5236      2.00000
      6     -10.5198      2.00000
      7     -10.1865      2.00000
      8     -10.1393      2.00000
      9     -10.0795      2.00000
     10     -10.0538      2.00000
     11      -8.6895      2.00000
     12      -8.3553      2.00000
     13      -7.4607      2.00000
     14      -6.9546      2.00000
     15      -2.0628      2.00000
     16      -1.5031      2.00000
     17      -1.3796      2.00000
     18      -1.3229      2.00000
     19      -1.1731      2.00000
     20      -1.0859      2.00000
     21      -0.9992      2.00000
     22       0.0609      2.00000
     23       0.5028      2.00000
     24       1.0032      2.00000
     25       1.3092      2.00000
     26       1.6359      2.00000
     27       1.6665      2.00000
     28       2.6464      2.00000
     29       3.0465      2.00000
     30       3.6018      2.00000
     31       3.9543      2.00000
     32       5.9630      0.00000
     33       6.3428      0.00000
     34       7.1646      0.00000
     35       8.6596      0.00000
     36       8.9331      0.00000
     37       9.8185      0.00000
     38       9.9148      0.00000
     39      10.4075      0.00000
     40      11.1087      0.00000

 k-point    85 :      -0.2667    0.0000    0.4000
  band No.  band energies     occupation 
      1     -11.0310      2.00000
      2     -10.7946      2.00000
      3     -10.6672      2.00000
      4     -10.5765      2.00000
      5     -10.5323      2.00000
      6     -10.4645      2.00000
      7     -10.1937      2.00000
      8     -10.1367      2.00000
      9     -10.0975      2.00000
     10     -10.0666      2.00000
     11      -8.9677      2.00000
     12      -8.5883      2.00000
     13      -7.6134      2.00000
     14      -7.0797      2.00000
     15      -1.9610      2.00000
     16      -1.5064      2.00000
     17      -1.4223      2.00000
     18      -1.2105      2.00000
     19      -1.1065      2.00000
     20      -1.0934      2.00000
     21      -0.6305      2.00000
     22       0.3563      2.00000
     23       0.7567      2.00000
     24       1.3442      2.00000
     25       1.5106      2.00000
     26       1.8496      2.00000
     27       1.8821      2.00000
     28       2.8677      2.00000
     29       3.0997      2.00000
     30       3.8163      2.00000
     31       4.0042      2.00000
     32       6.0049      0.00000
     33       6.5288      0.00000
     34       7.4415      0.00000
     35       8.6780      0.00000
     36       9.0438      0.00000
     37       9.7436      0.00000
     38       9.9121      0.00000
     39      10.3309      0.00000
     40      10.9182      0.00000

 k-point    86 :      -0.2000    0.0000    0.4000
  band No.  band energies     occupation 
      1     -10.9811      2.00000
      2     -10.7823      2.00000
      3     -10.6828      2.00000
      4     -10.5665      2.00000
      5     -10.5383      2.00000
      6     -10.3921      2.00000
      7     -10.2048      2.00000
      8     -10.1498      2.00000
      9     -10.1034      2.00000
     10     -10.0761      2.00000
     11      -9.2303      2.00000
     12      -8.8048      2.00000
     13      -7.7883      2.00000
     14      -7.2074      2.00000
     15      -1.9580      2.00000
     16      -1.5302      2.00000
     17      -1.4680      2.00000
     18      -1.1663      2.00000
     19      -1.0972      2.00000
     20      -1.0610      2.00000
     21      -0.2316      2.00000
     22       0.7340      2.00000
     23       1.1406      2.00000
     24       1.7368      2.00000
     25       1.7719      2.00000
     26       2.1367      2.00000
     27       2.1732      2.00000
     28       3.1336      2.00000
     29       3.2186      2.00000
     30       3.9629      2.00000
     31       4.0632      2.00000
     32       5.9482      0.00000
     33       6.7132      0.00000
     34       7.7815      0.00000
     35       8.4739      0.00000
     36       8.9600      0.00000
     37       9.3681      0.00000
     38       9.5739      0.00000
     39      10.3597      0.00000
     40      10.5243      0.00000

 k-point    87 :      -0.1333    0.0000    0.4000
  band No.  band energies     occupation 
      1     -10.9440      2.00000
      2     -10.7586      2.00000
      3     -10.6982      2.00000
      4     -10.5564      2.00000
      5     -10.5416      2.00000
      6     -10.3175      2.00000
      7     -10.2173      2.00000
      8     -10.1759      2.00000
      9     -10.0968      2.00000
     10     -10.0813      2.00000
     11      -9.4495      2.00000
     12      -8.9730      2.00000
     13      -7.9506      2.00000
     14      -7.3154      2.00000
     15      -1.9960      2.00000
     16      -1.5411      2.00000
     17      -1.5078      2.00000
     18      -1.1363      2.00000
     19      -1.0983      2.00000
     20      -1.0584      2.00000
     21      -0.0787      2.00000
     22       1.2856      2.00000
     23       1.6945      2.00000
     24       1.9498      2.00000
     25       2.1148      2.00000
     26       2.4015      2.00000
     27       2.5254      2.00000
     28       3.1319      2.00000
     29       3.7060      2.00000
     30       3.8355      2.00000
     31       4.2977      2.00000
     32       5.7921      0.00000
     33       6.6413      0.00000
     34       7.9235      0.00000
     35       8.2700      0.00000
     36       8.6122      0.00000
     37       9.1046      0.00000
     38       9.3490      0.00000
     39      10.0006      0.00000
     40      10.1075      0.00000

 k-point    88 :      -0.0667    0.0000    0.4000
  band No.  band energies     occupation 
      1     -10.9268      2.00000
      2     -10.7280      2.00000
      3     -10.7094      2.00000
      4     -10.5473      2.00000
      5     -10.5429      2.00000
      6     -10.2587      2.00000
      7     -10.2271      2.00000
      8     -10.2009      2.00000
      9     -10.0882      2.00000
     10     -10.0835      2.00000
     11      -9.6000      2.00000
     12      -9.0772      2.00000
     13      -8.0662      2.00000
     14      -7.3868      2.00000
     15      -2.0334      2.00000
     16      -1.5439      2.00000
     17      -1.5346      2.00000
     18      -1.1125      2.00000
     19      -1.0983      2.00000
     20      -1.0732      2.00000
     21      -0.0624      2.00000
     22       1.8574      2.00000
     23       2.0976      2.00000
     24       2.1043      2.00000
     25       2.4295      2.00000
     26       2.6362      2.00000
     27       2.8866      2.00000
     28       3.0842      2.00000
     29       3.5154      2.00000
     30       4.2768      2.00000
     31       4.4688      2.00000
     32       5.5763      0.00000
     33       6.3450      0.00000
     34       7.5189      0.00000
     35       7.9997      0.00000
     36       8.7562      0.00000
     37       9.1621      0.00000
     38       9.2115      0.00000
     39       9.7055      0.00000
     40       9.7980      0.00000

 k-point    89 :       0.0667    0.0667    0.4000
  band No.  band energies     occupation 
      1     -10.9375      2.00000
      2     -10.7503      2.00000
      3     -10.7019      2.00000
      4     -10.5536      2.00000
      5     -10.5422      2.00000
      6     -10.2972      2.00000
      7     -10.2252      2.00000
      8     -10.1806      2.00000
      9     -10.0944      2.00000
     10     -10.0822      2.00000
     11      -9.4977      2.00000
     12      -9.0071      2.00000
     13      -7.9877      2.00000
     14      -7.3385      2.00000
     15      -2.0074      2.00000
     16      -1.5424      2.00000
     17      -1.5165      2.00000
     18      -1.1286      2.00000
     19      -1.0985      2.00000
     20      -1.0609      2.00000
     21      -0.0709      2.00000
     22       1.4568      2.00000
     23       1.8427      2.00000
     24       2.0525      2.00000
     25       2.1878      2.00000
     26       2.2809      2.00000
     27       2.8893      2.00000
     28       2.9571      2.00000
     29       3.7207      2.00000
     30       3.9386      2.00000
     31       4.3389      2.00000
     32       5.7440      0.00000
     33       6.5722      0.00000
     34       7.8721      0.00000
     35       8.2160      0.00000
     36       8.6103      0.00000
     37       8.9965      0.00000
     38       9.3861      0.00000
     39       9.8456      0.00000
     40      10.0343      0.00000

 k-point    90 :       0.1333    0.0667    0.4000
  band No.  band energies     occupation 
      1     -10.9653      2.00000
      2     -10.7755      2.00000
      3     -10.6889      2.00000
      4     -10.5623      2.00000
      5     -10.5404      2.00000
      6     -10.3599      2.00000
      7     -10.2204      2.00000
      8     -10.1533      2.00000
      9     -10.1021      2.00000
     10     -10.0785      2.00000
     11      -9.3138      2.00000
     12      -8.8689      2.00000
     13      -7.8505      2.00000
     14      -7.2482      2.00000
     15      -1.9695      2.00000
     16      -1.5354      2.00000
     17      -1.4831      2.00000
     18      -1.1519      2.00000
     19      -1.0983      2.00000
     20      -1.0512      2.00000
     21      -0.1592      2.00000
     22       0.9060      2.00000
     23       1.4531      2.00000
     24       1.7282      2.00000
     25       1.8966      2.00000
     26       2.0220      2.00000
     27       2.5721      2.00000
     28       2.9785      2.00000
     29       3.3999      2.00000
     30       3.9647      2.00000
     31       4.1132      2.00000
     32       5.9392      0.00000
     33       6.7677      0.00000
     34       8.0128      0.00000
     35       8.4141      0.00000
     36       8.8065      0.00000
     37       8.9990      0.00000
     38       9.6243      0.00000
     39      10.1153      0.00000
     40      10.4526      0.00000

 k-point    91 :       0.2000    0.0667    0.4000
  band No.  band energies     occupation 
      1     -11.0097      2.00000
      2     -10.7904      2.00000
      3     -10.6741      2.00000
      4     -10.5713      2.00000
      5     -10.5364      2.00000
      6     -10.4306      2.00000
      7     -10.2122      2.00000
      8     -10.1330      2.00000
      9     -10.1044      2.00000
     10     -10.0704      2.00000
     11      -9.0732      2.00000
     12      -8.6727      2.00000
     13      -7.6849      2.00000
     14      -7.1294      2.00000
     15      -1.9503      2.00000
     16      -1.5162      2.00000
     17      -1.4402      2.00000
     18      -1.1823      2.00000
     19      -1.0966      2.00000
     20      -1.0681      2.00000
     21      -0.4508      2.00000
     22       0.4346      2.00000
     23       1.0464      2.00000
     24       1.3761      2.00000
     25       1.6384      2.00000
     26       1.7276      2.00000
     27       2.2256      2.00000
     28       2.9110      2.00000
     29       3.0556      2.00000
     30       3.8376      2.00000
     31       4.0460      2.00000
     32       6.0622      0.00000
     33       6.7049      0.00000
     34       7.7246      0.00000
     35       8.7220      0.00000
     36       9.0965      0.00000
     37       9.2442      0.00000
     38       9.9201      0.00000
     39      10.3077      0.00000
     40      10.7584      0.00000

 k-point    92 :       0.2667    0.0667    0.4000
  band No.  band energies     occupation 
      1     -11.0586      2.00000
      2     -10.7990      2.00000
      3     -10.6611      2.00000
      4     -10.5802      2.00000
      5     -10.5299      2.00000
      6     -10.4925      2.00000
      7     -10.2047      2.00000
      8     -10.1321      2.00000
      9     -10.0911      2.00000
     10     -10.0583      2.00000
     11      -8.8007      2.00000
     12      -8.4427      2.00000
     13      -7.5249      2.00000
     14      -7.0022      2.00000
     15      -1.9994      2.00000
     16      -1.4826      2.00000
     17      -1.3961      2.00000
     18      -1.2533      2.00000
     19      -1.1332      2.00000
     20      -1.0882      2.00000
     21      -0.8650      2.00000
     22       0.1138      2.00000
     23       0.7143      2.00000
     24       1.0949      2.00000
     25       1.3223      2.00000
     26       1.4978      2.00000
     27       1.9606      2.00000
     28       2.6845      2.00000
     29       2.9662      2.00000
     30       3.5922      2.00000
     31       4.0171      2.00000
     32       6.0560      0.00000
     33       6.5410      0.00000
     34       7.4662      0.00000
     35       8.8002      0.00000
     36       9.0450      0.00000
     37       9.5330      0.00000
     38      10.0983      0.00000
     39      10.3466      0.00000
     40      10.8772      0.00000

 k-point    93 :       0.3333    0.0667    0.4000
  band No.  band energies     occupation 
      1     -11.0999      2.00000
      2     -10.8076      2.00000
      3     -10.6521      2.00000
      4     -10.5894      2.00000
      5     -10.5365      2.00000
      6     -10.5197      2.00000
      7     -10.2000      2.00000
      8     -10.1379      2.00000
      9     -10.0738      2.00000
     10     -10.0465      2.00000
     11      -8.5289      2.00000
     12      -8.2204      2.00000
     13      -7.4012      2.00000
     14      -6.8907      2.00000
     15      -2.1519      2.00000
     16      -1.5636      2.00000
     17      -1.3854      2.00000
     18      -1.3575      2.00000
     19      -1.1940      2.00000
     20      -1.0855      2.00000
     21      -1.0353      2.00000
     22      -0.1118      2.00000
     23       0.3921      2.00000
     24       0.8416      2.00000
     25       1.1083      2.00000
     26       1.3912      2.00000
     27       1.8129      2.00000
     28       2.5104      2.00000
     29       2.9061      2.00000
     30       3.3974      2.00000
     31       3.9243      2.00000
     32       5.9383      0.00000
     33       6.4543      0.00000
     34       7.2743      0.00000
     35       8.7183      0.00000
     36       8.8704      0.00000
     37       9.6021      0.00000
     38       9.9501      0.00000
     39      10.4163      0.00000
     40      11.0556      0.00000

 k-point    94 :       0.4000    0.0667    0.4000
  band No.  band energies     occupation 
      1     -11.1269      2.00000
      2     -10.8161      2.00000
      3     -10.6473      2.00000
      4     -10.5984      2.00000
      5     -10.5558      2.00000
      6     -10.5134      2.00000
      7     -10.1978      2.00000
      8     -10.1426      2.00000
      9     -10.0602      2.00000
     10     -10.0391      2.00000
     11      -8.3086      2.00000
     12      -8.0619      2.00000
     13      -7.3313      2.00000
     14      -6.8164      2.00000
     15      -2.3355      2.00000
     16      -1.8192      2.00000
     17      -1.3593      2.00000
     18      -1.3355      2.00000
     19      -1.2365      2.00000
     20      -1.0787      2.00000
     21      -0.9688      2.00000
     22      -0.3061      2.00000
     23       0.0729      2.00000
     24       0.7730      2.00000
     25       0.9829      2.00000
     26       1.3571      2.00000
     27       1.7281      2.00000
     28       2.4092      2.00000
     29       2.8633      2.00000
     30       3.2732      2.00000
     31       3.8277      2.00000
     32       5.8302      0.00000
     33       6.4224      0.00000
     34       7.1420      0.00000
     35       8.6300      0.00000
     36       8.7304      0.00000
     37       9.5560      0.00000
     38       9.8517      0.00000
     39      10.3933      0.00000
     40      11.1201      0.00000

 k-point    95 :       0.4667    0.0667    0.4000
  band No.  band energies     occupation 
      1     -11.1362      2.00000
      2     -10.8197      2.00000
      3     -10.6458      2.00000
      4     -10.6023      2.00000
      5     -10.5608      2.00000
      6     -10.5107      2.00000
      7     -10.1973      2.00000
      8     -10.1443      2.00000
      9     -10.0548      2.00000
     10     -10.0369      2.00000
     11      -8.2167      2.00000
     12      -8.0089      2.00000
     13      -7.3104      2.00000
     14      -6.7907      2.00000
     15      -2.4160      2.00000
     16      -1.9195      2.00000
     17      -1.3489      2.00000
     18      -1.3271      2.00000
     19      -1.2495      2.00000
     20      -1.0734      2.00000
     21      -0.8846      2.00000
     22      -0.4256      2.00000
     23      -0.0562      2.00000
     24       0.7757      2.00000
     25       0.9398      2.00000
     26       1.4009      2.00000
     27       1.6297      2.00000
     28       2.3893      2.00000
     29       2.8454      2.00000
     30       3.2296      2.00000
     31       3.7973      2.00000
     32       5.8076      0.00000
     33       6.4004      0.00000
     34       7.0672      0.00000
     35       8.6158      0.00000
     36       8.6926      0.00000
     37       9.5111      0.00000
     38       9.8304      0.00000
     39      10.3826      0.00000
     40      11.0825      0.00000

 k-point    96 :      -0.4667    0.0667    0.4000
  band No.  band energies     occupation 
      1     -11.1269      2.00000
      2     -10.8161      2.00000
      3     -10.6473      2.00000
      4     -10.5984      2.00000
      5     -10.5557      2.00000
      6     -10.5134      2.00000
      7     -10.1978      2.00000
      8     -10.1426      2.00000
      9     -10.0602      2.00000
     10     -10.0391      2.00000
     11      -8.3071      2.00000
     12      -8.0644      2.00000
     13      -7.3300      2.00000
     14      -6.8167      2.00000
     15      -2.3341      2.00000
     16      -1.8256      2.00000
     17      -1.3554      2.00000
     18      -1.3314      2.00000
     19      -1.2399      2.00000
     20      -1.0792      2.00000
     21      -0.9746      2.00000
     22      -0.2882      2.00000
     23       0.0603      2.00000
     24       0.7825      2.00000
     25       0.9817      2.00000
     26       1.4510      2.00000
     27       1.5900      2.00000
     28       2.4430      2.00000
     29       2.8493      2.00000
     30       3.2708      2.00000
     31       3.8575      2.00000
     32       5.8799      0.00000
     33       6.3734      0.00000
     34       7.0772      0.00000
     35       8.6647      0.00000
     36       8.7863      0.00000
     37       9.5401      0.00000
     38       9.8402      0.00000
     39      10.4007      0.00000
     40      11.0784      0.00000

 k-point    97 :      -0.4000    0.0667    0.4000
  band No.  band energies     occupation 
      1     -11.0999      2.00000
      2     -10.8077      2.00000
      3     -10.6521      2.00000
      4     -10.5894      2.00000
      5     -10.5365      2.00000
      6     -10.5197      2.00000
      7     -10.2000      2.00000
      8     -10.1379      2.00000
      9     -10.0738      2.00000
     10     -10.0465      2.00000
     11      -8.5268      2.00000
     12      -8.2240      2.00000
     13      -7.3984      2.00000
     14      -6.8919      2.00000
     15      -2.1489      2.00000
     16      -1.5857      2.00000
     17      -1.3712      2.00000
     18      -1.3471      2.00000
     19      -1.2003      2.00000
     20      -1.0874      2.00000
     21      -1.0441      2.00000
     22      -0.0608      2.00000
     23       0.3540      2.00000
     24       0.8388      2.00000
     25       1.1085      2.00000
     26       1.4575      2.00000
     27       1.6999      2.00000
     28       2.5687      2.00000
     29       2.8807      2.00000
     30       3.3918      2.00000
     31       3.9604      2.00000
     32       6.0048      0.00000
     33       6.3761      0.00000
     34       7.1971      0.00000
     35       8.7536      0.00000
     36       8.9662      0.00000
     37       9.6061      0.00000
     38       9.9077      0.00000
     39      10.4213      0.00000
     40      11.0433      0.00000

 k-point    98 :      -0.3333    0.0667    0.4000
  band No.  band energies     occupation 
      1     -11.0586      2.00000
      2     -10.7990      2.00000
      3     -10.6611      2.00000
      4     -10.5802      2.00000
      5     -10.5299      2.00000
      6     -10.4925      2.00000
      7     -10.2047      2.00000
      8     -10.1321      2.00000
      9     -10.0911      2.00000
     10     -10.0583      2.00000
     11      -8.7989      2.00000
     12      -8.4459      2.00000
     13      -7.5217      2.00000
     14      -7.0038      2.00000
     15      -1.9963      2.00000
     16      -1.4894      2.00000
     17      -1.3963      2.00000
     18      -1.2576      2.00000
     19      -1.1400      2.00000
     20      -1.0891      2.00000
     21      -0.8588      2.00000
     22       0.2013      2.00000
     23       0.6260      2.00000
     24       1.0633      2.00000
     25       1.3357      2.00000
     26       1.5204      2.00000
     27       1.9368      2.00000
     28       2.7519      2.00000
     29       2.9298      2.00000
     30       3.5841      2.00000
     31       4.0384      2.00000
     32       6.0721      0.00000
     33       6.5027      0.00000
     34       7.4248      0.00000
     35       8.8051      0.00000
     36       9.1234      0.00000
     37       9.5721      0.00000
     38      10.0540      0.00000
     39      10.3322      0.00000
     40      10.8871      0.00000

 k-point    99 :      -0.2667    0.0667    0.4000
  band No.  band energies     occupation 
      1     -11.0097      2.00000
      2     -10.7904      2.00000
      3     -10.6741      2.00000
      4     -10.5713      2.00000
      5     -10.5364      2.00000
      6     -10.4306      2.00000
      7     -10.2122      2.00000
      8     -10.1330      2.00000
      9     -10.1044      2.00000
     10     -10.0704      2.00000
     11      -9.0721      2.00000
     12      -8.6748      2.00000
     13      -7.6828      2.00000
     14      -7.1306      2.00000
     15      -1.9486      2.00000
     16      -1.5166      2.00000
     17      -1.4402      2.00000
     18      -1.1876      2.00000
     19      -1.0965      2.00000
     20      -1.0773      2.00000
     21      -0.4362      2.00000
     22       0.5179      2.00000
     23       0.9109      2.00000
     24       1.3793      2.00000
     25       1.6792      2.00000
     26       1.6948      2.00000
     27       2.2646      2.00000
     28       2.9694      2.00000
     29       3.0131      2.00000
     30       3.8269      2.00000
     31       4.0486      2.00000
     32       6.0418      0.00000
     33       6.7076      0.00000
     34       7.7380      0.00000
     35       8.6677      0.00000
     36       9.0849      0.00000
     37       9.3456      0.00000
     38       9.8860      0.00000
     39      10.3140      0.00000
     40      10.7674      0.00000

 k-point   100 :      -0.2000    0.0667    0.4000
  band No.  band energies     occupation 
      1     -10.9652      2.00000
      2     -10.7755      2.00000
      3     -10.6889      2.00000
      4     -10.5623      2.00000
      5     -10.5404      2.00000
      6     -10.3599      2.00000
      7     -10.2204      2.00000
      8     -10.1533      2.00000
      9     -10.1021      2.00000
     10     -10.0785      2.00000
     11      -9.3134      2.00000
     12      -8.8697      2.00000
     13      -7.8497      2.00000
     14      -7.2487      2.00000
     15      -1.9690      2.00000
     16      -1.5353      2.00000
     17      -1.4831      2.00000
     18      -1.1537      2.00000
     19      -1.0983      2.00000
     20      -1.0542      2.00000
     21      -0.1495      2.00000
     22       0.9397      2.00000
     23       1.3622      2.00000
     24       1.7417      2.00000
     25       1.9341      2.00000
     26       1.9990      2.00000
     27       2.6099      2.00000
     28       2.9755      2.00000
     29       3.4088      2.00000
     30       3.9445      2.00000
     31       4.1142      2.00000
     32       5.9268      0.00000
     33       6.7767      0.00000
     34       8.0462      0.00000
     35       8.4050      0.00000
     36       8.7176      0.00000
     37       9.0639      0.00000
     38       9.6147      0.00000
     39      10.1271      0.00000
     40      10.4752      0.00000

 k-point   101 :       0.1333    0.1333    0.4000
  band No.  band energies     occupation 
      1     -11.0015      2.00000
      2     -10.7887      2.00000
      3     -10.6772      2.00000
      4     -10.5687      2.00000
      5     -10.5386      2.00000
      6     -10.4123      2.00000
      7     -10.2287      2.00000
      8     -10.1284      2.00000
      9     -10.1082      2.00000
     10     -10.0714      2.00000
     11      -9.1075      2.00000
     12      -8.7024      2.00000
     13      -7.7094      2.00000
     14      -7.1481      2.00000
     15      -1.9468      2.00000
     16      -1.5196      2.00000
     17      -1.4465      2.00000
     18      -1.1784      2.00000
     19      -1.0979      2.00000
     20      -1.0635      2.00000
     21      -0.3684      2.00000
     22       0.5845      2.00000
     23       1.0458      2.00000
     24       1.3573      2.00000
     25       1.5217      2.00000
     26       1.7984      2.00000
     27       2.5958      2.00000
     28       2.6778      2.00000
     29       3.0975      2.00000
     30       3.7835      2.00000
     31       4.0784      2.00000
     32       6.0835      0.00000
     33       6.8370      0.00000
     34       8.0567      0.00000
     35       8.5953      0.00000
     36       8.8593      0.00000
     37       9.3245      0.00000
     38       9.8102      0.00000
     39      10.3331      0.00000
     40      10.7377      0.00000

 k-point   102 :       0.2000    0.1333    0.4000
  band No.  band energies     occupation 
      1     -11.0452      2.00000
      2     -10.7960      2.00000
      3     -10.6662      2.00000
      4     -10.5747      2.00000
      5     -10.5354      2.00000
      6     -10.4658      2.00000
      7     -10.2335      2.00000
      8     -10.1193      2.00000
      9     -10.1050      2.00000
     10     -10.0597      2.00000
     11      -8.8539      2.00000
     12      -8.4884      2.00000
     13      -7.5610      2.00000
     14      -7.0299      2.00000
     15      -1.9651      2.00000
     16      -1.4891      2.00000
     17      -1.4047      2.00000
     18      -1.2220      2.00000
     19      -1.1133      2.00000
     20      -1.0844      2.00000
     21      -0.7319      2.00000
     22       0.2684      2.00000
     23       0.7521      2.00000
     24       1.0426      2.00000
     25       1.2460      2.00000
     26       1.4833      2.00000
     27       2.2718      2.00000
     28       2.5578      2.00000
     29       2.8906      2.00000
     30       3.4744      2.00000
     31       4.1024      2.00000
     32       6.1928      0.00000
     33       6.7453      0.00000
     34       7.8838      0.00000
     35       8.7630      0.00000
     36       9.2790      0.00000
     37       9.4375      0.00000
     38       9.9589      0.00000
     39      10.4240      0.00000
     40      10.8522      0.00000

 k-point   103 :       0.2667    0.1333    0.4000
  band No.  band energies     occupation 
      1     -11.0861      2.00000
      2     -10.8014      2.00000
      3     -10.6582      2.00000
      4     -10.5804      2.00000
      5     -10.5320      2.00000
      6     -10.5083      2.00000
      7     -10.2358      2.00000
      8     -10.1253      2.00000
      9     -10.0891      2.00000
     10     -10.0490      2.00000
     11      -8.5798      2.00000
     12      -8.2607      2.00000
     13      -7.4363      2.00000
     14      -6.9155      2.00000
     15      -2.0633      2.00000
     16      -1.4746      2.00000
     17      -1.3699      2.00000
     18      -1.3460      2.00000
     19      -1.1612      2.00000
     20      -1.0819      2.00000
     21      -1.0110      2.00000
     22       0.0214      2.00000
     23       0.4523      2.00000
     24       0.8005      2.00000
     25       1.0447      2.00000
     26       1.2345      2.00000
     27       2.0173      2.00000
     28       2.4004      2.00000
     29       2.7793      2.00000
     30       3.2237      2.00000
     31       4.0517      2.00000
     32       6.2036      0.00000
     33       6.6182      0.00000
     34       7.6876      0.00000
     35       8.8739      0.00000
     36       9.3504      0.00000
     37       9.4509      0.00000
     38      10.0325      0.00000
     39      10.5131      0.00000
     40      10.7716      0.00000

 k-point   104 :       0.3333    0.1333    0.4000
  band No.  band energies     occupation 
      1     -11.1168      2.00000
      2     -10.8070      2.00000
      3     -10.6535      2.00000
      4     -10.5865      2.00000
      5     -10.5420      2.00000
      6     -10.5203      2.00000
      7     -10.2372      2.00000
      8     -10.1309      2.00000
      9     -10.0727      2.00000
     10     -10.0439      2.00000
     11      -8.3251      2.00000
     12      -8.0689      2.00000
     13      -7.3587      2.00000
     14      -6.8270      2.00000
     15      -2.2247      2.00000
     16      -1.7001      2.00000
     17      -1.3643      2.00000
     18      -1.3358      2.00000
     19      -1.2058      2.00000
     20      -1.0991      2.00000
     21      -0.9921      2.00000
     22      -0.1700      2.00000
     23       0.1746      2.00000
     24       0.6082      2.00000
     25       0.8041      2.00000
     26       1.2243      2.00000
     27       1.8662      2.00000
     28       2.2684      2.00000
     29       2.7222      2.00000
     30       3.0499      2.00000
     31       3.9606      2.00000
     32       6.1215      0.00000
     33       6.5734      0.00000
     34       7.5255      0.00000
     35       8.8720      0.00000
     36       9.2318      0.00000
     37       9.3897      0.00000
     38      10.0025      0.00000
     39      10.4938      0.00000
     40      10.9689      0.00000

 k-point   105 :       0.4000    0.1333    0.4000
  band No.  band energies     occupation 
      1     -11.1331      2.00000
      2     -10.8112      2.00000
      3     -10.6514      2.00000
      4     -10.5915      2.00000
      5     -10.5519      2.00000
      6     -10.5182      2.00000
      7     -10.2379      2.00000
      8     -10.1341      2.00000
      9     -10.0592      2.00000
     10     -10.0455      2.00000
     11      -8.1536      2.00000
     12      -7.9672      2.00000
     13      -7.3289      2.00000
     14      -6.7797      2.00000
     15      -2.3497      2.00000
     16      -1.8796      2.00000
     17      -1.3475      2.00000
     18      -1.3214      2.00000
     19      -1.2298      2.00000
     20      -1.0890      2.00000
     21      -0.8833      2.00000
     22      -0.3445      2.00000
     23       0.0102      2.00000
     24       0.4921      2.00000
     25       0.6732      2.00000
     26       1.3092      2.00000
     27       1.7451      2.00000
     28       2.2058      2.00000
     29       2.7033      2.00000
     30       2.9597      2.00000
     31       3.8932      2.00000
     32       6.0586      0.00000
     33       6.5650      0.00000
     34       7.4188      0.00000
     35       8.8560      0.00000
     36       9.1537      0.00000
     37       9.3381      0.00000
     38       9.9601      0.00000
     39      10.4825      0.00000
     40      11.0309      0.00000

 k-point   106 :       0.4667    0.1333    0.4000
  band No.  band energies     occupation 
      1     -11.1331      2.00000
      2     -10.8112      2.00000
      3     -10.6514      2.00000
      4     -10.5915      2.00000
      5     -10.5519      2.00000
      6     -10.5182      2.00000
      7     -10.2379      2.00000
      8     -10.1341      2.00000
      9     -10.0592      2.00000
     10     -10.0455      2.00000
     11      -8.1527      2.00000
     12      -7.9684      2.00000
     13      -7.3285      2.00000
     14      -6.7797      2.00000
     15      -2.3487      2.00000
     16      -1.8826      2.00000
     17      -1.3483      2.00000
     18      -1.3170      2.00000
     19      -1.2314      2.00000
     20      -1.0894      2.00000
     21      -0.8866      2.00000
     22      -0.3416      2.00000
     23       0.0267      2.00000
     24       0.4771      2.00000
     25       0.6519      2.00000
     26       1.4128      2.00000
     27       1.6304      2.00000
     28       2.2450      2.00000
     29       2.6840      2.00000
     30       2.9628      2.00000
     31       3.9060      2.00000
     32       6.0811      0.00000
     33       6.5385      0.00000
     34       7.3996      0.00000
     35       8.8795      0.00000
     36       9.1488      0.00000
     37       9.3552      0.00000
     38       9.9360      0.00000
     39      10.4995      0.00000
     40      11.0171      0.00000

 k-point   107 :      -0.4667    0.1333    0.4000
  band No.  band energies     occupation 
      1     -11.1168      2.00000
      2     -10.8070      2.00000
      3     -10.6535      2.00000
      4     -10.5865      2.00000
      5     -10.5420      2.00000
      6     -10.5203      2.00000
      7     -10.2372      2.00000
      8     -10.1309      2.00000
      9     -10.0727      2.00000
     10     -10.0439      2.00000
     11      -8.3236      2.00000
     12      -8.0714      2.00000
     13      -7.3573      2.00000
     14      -6.8274      2.00000
     15      -2.2223      2.00000
     16      -1.7108      2.00000
     17      -1.3621      2.00000
     18      -1.3248      2.00000
     19      -1.2100      2.00000
     20      -1.1020      2.00000
     21      -0.9980      2.00000
     22      -0.1538      2.00000
     23       0.2154      2.00000
     24       0.5499      2.00000
     25       0.7521      2.00000
     26       1.3972      2.00000
     27       1.6837      2.00000
     28       2.3755      2.00000
     29       2.6635      2.00000
     30       3.0549      2.00000
     31       3.9878      2.00000
     32       6.1771      0.00000
     33       6.5062      0.00000
     34       7.4818      0.00000
     35       8.9156      0.00000
     36       9.2432      0.00000
     37       9.4282      0.00000
     38       9.9521      0.00000
     39      10.4946      0.00000
     40      11.0011      0.00000

 k-point   108 :      -0.4000    0.1333    0.4000
  band No.  band energies     occupation 
      1     -11.0861      2.00000
      2     -10.8014      2.00000
      3     -10.6582      2.00000
      4     -10.5804      2.00000
      5     -10.5320      2.00000
      6     -10.5082      2.00000
      7     -10.2358      2.00000
      8     -10.1253      2.00000
      9     -10.0891      2.00000
     10     -10.0490      2.00000
     11      -8.5785      2.00000
     12      -8.2630      2.00000
     13      -7.4344      2.00000
     14      -6.9164      2.00000
     15      -2.0607      2.00000
     16      -1.4925      2.00000
     17      -1.3734      2.00000
     18      -1.3274      2.00000
     19      -1.1636      2.00000
     20      -1.0842      2.00000
     21      -1.0135      2.00000
     22       0.0630      2.00000
     23       0.4725      2.00000
     24       0.7125      2.00000
     25       1.0007      2.00000
     26       1.3486      2.00000
     27       1.9161      2.00000
     28       2.5395      2.00000
     29       2.6913      2.00000
     30       3.2253      2.00000
     31       4.0740      2.00000
     32       6.2369      0.00000
     33       6.5691      0.00000
     34       7.6511      0.00000
     35       8.8986      0.00000
     36       9.3568      0.00000
     37       9.5249      0.00000
     38      10.0120      0.00000
     39      10.4174      0.00000
     40      10.8531      0.00000

 k-point   109 :      -0.3333    0.1333    0.4000
  band No.  band energies     occupation 
      1     -11.0452      2.00000
      2     -10.7960      2.00000
      3     -10.6662      2.00000
      4     -10.5747      2.00000
      5     -10.5354      2.00000
      6     -10.4658      2.00000
      7     -10.2335      2.00000
      8     -10.1193      2.00000
      9     -10.1050      2.00000
     10     -10.0597      2.00000
     11      -8.8532      2.00000
     12      -8.4897      2.00000
     13      -7.5598      2.00000
     14      -7.0305      2.00000
     15      -1.9638      2.00000
     16      -1.4905      2.00000
     17      -1.4048      2.00000
     18      -1.2254      2.00000
     19      -1.1155      2.00000
     20      -1.0867      2.00000
     21      -0.7264      2.00000
     22       0.3151      2.00000
     23       0.7050      2.00000
     24       1.0075      2.00000
     25       1.2786      2.00000
     26       1.4791      2.00000
     27       2.2540      2.00000
     28       2.6253      2.00000
     29       2.8498      2.00000
     30       3.4720      2.00000
     31       4.1109      2.00000
     32       6.1895      0.00000
     33       6.7370      0.00000
     34       7.8805      0.00000
     35       8.7456      0.00000
     36       9.2504      0.00000
     37       9.5452      0.00000
     38       9.9528      0.00000
     39      10.3653      0.00000
     40      10.7396      0.00000

 k-point   110 :       0.2000    0.2000    0.4000
  band No.  band energies     occupation 
      1     -11.0804      2.00000
      2     -10.7990      2.00000
      3     -10.6609      2.00000
      4     -10.5761      2.00000
      5     -10.5355      2.00000
      6     -10.4949      2.00000
      7     -10.2561      2.00000
      8     -10.1140      2.00000
      9     -10.1014      2.00000
     10     -10.0495      2.00000
     11      -8.5956      2.00000
     12      -8.2741      2.00000
     13      -7.4494      2.00000
     14      -6.9248      2.00000
     15      -2.0288      2.00000
     16      -1.4659      2.00000
     17      -1.3694      2.00000
     18      -1.3151      2.00000
     19      -1.1490      2.00000
     20      -1.0751      2.00000
     21      -0.9849      2.00000
     22       0.1140      2.00000
     23       0.4544      2.00000
     24       0.6768      2.00000
     25       1.0096      2.00000
     26       1.2711      2.00000
     27       2.1527      2.00000
     28       2.2719      2.00000
     29       2.7109      2.00000
     30       3.1395      2.00000
     31       4.1090      2.00000
     32       6.3222      0.00000
     33       6.7032      0.00000
     34       8.0020      0.00000
     35       8.7276      0.00000
     36       9.5212      0.00000
     37       9.6865      0.00000
     38      10.0493      0.00000
     39      10.5045      0.00000
     40      10.7490      0.00000

 k-point   111 :       0.2667    0.2000    0.4000
  band No.  band energies     occupation 
      1     -11.1094      2.00000
      2     -10.8008      2.00000
      3     -10.6582      2.00000
      4     -10.5767      2.00000
      5     -10.5370      2.00000
      6     -10.5151      2.00000
      7     -10.2745      2.00000
      8     -10.1162      2.00000
      9     -10.0889      2.00000
     10     -10.0455      2.00000
     11      -8.3313      2.00000
     12      -8.0679      2.00000
     13      -7.3784      2.00000
     14      -6.8332      2.00000
     15      -2.1426      2.00000
     16      -1.6056      2.00000
     17      -1.3619      2.00000
     18      -1.3371      2.00000
     19      -1.1734      2.00000
     20      -1.1141      2.00000
     21      -1.0022      2.00000
     22      -0.0454      2.00000
     23       0.1604      2.00000
     24       0.4209      2.00000
     25       0.7748      2.00000
     26       1.1867      2.00000
     27       1.9581      2.00000
     28       2.0676      2.00000
     29       2.6060      2.00000
     30       2.9186      2.00000
     31       4.0484      2.00000
     32       6.3646      0.00000
     33       6.6422      0.00000
     34       7.9697      0.00000
     35       8.7962      0.00000
     36       9.5197      0.00000
     37       9.7393      0.00000
     38      10.1585      0.00000
     39      10.6242      0.00000
     40      10.9863      0.00000

 k-point   112 :       0.3333    0.2000    0.4000
  band No.  band energies     occupation 
      1     -11.1283      2.00000
      2     -10.8020      2.00000
      3     -10.6572      2.00000
      4     -10.5778      2.00000
      5     -10.5390      2.00000
      6     -10.5250      2.00000
      7     -10.2860      2.00000
      8     -10.1189      2.00000
      9     -10.0736      2.00000
     10     -10.0491      2.00000
     11      -8.1082      2.00000
     12      -7.9241      2.00000
     13      -7.3555      2.00000
     14      -6.7724      2.00000
     15      -2.2561      2.00000
     16      -1.8113      2.00000
     17      -1.3461      2.00000
     18      -1.3199      2.00000
     19      -1.1996      2.00000
     20      -1.1111      2.00000
     21      -0.8986      2.00000
     22      -0.2039      2.00000
     23      -0.0059      2.00000
     24       0.2192      2.00000
     25       0.5603      2.00000
     26       1.2008      2.00000
     27       1.8088      2.00000
     28       1.9509      2.00000
     29       2.5599      2.00000
     30       2.8037      2.00000
     31       3.9722      2.00000
     32       6.3107      0.00000
     33       6.6376      0.00000
     34       7.8871      0.00000
     35       8.8495      0.00000
     36       9.4917      0.00000
     37       9.6721      0.00000
     38      10.1676      0.00000
     39      10.6752      0.00000
     40      11.2044      0.00000

 k-point   113 :       0.4000    0.2000    0.4000
  band No.  band energies     occupation 
      1     -11.1349      2.00000
      2     -10.8025      2.00000
      3     -10.6570      2.00000
      4     -10.5787      2.00000
      5     -10.5398      2.00000
      6     -10.5278      2.00000
      7     -10.2899      2.00000
      8     -10.1200      2.00000
      9     -10.0600      2.00000
     10     -10.0585      2.00000
     11      -8.0081      2.00000
     12      -7.8807      2.00000
     13      -7.3561      2.00000
     14      -6.7513      2.00000
     15      -2.3032      2.00000
     16      -1.8942      2.00000
     17      -1.3425      2.00000
     18      -1.3126      2.00000
     19      -1.2089      2.00000
     20      -1.1033      2.00000
     21      -0.8181      2.00000
     22      -0.3236      2.00000
     23       0.0033      2.00000
     24       0.1335      2.00000
     25       0.4301      2.00000
     26       1.2672      2.00000
     27       1.7063      2.00000
     28       1.9312      2.00000
     29       2.5385      2.00000
     30       2.7764      2.00000
     31       3.9417      2.00000
     32       6.2842      0.00000
     33       6.6349      0.00000
     34       7.8443      0.00000
     35       8.8760      0.00000
     36       9.4479      0.00000
     37       9.6667      0.00000
     38      10.1489      0.00000
     39      10.7263      0.00000
     40      11.2396      0.00000

 k-point   114 :       0.4667    0.2000    0.4000
  band No.  band energies     occupation 
      1     -11.1283      2.00000
      2     -10.8020      2.00000
      3     -10.6572      2.00000
      4     -10.5779      2.00000
      5     -10.5390      2.00000
      6     -10.5250      2.00000
      7     -10.2860      2.00000
      8     -10.1189      2.00000
      9     -10.0736      2.00000
     10     -10.0491      2.00000
     11      -8.1074      2.00000
     12      -7.9253      2.00000
     13      -7.3551      2.00000
     14      -6.7724      2.00000
     15      -2.2545      2.00000
     16      -1.8160      2.00000
     17      -1.3476      2.00000
     18      -1.3138      2.00000
     19      -1.1999      2.00000
     20      -1.1127      2.00000
     21      -0.9027      2.00000
     22      -0.2173      2.00000
     23       0.0750      2.00000
     24       0.1957      2.00000
     25       0.4743      2.00000
     26       1.3302      2.00000
     27       1.6627      2.00000
     28       2.0138      2.00000
     29       2.5529      2.00000
     30       2.8028      2.00000
     31       3.9842      2.00000
     32       6.3352      0.00000
     33       6.6079      0.00000
     34       7.8737      0.00000
     35       8.8653      0.00000
     36       9.4456      0.00000
     37       9.7105      0.00000
     38      10.1646      0.00000
     39      10.7384      0.00000
     40      11.2027      0.00000

 k-point   115 :      -0.4667    0.2000    0.4000
  band No.  band energies     occupation 
      1     -11.1094      2.00000
      2     -10.8008      2.00000
      3     -10.6582      2.00000
      4     -10.5767      2.00000
      5     -10.5370      2.00000
      6     -10.5151      2.00000
      7     -10.2745      2.00000
      8     -10.1162      2.00000
      9     -10.0889      2.00000
     10     -10.0455      2.00000
     11      -8.3306      2.00000
     12      -8.0690      2.00000
     13      -7.3777      2.00000
     14      -6.8334      2.00000
     15      -2.1412      2.00000
     16      -1.6128      2.00000
     17      -1.3621      2.00000
     18      -1.3292      2.00000
     19      -1.1731      2.00000
     20      -1.1175      2.00000
     21      -1.0044      2.00000
     22      -0.0524      2.00000
     23       0.2469      2.00000
     24       0.3588      2.00000
     25       0.7059      2.00000
     26       1.2871      2.00000
     27       1.8309      2.00000
     28       2.1626      2.00000
     29       2.5832      2.00000
     30       2.9214      2.00000
     31       4.0593      2.00000
     32       6.3899      0.00000
     33       6.6110      0.00000
     34       7.9528      0.00000
     35       8.8108      0.00000
     36       9.5064      0.00000
     37       9.7375      0.00000
     38      10.2212      0.00000
     39      10.5974      0.00000
     40      10.9916      0.00000

 k-point   116 :       0.2667    0.2667    0.4000
  band No.  band energies     occupation 
      1     -11.1261      2.00000
      2     -10.7982      2.00000
      3     -10.6596      2.00000
      4     -10.5707      2.00000
      5     -10.5399      2.00000
      6     -10.5197      2.00000
      7     -10.3096      2.00000
      8     -10.1070      2.00000
      9     -10.0859      2.00000
     10     -10.0496      2.00000
     11      -8.0928      2.00000
     12      -7.9040      2.00000
     13      -7.3687      2.00000
     14      -6.7698      2.00000
     15      -2.2099      2.00000
     16      -1.7767      2.00000
     17      -1.3435      2.00000
     18      -1.3214      2.00000
     19      -1.1762      2.00000
     20      -1.1287      2.00000
     21      -0.9084      2.00000
     22      -0.1296      2.00000
     23      -0.0339      2.00000
     24       0.0855      2.00000
     25       0.5537      2.00000
     26       1.1943      2.00000
     27       1.7136      2.00000
     28       1.9110      2.00000
     29       2.4770      2.00000
     30       2.7770      2.00000
     31       4.0073      2.00000
     32       6.4239      0.00000
     33       6.6388      0.00000
     34       8.1129      0.00000
     35       8.8076      0.00000
     36       9.5870      0.00000
     37       9.8261      0.00000
     38      10.6748      0.00000
     39      10.6830      0.00000
     40      11.2922      0.00000

 k-point   117 :       0.3333    0.2667    0.4000
  band No.  band energies     occupation 
      1     -11.1348      2.00000
      2     -10.7959      2.00000
      3     -10.6609      2.00000
      4     -10.5658      2.00000
      5     -10.5408      2.00000
      6     -10.5225      2.00000
      7     -10.3309      2.00000
      8     -10.1031      2.00000
      9     -10.0764      2.00000
     10     -10.0590      2.00000
     11      -7.9254      2.00000
     12      -7.8117      2.00000
     13      -7.3934      2.00000
     14      -6.7357      2.00000
     15      -2.2458      2.00000
     16      -1.8857      2.00000
     17      -1.3363      2.00000
     18      -1.3196      2.00000
     19      -1.1832      2.00000
     20      -1.1176      2.00000
     21      -0.7981      2.00000
     22      -0.2629      2.00000
     23      -0.1234      2.00000
     24      -0.0670      2.00000
     25       0.4674      2.00000
     26       1.0960      2.00000
     27       1.5761      2.00000
     28       1.8937      2.00000
     29       2.3833      2.00000
     30       2.7491      2.00000
     31       3.9623      2.00000
     32       6.3906      0.00000
     33       6.6614      0.00000
     34       8.1427      0.00000
     35       8.8433      0.00000
     36       9.6676      0.00000
     37       9.8334      0.00000
     38      10.6640      0.00000
     39      10.9475      0.00000
     40      11.5780      0.00000

 k-point   118 :       0.4000    0.2667    0.4000
  band No.  band energies     occupation 
      1     -11.1348      2.00000
      2     -10.7959      2.00000
      3     -10.6609      2.00000
      4     -10.5658      2.00000
      5     -10.5408      2.00000
      6     -10.5225      2.00000
      7     -10.3309      2.00000
      8     -10.1031      2.00000
      9     -10.0764      2.00000
     10     -10.0590      2.00000
     11      -7.9252      2.00000
     12      -7.8120      2.00000
     13      -7.3934      2.00000
     14      -6.7357      2.00000
     15      -2.2454      2.00000
     16      -1.8867      2.00000
     17      -1.3369      2.00000
     18      -1.3184      2.00000
     19      -1.1828      2.00000
     20      -1.1180      2.00000
     21      -0.7992      2.00000
     22      -0.2672      2.00000
     23      -0.1254      2.00000
     24      -0.0477      2.00000
     25       0.4422      2.00000
     26       1.1234      2.00000
     27       1.5630      2.00000
     28       1.8896      2.00000
     29       2.3862      2.00000
     30       2.7479      2.00000
     31       3.9643      2.00000
     32       6.3935      0.00000
     33       6.6577      0.00000
     34       8.1418      0.00000
     35       8.8473      0.00000
     36       9.6310      0.00000
     37       9.8608      0.00000
     38      10.6639      0.00000
     39      11.0178      0.00000
     40      11.4385      0.00000

 k-point   119 :       0.3333    0.3333    0.4000
  band No.  band energies     occupation 
      1     -11.1368      2.00000
      2     -10.7931      2.00000
      3     -10.6624      2.00000
      4     -10.5527      2.00000
      5     -10.5527      2.00000
      6     -10.5161      2.00000
      7     -10.3505      2.00000
      8     -10.0891      2.00000
      9     -10.0841      2.00000
     10     -10.0644      2.00000
     11      -7.8523      2.00000
     12      -7.7582      2.00000
     13      -7.4271      2.00000
     14      -6.7229      2.00000
     15      -2.2319      2.00000
     16      -1.9135      2.00000
     17      -1.3307      2.00000
     18      -1.3255      2.00000
     19      -1.1758      2.00000
     20      -1.1183      2.00000
     21      -0.7572      2.00000
     22      -0.2742      2.00000
     23      -0.2473      2.00000
     24      -0.1094      2.00000
     25       0.4880      2.00000
     26       0.9924      2.00000
     27       1.4527      2.00000
     28       1.9435      2.00000
     29       2.2944      2.00000
     30       2.7470      2.00000
     31       3.9544      2.00000
     32       6.3996      0.00000
     33       6.6691      0.00000
     34       8.2205      0.00000
     35       8.8543      0.00000
     36       9.7727      0.00000
     37       9.8553      0.00000
     38      10.9353      0.00000
     39      11.1679      0.00000
     40      11.6129      0.00000


--------------------------------------------------------------------------------------------------------


 soft charge-density along one line, spin component           1
         0         1         2         3         4         5         6         7         8         9
 total charge-density along one line
 
 pseudopotential strength for first ion, spin component:           1
 39.874  45.793  -0.000   0.059  -0.000  -0.000   0.080  -0.000
 45.793  52.593  -0.000   0.067  -0.000  -0.000   0.092  -0.000
 -0.000  -0.000   8.314  -0.000  -0.000  11.269  -0.000  -0.000
  0.059   0.067  -0.000   8.305   0.000  -0.000  11.257   0.000
 -0.000  -0.000  -0.000   0.000   8.314  -0.000   0.000  11.269
 -0.000  -0.000  11.269  -0.000  -0.000  15.293  -0.000  -0.000
  0.080   0.092  -0.000  11.257   0.000  -0.000  15.277   0.000
 -0.000  -0.000  -0.000   0.000  11.269  -0.000   0.000  15.293
 total augmentation occupancy for first ion, spin component:           1
 12.657  -8.766   0.000   3.255  -0.000   0.000  -1.001   0.000
 -8.766   7.125   0.000  -2.896  -0.000   0.000   0.793  -0.000
  0.000   0.000   3.572   0.000   0.000  -1.039   0.000   0.000
  3.255  -2.896   0.000   3.087  -0.000   0.000  -0.738   0.000
  0.000   0.000   0.000   0.000   3.572   0.000   0.000  -1.039
  0.000   0.000  -1.039   0.000   0.000   0.353   0.000   0.000
 -1.001   0.793   0.000  -0.738   0.000   0.000   0.229   0.000
  0.000  -0.000   0.000   0.000  -1.039   0.000   0.000   0.353


------------------------ aborting loop because EDIFF is reached ----------------------------------------


    CHARGE:  cpu time    0.4997: real time    0.5009
    FORLOC:  cpu time    0.0262: real time    0.0263
    FORNL :  cpu time    1.7206: real time    2.0171
    STRESS:  cpu time    6.1557: real time    7.0495
    FORCOR:  cpu time    0.1537: real time    0.1544
    FORHAR:  cpu time    0.0379: real time    0.0380
    MIXING:  cpu time    0.0017: real time    0.0017
    OFIELD:  cpu time    0.0001: real time    0.0001

 ---------------------------------------------------------------------------------------------

         DFTD3 V3.0 Rev 1        
 IVDW         = 12
 DF pbe       
 parameters
 VDW_S6       =    1.0000
 VDW_S8       =    0.7875
 VDW_A1       =    0.4289
 VDW_A2       =    4.4407
 k1-k3        =   16.0000    1.3333   -4.0000
 VDW_RADIUS   =   50.2022 A
 VDW_CNRADIUS =   21.1671 A
 Edisp (eV)   -2.11625

 E6    (eV) :    -1.2351
 E8    (eV) :    -0.8811
 % E8        : 41.64
    FORVDW:  cpu time    0.0403: real time    0.1194

  FORCE on cell =-STRESS in cart. coord.  units (eV):
  Direction    XX          YY          ZZ          XY          YZ          ZX
  --------------------------------------------------------------------------------------
  Alpha Z   146.42803   146.42803   146.42803
  Ewald   -1201.78961 -1201.78960 -1670.27428    -0.00002    -0.00000    -0.00000
  Hartree   746.09806   746.09805   409.24731     0.00000    -0.00001     0.00000
  E(xc)    -289.49027  -289.49027  -289.63271     0.00000    -0.00000    -0.00000
  Local    -617.13768  -617.13786   183.43126    -0.00014     0.00001     0.00000
  n-local   331.76092   336.96742   331.70958    -5.85454    -0.66957    -1.15751
  augment   290.75790   290.75807   290.81335     0.00015    -0.00000     0.00000
  Kinetic   586.46092   599.68000   600.65659   -13.28618    -0.08097     0.36619
  Fock        0.00000     0.00000     0.00000     0.00000     0.00000     0.00000
  vdW        -2.30537    -2.30537    -2.34218    -0.00000     0.00000     0.00000
  -------------------------------------------------------------------------------------
  Total      -0.00432    -0.00432     0.03696     0.00000     0.00000     0.00000
  in kB      -0.04375    -0.04375     0.37417     0.00000     0.00000     0.00000
  external pressure =        0.10 kB  Pullay stress =        0.00 kB


 VOLUME and BASIS-vectors are now :
 -----------------------------------------------------------------------------
  energy-cutoff  :      500.00
  volume of cell :      158.25
      direct lattice vectors                 reciprocal lattice vectors
     3.878284292  0.000000000  0.000000000     0.257845976  0.148867444  0.000000000
    -1.939142146  3.358692720  0.000000000     0.000000000  0.297734888  0.000000000
     0.000000000  0.000000000 12.148433133     0.000000000  0.000000000  0.082315142

  length of vectors
     3.878284292  3.878284292 12.148433133     0.297734888  0.297734888  0.082315142


 FORCES acting on ions
    electron-ion (+dipol)            ewald-force                    non-local-force                 convergence-correction
 -----------------------------------------------------------------------------------------------
   0.120E-06 -.424E-05 0.994E+02   0.272E-07 0.782E-05 -.106E+03   0.000E+00 0.000E+00 0.678E+01   0.449E-09 -.568E-09 0.213E-02
   -.113E-05 -.387E-04 0.710E+02   0.389E-05 -.255E-05 -.680E+02   -.222E-15 0.000E+00 -.296E+01   0.222E-09 -.459E-09 -.130E-03
   -.275E-05 -.125E-05 -.668E+02   0.550E-05 0.322E-05 0.689E+02   0.000E+00 0.000E+00 -.208E+01   -.425E-09 -.633E-10 -.188E-02
   -.263E-04 -.138E-04 -.114E+03   -.107E-04 -.566E-05 0.118E+03   -.833E-16 0.555E-16 -.340E+01   -.682E-09 -.266E-09 -.523E-03
   0.845E-06 -.228E-04 0.396E+02   0.411E-06 -.780E-05 -.393E+02   0.833E-16 -.555E-16 -.359E+00   -.613E-09 0.136E-08 0.408E-02
   -.141E-04 -.699E-05 0.499E+02   -.953E-05 -.678E-06 -.472E+02   0.416E-16 0.000E+00 -.274E+01   0.695E-09 -.122E-08 -.798E-03
   0.199E-05 0.481E-06 -.717E+02   0.104E-04 0.565E-05 0.742E+02   -.139E-16 0.278E-16 -.252E+01   -.380E-08 0.196E-08 -.623E-03
 -----------------------------------------------------------------------------------------------
   -.414E-04 -.873E-04 0.727E+01   -.188E-13 0.227E-13 0.284E-13   -.194E-15 0.278E-16 -.727E+01   -.415E-08 0.738E-09 0.225E-02
 
 
 POSITION                                       TOTAL-FORCE (eV/Angst)
 -----------------------------------------------------------------------------------
      0.00000      0.00000      1.17580         0.000000      0.000000      0.004687
     -0.00000      2.23913      4.71353        -0.000000      0.000000      0.001608
      0.00000      0.00000      7.50405         0.000000      0.000000      0.008516
      1.93914      1.11956     10.59566        -0.000000      0.000000     -0.003679
     -0.00000      2.23913      2.26258         0.000000     -0.000000     -0.006140
      1.93914      1.11956      6.23871         0.000000      0.000000     -0.001160
      0.00000      0.00000     10.04133        -0.000000      0.000000     -0.003833
 -----------------------------------------------------------------------------------
    total drift:                               -0.000041     -0.000087     -0.000178


--------------------------------------------------------------------------------------------------------



  FREE ENERGIE OF THE ION-ELECTRON SYSTEM (eV)
  ---------------------------------------------------
  free  energy   TOTEN  =       -28.75511512 eV

  energy  without entropy=      -28.75511512  energy(sigma->0) =      -28.75511512
 


--------------------------------------------------------------------------------------------------------


    POTLOK:  cpu time    0.8372: real time    0.8400


--------------------------------------------------------------------------------------------------------


     LOOP+:  cpu time  289.1908: real time  312.7130
    4ORBIT:  cpu time    0.0000: real time    0.0000
 BZINTS: Fermi energy:  4.539342; 62.000000 electrons
         Band energy:-252.818310;  BLOECHL correction:  0.000000

 total amount of memory used by VASP MPI-rank0   296043. kBytes
=======================================================================

   base      :      30000. kBytes
   nonl-proj :     208552. kBytes
   fftplans  :      10621. kBytes
   grid      :       7388. kBytes
   one-center:        108. kBytes
   wavefun   :      39374. kBytes
 
  
  
 General timing and accounting informations for this job:
 ========================================================
  
                  Total CPU time used (sec):      293.116
                            User time (sec):      273.502
                          System time (sec):       19.614
                         Elapsed time (sec):      357.989
  
                   Maximum memory used (kb):      333320.
                   Average memory used (kb):           0.
  
                          Minor page faults:       636665
                          Major page faults:            3
                 Voluntary context switches:          707
