<?xml version="1.0" encoding="ISO-8859-1"?>
<modeling>
 <generator>
  <i name="program" type="string">vasp </i>
  <i name="version" type="string">5.4.4.18Apr17-6-g9f103f2a35  </i>
  <i name="subversion" type="string">(build Feb 10 2022 16:34:21) complex            parallel </i>
  <i name="platform" type="string">VASP-optcell </i>
  <i name="date" type="string">2026 09 03 </i>
  <i name="time" type="string">14:11:33 </i>
 </generator>
 <incar>
  <i type="string" name="SYSTEM"> ZnIn2S4 bulk k-point convergence</i>
  <i type="int" name="ISTART">     0</i>
  <i type="string" name="PREC">accurate</i>
  <i type="string" name="ALGO"> Normal</i>
  <i type="logical" name="ADDGRID"> T  </i>
  <i type="int" name="ISPIN">     1</i>
  <i type="int" name="ICHARG">     2</i>
  <i type="int" name="NELM">   150</i>
  <i type="int" name="IBRION">    -1</i>
  <i name="EDIFF">      0.00000010</i>
  <i type="int" name="NSW">     0</i>
  <i type="int" name="ISYM">     2</i>
  <i name="ENCUT">    500.00000000</i>
  <i type="logical" name="LREAL"> F  </i>
  <i type="int" name="ISMEAR">    -5</i>
  <i type="logical" name="LWAVE"> F  </i>
  <i type="logical" name="LCHARG"> F  </i>
  <i type="logical" name="LASPH"> T  </i>
  <v type="int" name="KPOINT_BSE">    -1     0     0     0</v>
  <i type="int" name="NELM">   150</i>
  <i type="string" name="GGA"> PE</i>
  <i type="logical" name="LASPH"> T  </i>
 </incar>
 <structure name="primitive_cell" >
  <crystal>
   <varray name="basis" >
    <v>       3.87828429       0.00000000       0.00000000 </v>
    <v>      -1.93914215       3.35869272       0.00000000 </v>
    <v>       0.00000000       0.00000000      12.14843313 </v>
   </varray>
   <i name="volume">    158.24506747 </i>
   <varray name="rec_basis" >
    <v>       0.25784598       0.14886744       0.00000000 </v>
    <v>       0.00000000       0.29773489       0.00000000 </v>
    <v>       0.00000000       0.00000000       0.08231514 </v>
   </varray>
  </crystal>
  <varray name="positions" >
   <v>       0.00000000       0.00000000       0.09678648 </v>
   <v>       0.33333334      -0.33333331       0.18624456 </v>
   <v>       0.00000000       0.00000000      -0.17344651 </v>
   <v>      -0.33333331       0.33333334      -0.12781655 </v>
   <v>       0.33333334      -0.33333331       0.38799482 </v>
   <v>      -0.33333331       0.33333334      -0.48646010 </v>
   <v>       0.00000000       0.00000000      -0.38230274 </v>
  </varray>
 </structure>
 <varray name="primitive_index" >
  <v type="int" >        1 </v>
  <v type="int" >        5 </v>
  <v type="int" >        7 </v>
  <v type="int" >        4 </v>
  <v type="int" >        2 </v>
  <v type="int" >        6 </v>
  <v type="int" >        3 </v>
 </varray>
 <kpoints>
  <generation param="Gamma">
   <v type="int" name="divisions">      15       15        5 </v>
   <v name="usershift">      0.00000000       0.00000000       0.00000000 </v>
   <v name="genvec1">      0.06666667       0.00000000       0.00000000 </v>
   <v name="genvec2">      0.00000000       0.06666667       0.00000000 </v>
   <v name="genvec3">      0.00000000       0.00000000       0.20000000 </v>
   <v name="shift">      0.00000000       0.00000000       0.00000000 </v>
  </generation>
  <varray name="kpointlist" >
   <v>       0.00000000       0.00000000       0.00000000 </v>
   <v>       0.06666667       0.00000000       0.00000000 </v>
   <v>       0.13333333      -0.00000000       0.00000000 </v>
   <v>       0.20000000       0.00000000       0.00000000 </v>
   <v>       0.26666667       0.00000000       0.00000000 </v>
   <v>       0.33333333      -0.00000000       0.00000000 </v>
   <v>       0.40000000       0.00000000       0.00000000 </v>
   <v>       0.46666667       0.00000000       0.00000000 </v>
   <v>       0.06666667       0.06666667       0.00000000 </v>
   <v>       0.13333333       0.06666667       0.00000000 </v>
   <v>       0.20000000       0.06666667       0.00000000 </v>
   <v>       0.26666667       0.06666667       0.00000000 </v>
   <v>       0.33333333       0.06666667       0.00000000 </v>
   <v>       0.40000000       0.06666667       0.00000000 </v>
   <v>       0.46666667       0.06666667       0.00000000 </v>
   <v>       0.13333333       0.13333333       0.00000000 </v>
   <v>       0.20000000       0.13333333       0.00000000 </v>
   <v>       0.26666667       0.13333333       0.00000000 </v>
   <v>       0.33333333       0.13333333       0.00000000 </v>
   <v>       0.40000000       0.13333333       0.00000000 </v>
   <v>       0.20000000       0.20000000       0.00000000 </v>
   <v>       0.26666667       0.20000000       0.00000000 </v>
   <v>       0.33333333       0.20000000       0.00000000 </v>
   <v>       0.40000000       0.20000000       0.00000000 </v>
   <v>       0.26666667       0.26666667       0.00000000 </v>
   <v>       0.33333333       0.26666667       0.00000000 </v>
   <v>       0.33333333       0.33333333       0.00000000 </v>
   <v>       0.00000000       0.00000000       0.20000000 </v>
   <v>       0.06666667       0.00000000       0.20000000 </v>
   <v>       0.13333333      -0.00000000       0.20000000 </v>
   <v>       0.20000000       0.00000000       0.20000000 </v>
   <v>       0.26666667       0.00000000       0.20000000 </v>
   <v>       0.33333333      -0.00000000       0.20000000 </v>
   <v>       0.40000000       0.00000000       0.20000000 </v>
   <v>       0.46666667       0.00000000       0.20000000 </v>
   <v>      -0.46666667       0.00000000       0.20000000 </v>
   <v>      -0.40000000       0.00000000       0.20000000 </v>
   <v>      -0.33333333       0.00000000       0.20000000 </v>
   <v>      -0.26666667       0.00000000       0.20000000 </v>
   <v>      -0.20000000       0.00000000       0.20000000 </v>
   <v>      -0.13333333       0.00000000       0.20000000 </v>
   <v>      -0.06666667       0.00000000       0.20000000 </v>
   <v>       0.06666667       0.06666667       0.20000000 </v>
   <v>       0.13333333       0.06666667       0.20000000 </v>
   <v>       0.20000000       0.06666667       0.20000000 </v>
   <v>       0.26666667       0.06666667       0.20000000 </v>
   <v>       0.33333333       0.06666667       0.20000000 </v>
   <v>       0.40000000       0.06666667       0.20000000 </v>
   <v>       0.46666667       0.06666667       0.20000000 </v>
   <v>      -0.46666667       0.06666667       0.20000000 </v>
   <v>      -0.40000000       0.06666667       0.20000000 </v>
   <v>      -0.33333333       0.06666667       0.20000000 </v>
   <v>      -0.26666667       0.06666667       0.20000000 </v>
   <v>      -0.20000000       0.06666667       0.20000000 </v>
   <v>       0.13333333       0.13333333       0.20000000 </v>
   <v>       0.20000000       0.13333333       0.20000000 </v>
   <v>       0.26666667       0.13333333       0.20000000 </v>
   <v>       0.33333333       0.13333333       0.20000000 </v>
   <v>       0.40000000       0.13333333       0.20000000 </v>
   <v>       0.46666667       0.13333333       0.20000000 </v>
   <v>      -0.46666667       0.13333333       0.20000000 </v>
   <v>      -0.40000000       0.13333333       0.20000000 </v>
   <v>      -0.33333333       0.13333333       0.20000000 </v>
   <v>       0.20000000       0.20000000       0.20000000 </v>
   <v>       0.26666667       0.20000000       0.20000000 </v>
   <v>       0.33333333       0.20000000       0.20000000 </v>
   <v>       0.40000000       0.20000000       0.20000000 </v>
   <v>       0.46666667       0.20000000       0.20000000 </v>
   <v>      -0.46666667       0.20000000       0.20000000 </v>
   <v>       0.26666667       0.26666667       0.20000000 </v>
   <v>       0.33333333       0.26666667       0.20000000 </v>
   <v>       0.40000000       0.26666667       0.20000000 </v>
   <v>       0.33333333       0.33333333       0.20000000 </v>
   <v>       0.00000000       0.00000000       0.40000000 </v>
   <v>       0.06666667       0.00000000       0.40000000 </v>
   <v>       0.13333333      -0.00000000       0.40000000 </v>
   <v>       0.20000000       0.00000000       0.40000000 </v>
   <v>       0.26666667       0.00000000       0.40000000 </v>
   <v>       0.33333333      -0.00000000       0.40000000 </v>
   <v>       0.40000000       0.00000000       0.40000000 </v>
   <v>       0.46666667       0.00000000       0.40000000 </v>
   <v>      -0.46666667       0.00000000       0.40000000 </v>
   <v>      -0.40000000       0.00000000       0.40000000 </v>
   <v>      -0.33333333       0.00000000       0.40000000 </v>
   <v>      -0.26666667       0.00000000       0.40000000 </v>
   <v>      -0.20000000       0.00000000       0.40000000 </v>
   <v>      -0.13333333       0.00000000       0.40000000 </v>
   <v>      -0.06666667       0.00000000       0.40000000 </v>
   <v>       0.06666667       0.06666667       0.40000000 </v>
   <v>       0.13333333       0.06666667       0.40000000 </v>
   <v>       0.20000000       0.06666667       0.40000000 </v>
   <v>       0.26666667       0.06666667       0.40000000 </v>
   <v>       0.33333333       0.06666667       0.40000000 </v>
   <v>       0.40000000       0.06666667       0.40000000 </v>
   <v>       0.46666667       0.06666667       0.40000000 </v>
   <v>      -0.46666667       0.06666667       0.40000000 </v>
   <v>      -0.40000000       0.06666667       0.40000000 </v>
   <v>      -0.33333333       0.06666667       0.40000000 </v>
   <v>      -0.26666667       0.06666667       0.40000000 </v>
   <v>      -0.20000000       0.06666667       0.40000000 </v>
   <v>       0.13333333       0.13333333       0.40000000 </v>
   <v>       0.20000000       0.13333333       0.40000000 </v>
   <v>       0.26666667       0.13333333       0.40000000 </v>
   <v>       0.33333333       0.13333333       0.40000000 </v>
   <v>       0.40000000       0.13333333       0.40000000 </v>
   <v>       0.46666667       0.13333333       0.40000000 </v>
   <v>      -0.46666667       0.13333333       0.40000000 </v>
   <v>      -0.40000000       0.13333333       0.40000000 </v>
   <v>      -0.33333333       0.13333333       0.40000000 </v>
   <v>       0.20000000       0.20000000       0.40000000 </v>
   <v>       0.26666667       0.20000000       0.40000000 </v>
   <v>       0.33333333       0.20000000       0.40000000 </v>
   <v>       0.40000000       0.20000000       0.40000000 </v>
   <v>       0.46666667       0.20000000       0.40000000 </v>
   <v>      -0.46666667       0.20000000       0.40000000 </v>
   <v>       0.26666667       0.26666667       0.40000000 </v>
   <v>       0.33333333       0.26666667       0.40000000 </v>
   <v>       0.40000000       0.26666667       0.40000000 </v>
   <v>       0.33333333       0.33333333       0.40000000 </v>
  </varray>
  <varray name="weights" >
   <v>       0.00088889 </v>
   <v>       0.00533333 </v>
   <v>       0.00533333 </v>
   <v>       0.00533333 </v>
   <v>       0.00533333 </v>
   <v>       0.00533333 </v>
   <v>       0.00533333 </v>
   <v>       0.00533333 </v>
   <v>       0.00533333 </v>
   <v>       0.01066667 </v>
   <v>       0.01066667 </v>
   <v>       0.01066667 </v>
   <v>       0.01066667 </v>
   <v>       0.01066667 </v>
   <v>       0.00533333 </v>
   <v>       0.00533333 </v>
   <v>       0.01066667 </v>
   <v>       0.01066667 </v>
   <v>       0.01066667 </v>
   <v>       0.01066667 </v>
   <v>       0.00533333 </v>
   <v>       0.01066667 </v>
   <v>       0.01066667 </v>
   <v>       0.00533333 </v>
   <v>       0.00533333 </v>
   <v>       0.01066667 </v>
   <v>       0.00177778 </v>
   <v>       0.00177778 </v>
   <v>       0.00533333 </v>
   <v>       0.00533333 </v>
   <v>       0.00533333 </v>
   <v>       0.00533333 </v>
   <v>       0.00533333 </v>
   <v>       0.00533333 </v>
   <v>       0.00533333 </v>
   <v>       0.00533333 </v>
   <v>       0.00533333 </v>
   <v>       0.00533333 </v>
   <v>       0.00533333 </v>
   <v>       0.00533333 </v>
   <v>       0.00533333 </v>
   <v>       0.00533333 </v>
   <v>       0.01066667 </v>
   <v>       0.01066667 </v>
   <v>       0.01066667 </v>
   <v>       0.01066667 </v>
   <v>       0.01066667 </v>
   <v>       0.01066667 </v>
   <v>       0.01066667 </v>
   <v>       0.01066667 </v>
   <v>       0.01066667 </v>
   <v>       0.01066667 </v>
   <v>       0.01066667 </v>
   <v>       0.01066667 </v>
   <v>       0.01066667 </v>
   <v>       0.01066667 </v>
   <v>       0.01066667 </v>
   <v>       0.01066667 </v>
   <v>       0.01066667 </v>
   <v>       0.01066667 </v>
   <v>       0.01066667 </v>
   <v>       0.01066667 </v>
   <v>       0.01066667 </v>
   <v>       0.01066667 </v>
   <v>       0.01066667 </v>
   <v>       0.01066667 </v>
   <v>       0.01066667 </v>
   <v>       0.01066667 </v>
   <v>       0.01066667 </v>
   <v>       0.01066667 </v>
   <v>       0.01066667 </v>
   <v>       0.01066667 </v>
   <v>       0.00355556 </v>
   <v>       0.00177778 </v>
   <v>       0.00533333 </v>
   <v>       0.00533333 </v>
   <v>       0.00533333 </v>
   <v>       0.00533333 </v>
   <v>       0.00533333 </v>
   <v>       0.00533333 </v>
   <v>       0.00533333 </v>
   <v>       0.00533333 </v>
   <v>       0.00533333 </v>
   <v>       0.00533333 </v>
   <v>       0.00533333 </v>
   <v>       0.00533333 </v>
   <v>       0.00533333 </v>
   <v>       0.00533333 </v>
   <v>       0.01066667 </v>
   <v>       0.01066667 </v>
   <v>       0.01066667 </v>
   <v>       0.01066667 </v>
   <v>       0.01066667 </v>
   <v>       0.01066667 </v>
   <v>       0.01066667 </v>
   <v>       0.01066667 </v>
   <v>       0.01066667 </v>
   <v>       0.01066667 </v>
   <v>       0.01066667 </v>
   <v>       0.01066667 </v>
   <v>       0.01066667 </v>
   <v>       0.01066667 </v>
   <v>       0.01066667 </v>
   <v>       0.01066667 </v>
   <v>       0.01066667 </v>
   <v>       0.01066667 </v>
   <v>       0.01066667 </v>
   <v>       0.01066667 </v>
   <v>       0.01066667 </v>
   <v>       0.01066667 </v>
   <v>       0.01066667 </v>
   <v>       0.01066667 </v>
   <v>       0.01066667 </v>
   <v>       0.01066667 </v>
   <v>       0.01066667 </v>
   <v>       0.01066667 </v>
   <v>       0.01066667 </v>
   <v>       0.01066667 </v>
   <v>       0.00355556 </v>
  </varray>
  <varray name="tetrahedronlist"  type="int" >
   <v type="int" >        4        2        2        9       42 </v>
   <v type="int" >        4        1        2        2       42 </v>
   <v type="int" >        4        1        2       28       42 </v>
   <v type="int" >        4        2        9       42       43 </v>
   <v type="int" >        8        2       29       42       43 </v>
   <v type="int" >        8        2       28       29       42 </v>
   <v type="int" >        8        3        9       10       43 </v>
   <v type="int" >        8        2        3        9       43 </v>
   <v type="int" >        4        2        3       29       43 </v>
   <v type="int" >        4        3       10       43       44 </v>
   <v type="int" >        4        3       30       43       44 </v>
   <v type="int" >        4        3       29       30       43 </v>
   <v type="int" >        4        4       10       11       44 </v>
   <v type="int" >        4        3        4       10       44 </v>
   <v type="int" >        4        3        4       30       44 </v>
   <v type="int" >        4        4       11       44       45 </v>
   <v type="int" >        4        4       31       44       45 </v>
   <v type="int" >        4        4       30       31       44 </v>
   <v type="int" >        4        5       11       12       45 </v>
   <v type="int" >        4        4        5       11       45 </v>
   <v type="int" >        4        4        5       31       45 </v>
   <v type="int" >        4        5       12       45       46 </v>
   <v type="int" >        4        5       32       45       46 </v>
   <v type="int" >        4        5       31       32       45 </v>
   <v type="int" >        4        6       12       13       46 </v>
   <v type="int" >        4        5        6       12       46 </v>
   <v type="int" >        4        5        6       32       46 </v>
   <v type="int" >        4        6       13       46       47 </v>
   <v type="int" >        4        6       33       46       47 </v>
   <v type="int" >        4        6       32       33       46 </v>
   <v type="int" >        4        7       13       14       47 </v>
   <v type="int" >        4        6        7       13       47 </v>
   <v type="int" >        4        6        7       33       47 </v>
   <v type="int" >        4        7       14       47       48 </v>
   <v type="int" >        4        7       34       47       48 </v>
   <v type="int" >        4        7       33       34       47 </v>
   <v type="int" >        4        8       14       15       48 </v>
   <v type="int" >        4        7        8       14       48 </v>
   <v type="int" >        4        7        8       34       48 </v>
   <v type="int" >        4        8       15       48       49 </v>
   <v type="int" >        4        8       35       48       49 </v>
   <v type="int" >        4        8       34       35       48 </v>
   <v type="int" >        8        8       14       15       49 </v>
   <v type="int" >        4        8        8       15       49 </v>
   <v type="int" >        4        8        8       35       49 </v>
   <v type="int" >        4        8       14       49       50 </v>
   <v type="int" >        4        8       36       49       50 </v>
   <v type="int" >        8        8       35       36       49 </v>
   <v type="int" >        4        7       13       14       50 </v>
   <v type="int" >        4        7        8       14       50 </v>
   <v type="int" >        4        7        8       36       50 </v>
   <v type="int" >        4        7       13       50       51 </v>
   <v type="int" >        4        7       37       50       51 </v>
   <v type="int" >        4        7       36       37       50 </v>
   <v type="int" >        4        6       12       13       51 </v>
   <v type="int" >        4        6        7       13       51 </v>
   <v type="int" >        4        6        7       37       51 </v>
   <v type="int" >        4        6       12       51       52 </v>
   <v type="int" >        4        6       38       51       52 </v>
   <v type="int" >        4        6       37       38       51 </v>
   <v type="int" >        4        5       11       12       52 </v>
   <v type="int" >        4        5        6       12       52 </v>
   <v type="int" >        4        5        6       38       52 </v>
   <v type="int" >        4        5       11       52       53 </v>
   <v type="int" >        4        5       39       52       53 </v>
   <v type="int" >        4        5       38       39       52 </v>
   <v type="int" >        4        4       10       11       53 </v>
   <v type="int" >        4        4        5       11       53 </v>
   <v type="int" >        4        4        5       39       53 </v>
   <v type="int" >        4        4       10       53       54 </v>
   <v type="int" >        4        4       40       53       54 </v>
   <v type="int" >        4        4       39       40       53 </v>
   <v type="int" >        4        3        9       10       54 </v>
   <v type="int" >        4        3        4       10       54 </v>
   <v type="int" >        4        3        4       40       54 </v>
   <v type="int" >        4        3        9       43       54 </v>
   <v type="int" >        4        3       41       43       54 </v>
   <v type="int" >        4        3       40       41       54 </v>
   <v type="int" >        4        2        2        9       43 </v>
   <v type="int" >        4        2        3       41       43 </v>
   <v type="int" >        4        2        2       29       43 </v>
   <v type="int" >        4        2       41       42       43 </v>
   <v type="int" >        4        1        2        2       29 </v>
   <v type="int" >        4        1        2       29       42 </v>
   <v type="int" >        4        1       28       29       42 </v>
   <v type="int" >        4        3        9       10       41 </v>
   <v type="int" >        4        2        3        9       41 </v>
   <v type="int" >        4        2        9       41       42 </v>
   <v type="int" >        4        9       10       41       54 </v>
   <v type="int" >        4        9       41       43       54 </v>
   <v type="int" >        4        9       41       42       43 </v>
   <v type="int" >        4       10       10       16       54 </v>
   <v type="int" >        4        9       10       10       54 </v>
   <v type="int" >        4        9       10       43       54 </v>
   <v type="int" >        4       10       16       54       55 </v>
   <v type="int" >        8       10       44       54       55 </v>
   <v type="int" >        8       10       43       44       54 </v>
   <v type="int" >        8       11       16       17       55 </v>
   <v type="int" >        8       10       11       16       55 </v>
   <v type="int" >        4       10       11       44       55 </v>
   <v type="int" >        4       11       17       55       56 </v>
   <v type="int" >        4       11       45       55       56 </v>
   <v type="int" >        4       11       44       45       55 </v>
   <v type="int" >        4       12       17       18       56 </v>
   <v type="int" >        4       11       12       17       56 </v>
   <v type="int" >        4       11       12       45       56 </v>
   <v type="int" >        4       12       18       56       57 </v>
   <v type="int" >        4       12       46       56       57 </v>
   <v type="int" >        4       12       45       46       56 </v>
   <v type="int" >        4       13       18       19       57 </v>
   <v type="int" >        4       12       13       18       57 </v>
   <v type="int" >        4       12       13       46       57 </v>
   <v type="int" >        4       13       19       57       58 </v>
   <v type="int" >        4       13       47       57       58 </v>
   <v type="int" >        4       13       46       47       57 </v>
   <v type="int" >        4       14       19       20       58 </v>
   <v type="int" >        4       13       14       19       58 </v>
   <v type="int" >        4       13       14       47       58 </v>
   <v type="int" >        4       14       20       58       59 </v>
   <v type="int" >        4       14       48       58       59 </v>
   <v type="int" >        4       14       47       48       58 </v>
   <v type="int" >        4       15       20       20       59 </v>
   <v type="int" >        4       14       15       20       59 </v>
   <v type="int" >        4       14       15       48       59 </v>
   <v type="int" >        4       15       20       59       60 </v>
   <v type="int" >        4       15       49       59       60 </v>
   <v type="int" >        4       15       48       49       59 </v>
   <v type="int" >        4       14       19       20       60 </v>
   <v type="int" >        4       14       15       20       60 </v>
   <v type="int" >        4       14       15       49       60 </v>
   <v type="int" >        4       14       19       60       61 </v>
   <v type="int" >        4       14       50       60       61 </v>
   <v type="int" >        4       14       49       50       60 </v>
   <v type="int" >        4       13       18       19       61 </v>
   <v type="int" >        4       13       14       19       61 </v>
   <v type="int" >        4       13       14       50       61 </v>
   <v type="int" >        4       13       18       61       62 </v>
   <v type="int" >        4       13       51       61       62 </v>
   <v type="int" >        4       13       50       51       61 </v>
   <v type="int" >        4       12       17       18       62 </v>
   <v type="int" >        4       12       13       18       62 </v>
   <v type="int" >        4       12       13       51       62 </v>
   <v type="int" >        4       12       17       62       63 </v>
   <v type="int" >        4       12       52       62       63 </v>
   <v type="int" >        4       12       51       52       62 </v>
   <v type="int" >        4       11       16       17       63 </v>
   <v type="int" >        4       11       12       17       63 </v>
   <v type="int" >        4       11       12       52       63 </v>
   <v type="int" >        4       11       16       55       63 </v>
   <v type="int" >        4       11       53       55       63 </v>
   <v type="int" >        4       11       52       53       63 </v>
   <v type="int" >        4       10       10       16       55 </v>
   <v type="int" >        4       10       11       53       55 </v>
   <v type="int" >        4       10       10       44       55 </v>
   <v type="int" >        4       10       53       54       55 </v>
   <v type="int" >        4        3        9       10       44 </v>
   <v type="int" >        4        9       10       10       44 </v>
   <v type="int" >        4        9       10       44       54 </v>
   <v type="int" >        4        3        9       30       44 </v>
   <v type="int" >        4        9       30       43       44 </v>
   <v type="int" >        4        9       43       44       54 </v>
   <v type="int" >        4        2        3        9       30 </v>
   <v type="int" >        4        2        9       30       43 </v>
   <v type="int" >        4        2       29       30       43 </v>
   <v type="int" >        4        4       10       11       40 </v>
   <v type="int" >        4        3        4       10       40 </v>
   <v type="int" >        4        3       10       40       41 </v>
   <v type="int" >        4       10       11       40       53 </v>
   <v type="int" >        4       10       40       53       54 </v>
   <v type="int" >        4       10       40       41       54 </v>
   <v type="int" >        4       11       16       17       53 </v>
   <v type="int" >        4       10       11       16       53 </v>
   <v type="int" >        4       10       16       53       54 </v>
   <v type="int" >        4       16       17       53       63 </v>
   <v type="int" >        4       16       53       55       63 </v>
   <v type="int" >        4       16       53       54       55 </v>
   <v type="int" >        4       17       17       21       63 </v>
   <v type="int" >        4       16       17       17       63 </v>
   <v type="int" >        4       16       17       55       63 </v>
   <v type="int" >        4       17       21       63       64 </v>
   <v type="int" >        8       17       56       63       64 </v>
   <v type="int" >        8       17       55       56       63 </v>
   <v type="int" >        8       18       21       22       64 </v>
   <v type="int" >        8       17       18       21       64 </v>
   <v type="int" >        4       17       18       56       64 </v>
   <v type="int" >        4       18       22       64       65 </v>
   <v type="int" >        4       18       57       64       65 </v>
   <v type="int" >        4       18       56       57       64 </v>
   <v type="int" >        4       19       22       23       65 </v>
   <v type="int" >        4       18       19       22       65 </v>
   <v type="int" >        4       18       19       57       65 </v>
   <v type="int" >        4       19       23       65       66 </v>
   <v type="int" >        4       19       58       65       66 </v>
   <v type="int" >        4       19       57       58       65 </v>
   <v type="int" >        4       20       23       24       66 </v>
   <v type="int" >        4       19       20       23       66 </v>
   <v type="int" >        4       19       20       58       66 </v>
   <v type="int" >        4       20       24       66       67 </v>
   <v type="int" >        4       20       59       66       67 </v>
   <v type="int" >        4       20       58       59       66 </v>
   <v type="int" >        8       20       23       24       67 </v>
   <v type="int" >        4       20       20       24       67 </v>
   <v type="int" >        4       20       20       59       67 </v>
   <v type="int" >        4       20       23       67       68 </v>
   <v type="int" >        4       20       60       67       68 </v>
   <v type="int" >        8       20       59       60       67 </v>
   <v type="int" >        4       19       22       23       68 </v>
   <v type="int" >        4       19       20       23       68 </v>
   <v type="int" >        4       19       20       60       68 </v>
   <v type="int" >        4       19       22       68       69 </v>
   <v type="int" >        4       19       61       68       69 </v>
   <v type="int" >        4       19       60       61       68 </v>
   <v type="int" >        4       18       21       22       69 </v>
   <v type="int" >        4       18       19       22       69 </v>
   <v type="int" >        4       18       19       61       69 </v>
   <v type="int" >        4       18       21       64       69 </v>
   <v type="int" >        4       18       62       64       69 </v>
   <v type="int" >        4       18       61       62       69 </v>
   <v type="int" >        4       17       17       21       64 </v>
   <v type="int" >        4       17       18       62       64 </v>
   <v type="int" >        4       17       17       56       64 </v>
   <v type="int" >        4       17       62       63       64 </v>
   <v type="int" >        4       11       16       17       56 </v>
   <v type="int" >        4       16       17       17       56 </v>
   <v type="int" >        4       16       17       56       63 </v>
   <v type="int" >        4       11       16       45       56 </v>
   <v type="int" >        4       16       45       55       56 </v>
   <v type="int" >        4       16       55       56       63 </v>
   <v type="int" >        4        4       10       11       45 </v>
   <v type="int" >        4       10       11       16       45 </v>
   <v type="int" >        4       10       16       45       55 </v>
   <v type="int" >        4        4       10       31       45 </v>
   <v type="int" >        4       10       31       44       45 </v>
   <v type="int" >        4       10       44       45       55 </v>
   <v type="int" >        4        3        4       10       31 </v>
   <v type="int" >        4        3       10       31       44 </v>
   <v type="int" >        4        3       30       31       44 </v>
   <v type="int" >        4        5       11       12       39 </v>
   <v type="int" >        4        4        5       11       39 </v>
   <v type="int" >        4        4       11       39       40 </v>
   <v type="int" >        4       11       12       39       52 </v>
   <v type="int" >        4       11       39       52       53 </v>
   <v type="int" >        4       11       39       40       53 </v>
   <v type="int" >        4       12       17       18       52 </v>
   <v type="int" >        4       11       12       17       52 </v>
   <v type="int" >        4       11       17       52       53 </v>
   <v type="int" >        4       17       18       52       62 </v>
   <v type="int" >        4       17       52       62       63 </v>
   <v type="int" >        4       17       52       53       63 </v>
   <v type="int" >        4       18       21       22       62 </v>
   <v type="int" >        4       17       18       21       62 </v>
   <v type="int" >        4       17       21       62       63 </v>
   <v type="int" >        4       21       22       62       69 </v>
   <v type="int" >        4       21       62       64       69 </v>
   <v type="int" >        4       21       62       63       64 </v>
   <v type="int" >        4       22       22       25       69 </v>
   <v type="int" >        4       21       22       22       69 </v>
   <v type="int" >        4       21       22       64       69 </v>
   <v type="int" >        4       22       25       69       70 </v>
   <v type="int" >        8       22       65       69       70 </v>
   <v type="int" >        8       22       64       65       69 </v>
   <v type="int" >        8       23       25       26       70 </v>
   <v type="int" >        8       22       23       25       70 </v>
   <v type="int" >        4       22       23       65       70 </v>
   <v type="int" >        4       23       26       70       71 </v>
   <v type="int" >        4       23       66       70       71 </v>
   <v type="int" >        4       23       65       66       70 </v>
   <v type="int" >        4       24       26       26       71 </v>
   <v type="int" >        4       23       24       26       71 </v>
   <v type="int" >        4       23       24       66       71 </v>
   <v type="int" >        4       24       26       71       72 </v>
   <v type="int" >        4       24       67       71       72 </v>
   <v type="int" >        4       24       66       67       71 </v>
   <v type="int" >        4       23       25       26       72 </v>
   <v type="int" >        4       23       24       26       72 </v>
   <v type="int" >        4       23       24       67       72 </v>
   <v type="int" >        4       23       25       70       72 </v>
   <v type="int" >        4       23       68       70       72 </v>
   <v type="int" >        4       23       67       68       72 </v>
   <v type="int" >        4       22       22       25       70 </v>
   <v type="int" >        4       22       23       68       70 </v>
   <v type="int" >        4       22       22       65       70 </v>
   <v type="int" >        4       22       68       69       70 </v>
   <v type="int" >        4       18       21       22       65 </v>
   <v type="int" >        4       21       22       22       65 </v>
   <v type="int" >        4       21       22       65       69 </v>
   <v type="int" >        4       18       21       57       65 </v>
   <v type="int" >        4       21       57       64       65 </v>
   <v type="int" >        4       21       64       65       69 </v>
   <v type="int" >        4       12       17       18       57 </v>
   <v type="int" >        4       17       18       21       57 </v>
   <v type="int" >        4       17       21       57       64 </v>
   <v type="int" >        4       12       17       46       57 </v>
   <v type="int" >        4       17       46       56       57 </v>
   <v type="int" >        4       17       56       57       64 </v>
   <v type="int" >        4        5       11       12       46 </v>
   <v type="int" >        4       11       12       17       46 </v>
   <v type="int" >        4       11       17       46       56 </v>
   <v type="int" >        4        5       11       32       46 </v>
   <v type="int" >        4       11       32       45       46 </v>
   <v type="int" >        4       11       45       46       56 </v>
   <v type="int" >        4        4        5       11       32 </v>
   <v type="int" >        4        4       11       32       45 </v>
   <v type="int" >        4        4       31       32       45 </v>
   <v type="int" >        4        6       12       13       38 </v>
   <v type="int" >        4        5        6       12       38 </v>
   <v type="int" >        4        5       12       38       39 </v>
   <v type="int" >        4       12       13       38       51 </v>
   <v type="int" >        4       12       38       51       52 </v>
   <v type="int" >        4       12       38       39       52 </v>
   <v type="int" >        4       13       18       19       51 </v>
   <v type="int" >        4       12       13       18       51 </v>
   <v type="int" >        4       12       18       51       52 </v>
   <v type="int" >        4       18       19       51       61 </v>
   <v type="int" >        4       18       51       61       62 </v>
   <v type="int" >        4       18       51       52       62 </v>
   <v type="int" >        4       19       22       23       61 </v>
   <v type="int" >        4       18       19       22       61 </v>
   <v type="int" >        4       18       22       61       62 </v>
   <v type="int" >        4       22       23       61       68 </v>
   <v type="int" >        4       22       61       68       69 </v>
   <v type="int" >        4       22       61       62       69 </v>
   <v type="int" >        4       23       25       26       68 </v>
   <v type="int" >        4       22       23       25       68 </v>
   <v type="int" >        4       22       25       68       69 </v>
   <v type="int" >        4       25       26       68       72 </v>
   <v type="int" >        4       25       68       70       72 </v>
   <v type="int" >        4       25       68       69       70 </v>
   <v type="int" >        8       26       26       27       72 </v>
   <v type="int" >        4       25       26       26       72 </v>
   <v type="int" >        4       25       26       70       72 </v>
   <v type="int" >        8       26       27       72       73 </v>
   <v type="int" >       16       26       71       72       73 </v>
   <v type="int" >        8       26       70       71       72 </v>
   <v type="int" >        8       26       26       27       73 </v>
   <v type="int" >        8       26       26       71       73 </v>
   <v type="int" >        4       23       25       26       71 </v>
   <v type="int" >        4       25       26       26       71 </v>
   <v type="int" >        4       25       26       71       72 </v>
   <v type="int" >        4       23       25       66       71 </v>
   <v type="int" >        4       25       66       70       71 </v>
   <v type="int" >        4       25       70       71       72 </v>
   <v type="int" >        4       19       22       23       66 </v>
   <v type="int" >        4       22       23       25       66 </v>
   <v type="int" >        4       22       25       66       70 </v>
   <v type="int" >        4       19       22       58       66 </v>
   <v type="int" >        4       22       58       65       66 </v>
   <v type="int" >        4       22       65       66       70 </v>
   <v type="int" >        4       13       18       19       58 </v>
   <v type="int" >        4       18       19       22       58 </v>
   <v type="int" >        4       18       22       58       65 </v>
   <v type="int" >        4       13       18       47       58 </v>
   <v type="int" >        4       18       47       57       58 </v>
   <v type="int" >        4       18       57       58       65 </v>
   <v type="int" >        4        6       12       13       47 </v>
   <v type="int" >        4       12       13       18       47 </v>
   <v type="int" >        4       12       18       47       57 </v>
   <v type="int" >        4        6       12       33       47 </v>
   <v type="int" >        4       12       33       46       47 </v>
   <v type="int" >        4       12       46       47       57 </v>
   <v type="int" >        4        5        6       12       33 </v>
   <v type="int" >        4        5       12       33       46 </v>
   <v type="int" >        4        5       32       33       46 </v>
   <v type="int" >        4        7       13       14       37 </v>
   <v type="int" >        4        6        7       13       37 </v>
   <v type="int" >        4        6       13       37       38 </v>
   <v type="int" >        4       13       14       37       50 </v>
   <v type="int" >        4       13       37       50       51 </v>
   <v type="int" >        4       13       37       38       51 </v>
   <v type="int" >        4       14       19       20       50 </v>
   <v type="int" >        4       13       14       19       50 </v>
   <v type="int" >        4       13       19       50       51 </v>
   <v type="int" >        4       19       20       50       60 </v>
   <v type="int" >        4       19       50       60       61 </v>
   <v type="int" >        4       19       50       51       61 </v>
   <v type="int" >        4       20       23       24       60 </v>
   <v type="int" >        4       19       20       23       60 </v>
   <v type="int" >        4       19       23       60       61 </v>
   <v type="int" >        4       23       24       60       67 </v>
   <v type="int" >        4       23       60       67       68 </v>
   <v type="int" >        4       23       60       61       68 </v>
   <v type="int" >        4       24       26       26       67 </v>
   <v type="int" >        8       23       24       26       67 </v>
   <v type="int" >        4       23       26       67       68 </v>
   <v type="int" >        4       26       26       67       71 </v>
   <v type="int" >        8       26       67       71       72 </v>
   <v type="int" >        4       26       67       68       72 </v>
   <v type="int" >        8       26       26       27       71 </v>
   <v type="int" >        8       26       27       71       72 </v>
   <v type="int" >        8       27       71       72       73 </v>
   <v type="int" >        4       24       26       26       72 </v>
   <v type="int" >        4       24       26       67       72 </v>
   <v type="int" >        4       23       26       67       71 </v>
   <v type="int" >        4       20       23       59       67 </v>
   <v type="int" >        4       23       59       66       67 </v>
   <v type="int" >        4       23       66       67       71 </v>
   <v type="int" >        4       14       19       20       59 </v>
   <v type="int" >        4       19       20       23       59 </v>
   <v type="int" >        4       19       23       59       66 </v>
   <v type="int" >        4       14       19       48       59 </v>
   <v type="int" >        4       19       48       58       59 </v>
   <v type="int" >        4       19       58       59       66 </v>
   <v type="int" >        4        7       13       14       48 </v>
   <v type="int" >        4       13       14       19       48 </v>
   <v type="int" >        4       13       19       48       58 </v>
   <v type="int" >        4        7       13       34       48 </v>
   <v type="int" >        4       13       34       47       48 </v>
   <v type="int" >        4       13       47       48       58 </v>
   <v type="int" >        4        6        7       13       34 </v>
   <v type="int" >        4        6       13       34       47 </v>
   <v type="int" >        4        6       33       34       47 </v>
   <v type="int" >        4        8       14       15       36 </v>
   <v type="int" >        4        7        8       14       36 </v>
   <v type="int" >        4        7       14       36       37 </v>
   <v type="int" >        4       14       15       36       49 </v>
   <v type="int" >        4       14       36       49       50 </v>
   <v type="int" >        4       14       36       37       50 </v>
   <v type="int" >        4       15       20       20       49 </v>
   <v type="int" >        8       14       15       20       49 </v>
   <v type="int" >        4       14       20       49       50 </v>
   <v type="int" >        4       20       20       49       59 </v>
   <v type="int" >        8       20       49       59       60 </v>
   <v type="int" >        4       20       49       50       60 </v>
   <v type="int" >        4       20       23       24       59 </v>
   <v type="int" >        4       20       20       24       59 </v>
   <v type="int" >        4       20       24       59       60 </v>
   <v type="int" >        4       23       24       59       66 </v>
   <v type="int" >        4       24       59       66       67 </v>
   <v type="int" >        4       24       59       60       67 </v>
   <v type="int" >        4       23       25       26       66 </v>
   <v type="int" >        4       23       24       26       66 </v>
   <v type="int" >        4       24       26       66       67 </v>
   <v type="int" >        4       25       26       66       70 </v>
   <v type="int" >        4       26       66       70       71 </v>
   <v type="int" >        4       26       66       67       71 </v>
   <v type="int" >        4       25       26       26       70 </v>
   <v type="int" >        4       26       26       70       71 </v>
   <v type="int" >        4       23       26       68       70 </v>
   <v type="int" >        4       26       68       70       72 </v>
   <v type="int" >        4       20       23       24       68 </v>
   <v type="int" >        4       23       24       26       68 </v>
   <v type="int" >        4       24       26       68       72 </v>
   <v type="int" >        4       20       24       60       68 </v>
   <v type="int" >        4       24       60       67       68 </v>
   <v type="int" >        4       24       67       68       72 </v>
   <v type="int" >        4       15       20       20       60 </v>
   <v type="int" >        4       20       20       24       60 </v>
   <v type="int" >        4       20       24       60       67 </v>
   <v type="int" >        4       15       20       49       60 </v>
   <v type="int" >        4       14       20       49       59 </v>
   <v type="int" >        4        8       14       35       49 </v>
   <v type="int" >        4       14       35       48       49 </v>
   <v type="int" >        4       14       48       49       59 </v>
   <v type="int" >        4        7        8       14       35 </v>
   <v type="int" >        4        7       14       35       48 </v>
   <v type="int" >        4        7       34       35       48 </v>
   <v type="int" >        4        8       14       15       35 </v>
   <v type="int" >        4        8        8       15       35 </v>
   <v type="int" >        4        8       15       35       36 </v>
   <v type="int" >        4       14       15       35       48 </v>
   <v type="int" >        4       15       35       48       49 </v>
   <v type="int" >        4       15       35       36       49 </v>
   <v type="int" >        4       14       19       20       48 </v>
   <v type="int" >        4       14       15       20       48 </v>
   <v type="int" >        4       15       20       48       49 </v>
   <v type="int" >        4       19       20       48       58 </v>
   <v type="int" >        4       20       48       58       59 </v>
   <v type="int" >        4       20       48       49       59 </v>
   <v type="int" >        4       19       22       23       58 </v>
   <v type="int" >        4       19       20       23       58 </v>
   <v type="int" >        4       20       23       58       59 </v>
   <v type="int" >        4       22       23       58       65 </v>
   <v type="int" >        4       23       58       65       66 </v>
   <v type="int" >        4       23       58       59       66 </v>
   <v type="int" >        4       22       22       25       65 </v>
   <v type="int" >        4       22       23       25       65 </v>
   <v type="int" >        4       23       25       65       66 </v>
   <v type="int" >        4       22       25       65       69 </v>
   <v type="int" >        4       25       65       69       70 </v>
   <v type="int" >        4       25       65       66       70 </v>
   <v type="int" >        4       19       22       23       69 </v>
   <v type="int" >        4       22       23       25       69 </v>
   <v type="int" >        4       23       25       69       70 </v>
   <v type="int" >        4       19       23       61       69 </v>
   <v type="int" >        4       23       61       68       69 </v>
   <v type="int" >        4       23       68       69       70 </v>
   <v type="int" >        4       14       19       20       61 </v>
   <v type="int" >        4       19       20       23       61 </v>
   <v type="int" >        4       20       23       61       68 </v>
   <v type="int" >        4       14       20       50       61 </v>
   <v type="int" >        4       20       50       60       61 </v>
   <v type="int" >        4       20       60       61       68 </v>
   <v type="int" >        4        8       14       15       50 </v>
   <v type="int" >        4       14       15       20       50 </v>
   <v type="int" >        4       15       20       50       60 </v>
   <v type="int" >        4        8       15       36       50 </v>
   <v type="int" >        4       15       36       49       50 </v>
   <v type="int" >        4       15       49       50       60 </v>
   <v type="int" >        4        8        8       15       36 </v>
   <v type="int" >        4        8       15       36       49 </v>
   <v type="int" >        4        7       13       14       34 </v>
   <v type="int" >        4        7        8       14       34 </v>
   <v type="int" >        4        8       14       34       35 </v>
   <v type="int" >        4       13       14       34       47 </v>
   <v type="int" >        4       14       34       47       48 </v>
   <v type="int" >        4       14       34       35       48 </v>
   <v type="int" >        4       13       18       19       47 </v>
   <v type="int" >        4       13       14       19       47 </v>
   <v type="int" >        4       14       19       47       48 </v>
   <v type="int" >        4       18       19       47       57 </v>
   <v type="int" >        4       19       47       57       58 </v>
   <v type="int" >        4       19       47       48       58 </v>
   <v type="int" >        4       18       21       22       57 </v>
   <v type="int" >        4       18       19       22       57 </v>
   <v type="int" >        4       19       22       57       58 </v>
   <v type="int" >        4       21       22       57       64 </v>
   <v type="int" >        4       22       57       64       65 </v>
   <v type="int" >        4       22       57       58       65 </v>
   <v type="int" >        4       21       22       22       64 </v>
   <v type="int" >        4       22       22       64       65 </v>
   <v type="int" >        4       18       22       62       64 </v>
   <v type="int" >        4       22       62       64       69 </v>
   <v type="int" >        4       13       18       19       62 </v>
   <v type="int" >        4       18       19       22       62 </v>
   <v type="int" >        4       19       22       62       69 </v>
   <v type="int" >        4       13       19       51       62 </v>
   <v type="int" >        4       19       51       61       62 </v>
   <v type="int" >        4       19       61       62       69 </v>
   <v type="int" >        4        7       13       14       51 </v>
   <v type="int" >        4       13       14       19       51 </v>
   <v type="int" >        4       14       19       51       61 </v>
   <v type="int" >        4        7       14       37       51 </v>
   <v type="int" >        4       14       37       50       51 </v>
   <v type="int" >        4       14       50       51       61 </v>
   <v type="int" >        4        7        8       14       37 </v>
   <v type="int" >        4        8       14       37       50 </v>
   <v type="int" >        4        8       36       37       50 </v>
   <v type="int" >        4        6       12       13       33 </v>
   <v type="int" >        4        6        7       13       33 </v>
   <v type="int" >        4        7       13       33       34 </v>
   <v type="int" >        4       12       13       33       46 </v>
   <v type="int" >        4       13       33       46       47 </v>
   <v type="int" >        4       13       33       34       47 </v>
   <v type="int" >        4       12       17       18       46 </v>
   <v type="int" >        4       12       13       18       46 </v>
   <v type="int" >        4       13       18       46       47 </v>
   <v type="int" >        4       17       18       46       56 </v>
   <v type="int" >        4       18       46       56       57 </v>
   <v type="int" >        4       18       46       47       57 </v>
   <v type="int" >        4       17       17       21       56 </v>
   <v type="int" >        4       17       18       21       56 </v>
   <v type="int" >        4       18       21       56       57 </v>
   <v type="int" >        4       17       21       56       63 </v>
   <v type="int" >        4       21       56       63       64 </v>
   <v type="int" >        4       21       56       57       64 </v>
   <v type="int" >        4       12       17       18       63 </v>
   <v type="int" >        4       17       18       21       63 </v>
   <v type="int" >        4       18       21       63       64 </v>
   <v type="int" >        4       12       18       52       63 </v>
   <v type="int" >        4       18       52       62       63 </v>
   <v type="int" >        4       18       62       63       64 </v>
   <v type="int" >        4        6       12       13       52 </v>
   <v type="int" >        4       12       13       18       52 </v>
   <v type="int" >        4       13       18       52       62 </v>
   <v type="int" >        4        6       13       38       52 </v>
   <v type="int" >        4       13       38       51       52 </v>
   <v type="int" >        4       13       51       52       62 </v>
   <v type="int" >        4        6        7       13       38 </v>
   <v type="int" >        4        7       13       38       51 </v>
   <v type="int" >        4        7       37       38       51 </v>
   <v type="int" >        4        5       11       12       32 </v>
   <v type="int" >        4        5        6       12       32 </v>
   <v type="int" >        4        6       12       32       33 </v>
   <v type="int" >        4       11       12       32       45 </v>
   <v type="int" >        4       12       32       45       46 </v>
   <v type="int" >        4       12       32       33       46 </v>
   <v type="int" >        4       11       16       17       45 </v>
   <v type="int" >        4       11       12       17       45 </v>
   <v type="int" >        4       12       17       45       46 </v>
   <v type="int" >        4       16       17       45       55 </v>
   <v type="int" >        4       17       45       55       56 </v>
   <v type="int" >        4       17       45       46       56 </v>
   <v type="int" >        4       16       17       17       55 </v>
   <v type="int" >        4       17       17       55       56 </v>
   <v type="int" >        4       11       17       53       55 </v>
   <v type="int" >        4       17       53       55       63 </v>
   <v type="int" >        4        5       11       12       53 </v>
   <v type="int" >        4       11       12       17       53 </v>
   <v type="int" >        4       12       17       53       63 </v>
   <v type="int" >        4        5       12       39       53 </v>
   <v type="int" >        4       12       39       52       53 </v>
   <v type="int" >        4       12       52       53       63 </v>
   <v type="int" >        4        5        6       12       39 </v>
   <v type="int" >        4        6       12       39       52 </v>
   <v type="int" >        4        6       38       39       52 </v>
   <v type="int" >        4        4       10       11       31 </v>
   <v type="int" >        4        4        5       11       31 </v>
   <v type="int" >        4        5       11       31       32 </v>
   <v type="int" >        4       10       11       31       44 </v>
   <v type="int" >        4       11       31       44       45 </v>
   <v type="int" >        4       11       31       32       45 </v>
   <v type="int" >        4       10       10       16       44 </v>
   <v type="int" >        4       10       11       16       44 </v>
   <v type="int" >        4       11       16       44       45 </v>
   <v type="int" >        4       10       16       44       54 </v>
   <v type="int" >        4       16       44       54       55 </v>
   <v type="int" >        4       16       44       45       55 </v>
   <v type="int" >        4        4       10       11       54 </v>
   <v type="int" >        4       10       11       16       54 </v>
   <v type="int" >        4       11       16       54       55 </v>
   <v type="int" >        4        4       11       40       54 </v>
   <v type="int" >        4       11       40       53       54 </v>
   <v type="int" >        4       11       53       54       55 </v>
   <v type="int" >        4        4        5       11       40 </v>
   <v type="int" >        4        5       11       40       53 </v>
   <v type="int" >        4        5       39       40       53 </v>
   <v type="int" >        4        3        9       10       30 </v>
   <v type="int" >        4        3        4       10       30 </v>
   <v type="int" >        4        4       10       30       31 </v>
   <v type="int" >        4        9       10       30       43 </v>
   <v type="int" >        4       10       30       43       44 </v>
   <v type="int" >        4       10       30       31       44 </v>
   <v type="int" >        4        9       10       10       43 </v>
   <v type="int" >        4       10       10       43       44 </v>
   <v type="int" >        4        3       10       41       43 </v>
   <v type="int" >        4       10       41       43       54 </v>
   <v type="int" >        4        3        4       10       41 </v>
   <v type="int" >        4        4       10       41       54 </v>
   <v type="int" >        4        4       40       41       54 </v>
   <v type="int" >        4        2        2        9       29 </v>
   <v type="int" >        4        2        3        9       29 </v>
   <v type="int" >        4        3        9       29       30 </v>
   <v type="int" >        4        2        9       29       42 </v>
   <v type="int" >        4        9       29       42       43 </v>
   <v type="int" >        4        9       29       30       43 </v>
   <v type="int" >        4        2        3        9       42 </v>
   <v type="int" >        4        3        9       42       43 </v>
   <v type="int" >        4        3       41       42       43 </v>
   <v type="int" >        4        1        2        2       28 </v>
   <v type="int" >        4        2        2       28       29 </v>
   <v type="int" >        4       29       42       43       88 </v>
   <v type="int" >        4       28       29       42       88 </v>
   <v type="int" >        4       28       29       74       88 </v>
   <v type="int" >        4       29       43       88       89 </v>
   <v type="int" >        4       29       75       88       89 </v>
   <v type="int" >        4       29       74       75       88 </v>
   <v type="int" >        4       30       43       44       89 </v>
   <v type="int" >        4       29       30       43       89 </v>
   <v type="int" >        4       29       30       75       89 </v>
   <v type="int" >        4       30       44       89       90 </v>
   <v type="int" >        4       30       76       89       90 </v>
   <v type="int" >        4       30       75       76       89 </v>
   <v type="int" >        4       31       44       45       90 </v>
   <v type="int" >        4       30       31       44       90 </v>
   <v type="int" >        4       30       31       76       90 </v>
   <v type="int" >        4       31       45       90       91 </v>
   <v type="int" >        4       31       77       90       91 </v>
   <v type="int" >        4       31       76       77       90 </v>
   <v type="int" >        4       32       45       46       91 </v>
   <v type="int" >        4       31       32       45       91 </v>
   <v type="int" >        4       31       32       77       91 </v>
   <v type="int" >        4       32       46       91       92 </v>
   <v type="int" >        4       32       78       91       92 </v>
   <v type="int" >        4       32       77       78       91 </v>
   <v type="int" >        4       33       46       47       92 </v>
   <v type="int" >        4       32       33       46       92 </v>
   <v type="int" >        4       32       33       78       92 </v>
   <v type="int" >        4       33       47       92       93 </v>
   <v type="int" >        4       33       79       92       93 </v>
   <v type="int" >        4       33       78       79       92 </v>
   <v type="int" >        4       34       47       48       93 </v>
   <v type="int" >        4       33       34       47       93 </v>
   <v type="int" >        4       33       34       79       93 </v>
   <v type="int" >        4       34       48       93       94 </v>
   <v type="int" >        4       34       80       93       94 </v>
   <v type="int" >        4       34       79       80       93 </v>
   <v type="int" >        4       35       48       49       94 </v>
   <v type="int" >        4       34       35       48       94 </v>
   <v type="int" >        4       34       35       80       94 </v>
   <v type="int" >        4       35       49       94       95 </v>
   <v type="int" >        4       35       81       94       95 </v>
   <v type="int" >        4       35       80       81       94 </v>
   <v type="int" >        4       36       49       50       95 </v>
   <v type="int" >        4       35       36       49       95 </v>
   <v type="int" >        4       35       36       81       95 </v>
   <v type="int" >        4       36       50       95       96 </v>
   <v type="int" >        4       36       82       95       96 </v>
   <v type="int" >        4       36       81       82       95 </v>
   <v type="int" >        4       37       50       51       96 </v>
   <v type="int" >        4       36       37       50       96 </v>
   <v type="int" >        4       36       37       82       96 </v>
   <v type="int" >        4       37       51       96       97 </v>
   <v type="int" >        4       37       83       96       97 </v>
   <v type="int" >        4       37       82       83       96 </v>
   <v type="int" >        4       38       51       52       97 </v>
   <v type="int" >        4       37       38       51       97 </v>
   <v type="int" >        4       37       38       83       97 </v>
   <v type="int" >        4       38       52       97       98 </v>
   <v type="int" >        4       38       84       97       98 </v>
   <v type="int" >        4       38       83       84       97 </v>
   <v type="int" >        4       39       52       53       98 </v>
   <v type="int" >        4       38       39       52       98 </v>
   <v type="int" >        4       38       39       84       98 </v>
   <v type="int" >        4       39       53       98       99 </v>
   <v type="int" >        4       39       85       98       99 </v>
   <v type="int" >        4       39       84       85       98 </v>
   <v type="int" >        4       40       53       54       99 </v>
   <v type="int" >        4       39       40       53       99 </v>
   <v type="int" >        4       39       40       85       99 </v>
   <v type="int" >        4       40       54       99      100 </v>
   <v type="int" >        4       40       86       99      100 </v>
   <v type="int" >        4       40       85       86       99 </v>
   <v type="int" >        4       41       43       54      100 </v>
   <v type="int" >        4       40       41       54      100 </v>
   <v type="int" >        4       40       41       86      100 </v>
   <v type="int" >        4       41       43       89      100 </v>
   <v type="int" >        4       41       87       89      100 </v>
   <v type="int" >        4       41       86       87      100 </v>
   <v type="int" >        4       29       42       43       89 </v>
   <v type="int" >        4       41       42       43       89 </v>
   <v type="int" >        4       41       42       87       89 </v>
   <v type="int" >        4       29       42       75       89 </v>
   <v type="int" >        4       42       75       88       89 </v>
   <v type="int" >        4       42       87       88       89 </v>
   <v type="int" >        4       28       29       42       75 </v>
   <v type="int" >        4       28       42       75       88 </v>
   <v type="int" >        4       28       74       75       88 </v>
   <v type="int" >        4       41       43       54       87 </v>
   <v type="int" >        4       41       42       43       87 </v>
   <v type="int" >        4       42       43       87       88 </v>
   <v type="int" >        4       43       54       87      100 </v>
   <v type="int" >        4       43       87       89      100 </v>
   <v type="int" >        4       43       87       88       89 </v>
   <v type="int" >        4       44       54       55      100 </v>
   <v type="int" >        4       43       44       54      100 </v>
   <v type="int" >        4       43       44       89      100 </v>
   <v type="int" >        4       44       55      100      101 </v>
   <v type="int" >        4       44       90      100      101 </v>
   <v type="int" >        4       44       89       90      100 </v>
   <v type="int" >        4       45       55       56      101 </v>
   <v type="int" >        4       44       45       55      101 </v>
   <v type="int" >        4       44       45       90      101 </v>
   <v type="int" >        4       45       56      101      102 </v>
   <v type="int" >        4       45       91      101      102 </v>
   <v type="int" >        4       45       90       91      101 </v>
   <v type="int" >        4       46       56       57      102 </v>
   <v type="int" >        4       45       46       56      102 </v>
   <v type="int" >        4       45       46       91      102 </v>
   <v type="int" >        4       46       57      102      103 </v>
   <v type="int" >        4       46       92      102      103 </v>
   <v type="int" >        4       46       91       92      102 </v>
   <v type="int" >        4       47       57       58      103 </v>
   <v type="int" >        4       46       47       57      103 </v>
   <v type="int" >        4       46       47       92      103 </v>
   <v type="int" >        4       47       58      103      104 </v>
   <v type="int" >        4       47       93      103      104 </v>
   <v type="int" >        4       47       92       93      103 </v>
   <v type="int" >        4       48       58       59      104 </v>
   <v type="int" >        4       47       48       58      104 </v>
   <v type="int" >        4       47       48       93      104 </v>
   <v type="int" >        4       48       59      104      105 </v>
   <v type="int" >        4       48       94      104      105 </v>
   <v type="int" >        4       48       93       94      104 </v>
   <v type="int" >        4       49       59       60      105 </v>
   <v type="int" >        4       48       49       59      105 </v>
   <v type="int" >        4       48       49       94      105 </v>
   <v type="int" >        4       49       60      105      106 </v>
   <v type="int" >        4       49       95      105      106 </v>
   <v type="int" >        4       49       94       95      105 </v>
   <v type="int" >        4       50       60       61      106 </v>
   <v type="int" >        4       49       50       60      106 </v>
   <v type="int" >        4       49       50       95      106 </v>
   <v type="int" >        4       50       61      106      107 </v>
   <v type="int" >        4       50       96      106      107 </v>
   <v type="int" >        4       50       95       96      106 </v>
   <v type="int" >        4       51       61       62      107 </v>
   <v type="int" >        4       50       51       61      107 </v>
   <v type="int" >        4       50       51       96      107 </v>
   <v type="int" >        4       51       62      107      108 </v>
   <v type="int" >        4       51       97      107      108 </v>
   <v type="int" >        4       51       96       97      107 </v>
   <v type="int" >        4       52       62       63      108 </v>
   <v type="int" >        4       51       52       62      108 </v>
   <v type="int" >        4       51       52       97      108 </v>
   <v type="int" >        4       52       63      108      109 </v>
   <v type="int" >        4       52       98      108      109 </v>
   <v type="int" >        4       52       97       98      108 </v>
   <v type="int" >        4       53       55       63      109 </v>
   <v type="int" >        4       52       53       63      109 </v>
   <v type="int" >        4       52       53       98      109 </v>
   <v type="int" >        4       53       55      101      109 </v>
   <v type="int" >        4       53       99      101      109 </v>
   <v type="int" >        4       53       98       99      109 </v>
   <v type="int" >        4       44       54       55      101 </v>
   <v type="int" >        4       53       54       55      101 </v>
   <v type="int" >        4       53       54       99      101 </v>
   <v type="int" >        4       44       54       90      101 </v>
   <v type="int" >        4       54       90      100      101 </v>
   <v type="int" >        4       54       99      100      101 </v>
   <v type="int" >        4       30       43       44       90 </v>
   <v type="int" >        4       43       44       54       90 </v>
   <v type="int" >        4       43       54       90      100 </v>
   <v type="int" >        4       30       43       76       90 </v>
   <v type="int" >        4       43       76       89       90 </v>
   <v type="int" >        4       43       89       90      100 </v>
   <v type="int" >        4       29       30       43       76 </v>
   <v type="int" >        4       29       43       76       89 </v>
   <v type="int" >        4       29       75       76       89 </v>
   <v type="int" >        4       40       53       54       86 </v>
   <v type="int" >        4       40       41       54       86 </v>
   <v type="int" >        4       41       54       86       87 </v>
   <v type="int" >        4       53       54       86       99 </v>
   <v type="int" >        4       54       86       99      100 </v>
   <v type="int" >        4       54       86       87      100 </v>
   <v type="int" >        4       53       55       63       99 </v>
   <v type="int" >        4       53       54       55       99 </v>
   <v type="int" >        4       54       55       99      100 </v>
   <v type="int" >        4       55       63       99      109 </v>
   <v type="int" >        4       55       99      101      109 </v>
   <v type="int" >        4       55       99      100      101 </v>
   <v type="int" >        4       56       63       64      109 </v>
   <v type="int" >        4       55       56       63      109 </v>
   <v type="int" >        4       55       56      101      109 </v>
   <v type="int" >        4       56       64      109      110 </v>
   <v type="int" >        4       56      102      109      110 </v>
   <v type="int" >        4       56      101      102      109 </v>
   <v type="int" >        4       57       64       65      110 </v>
   <v type="int" >        4       56       57       64      110 </v>
   <v type="int" >        4       56       57      102      110 </v>
   <v type="int" >        4       57       65      110      111 </v>
   <v type="int" >        4       57      103      110      111 </v>
   <v type="int" >        4       57      102      103      110 </v>
   <v type="int" >        4       58       65       66      111 </v>
   <v type="int" >        4       57       58       65      111 </v>
   <v type="int" >        4       57       58      103      111 </v>
   <v type="int" >        4       58       66      111      112 </v>
   <v type="int" >        4       58      104      111      112 </v>
   <v type="int" >        4       58      103      104      111 </v>
   <v type="int" >        4       59       66       67      112 </v>
   <v type="int" >        4       58       59       66      112 </v>
   <v type="int" >        4       58       59      104      112 </v>
   <v type="int" >        4       59       67      112      113 </v>
   <v type="int" >        4       59      105      112      113 </v>
   <v type="int" >        4       59      104      105      112 </v>
   <v type="int" >        4       60       67       68      113 </v>
   <v type="int" >        4       59       60       67      113 </v>
   <v type="int" >        4       59       60      105      113 </v>
   <v type="int" >        4       60       68      113      114 </v>
   <v type="int" >        4       60      106      113      114 </v>
   <v type="int" >        4       60      105      106      113 </v>
   <v type="int" >        4       61       68       69      114 </v>
   <v type="int" >        4       60       61       68      114 </v>
   <v type="int" >        4       60       61      106      114 </v>
   <v type="int" >        4       61       69      114      115 </v>
   <v type="int" >        4       61      107      114      115 </v>
   <v type="int" >        4       61      106      107      114 </v>
   <v type="int" >        4       62       64       69      115 </v>
   <v type="int" >        4       61       62       69      115 </v>
   <v type="int" >        4       61       62      107      115 </v>
   <v type="int" >        4       62       64      110      115 </v>
   <v type="int" >        4       62      108      110      115 </v>
   <v type="int" >        4       62      107      108      115 </v>
   <v type="int" >        4       56       63       64      110 </v>
   <v type="int" >        4       62       63       64      110 </v>
   <v type="int" >        4       62       63      108      110 </v>
   <v type="int" >        4       56       63      102      110 </v>
   <v type="int" >        4       63      102      109      110 </v>
   <v type="int" >        4       63      108      109      110 </v>
   <v type="int" >        4       45       55       56      102 </v>
   <v type="int" >        4       55       56       63      102 </v>
   <v type="int" >        4       55       63      102      109 </v>
   <v type="int" >        4       45       55       91      102 </v>
   <v type="int" >        4       55       91      101      102 </v>
   <v type="int" >        4       55      101      102      109 </v>
   <v type="int" >        4       31       44       45       91 </v>
   <v type="int" >        4       44       45       55       91 </v>
   <v type="int" >        4       44       55       91      101 </v>
   <v type="int" >        4       31       44       77       91 </v>
   <v type="int" >        4       44       77       90       91 </v>
   <v type="int" >        4       44       90       91      101 </v>
   <v type="int" >        4       30       31       44       77 </v>
   <v type="int" >        4       30       44       77       90 </v>
   <v type="int" >        4       30       76       77       90 </v>
   <v type="int" >        4       39       52       53       85 </v>
   <v type="int" >        4       39       40       53       85 </v>
   <v type="int" >        4       40       53       85       86 </v>
   <v type="int" >        4       52       53       85       98 </v>
   <v type="int" >        4       53       85       98       99 </v>
   <v type="int" >        4       53       85       86       99 </v>
   <v type="int" >        4       52       62       63       98 </v>
   <v type="int" >        4       52       53       63       98 </v>
   <v type="int" >        4       53       63       98       99 </v>
   <v type="int" >        4       62       63       98      108 </v>
   <v type="int" >        4       63       98      108      109 </v>
   <v type="int" >        4       63       98       99      109 </v>
   <v type="int" >        4       62       64       69      108 </v>
   <v type="int" >        4       62       63       64      108 </v>
   <v type="int" >        4       63       64      108      109 </v>
   <v type="int" >        4       64       69      108      115 </v>
   <v type="int" >        4       64      108      110      115 </v>
   <v type="int" >        4       64      108      109      110 </v>
   <v type="int" >        4       65       69       70      115 </v>
   <v type="int" >        4       64       65       69      115 </v>
   <v type="int" >        4       64       65      110      115 </v>
   <v type="int" >        4       65       70      115      116 </v>
   <v type="int" >        4       65      111      115      116 </v>
   <v type="int" >        4       65      110      111      115 </v>
   <v type="int" >        4       66       70       71      116 </v>
   <v type="int" >        4       65       66       70      116 </v>
   <v type="int" >        4       65       66      111      116 </v>
   <v type="int" >        4       66       71      116      117 </v>
   <v type="int" >        4       66      112      116      117 </v>
   <v type="int" >        4       66      111      112      116 </v>
   <v type="int" >        4       67       71       72      117 </v>
   <v type="int" >        4       66       67       71      117 </v>
   <v type="int" >        4       66       67      112      117 </v>
   <v type="int" >        4       67       72      117      118 </v>
   <v type="int" >        4       67      113      117      118 </v>
   <v type="int" >        4       67      112      113      117 </v>
   <v type="int" >        4       68       70       72      118 </v>
   <v type="int" >        4       67       68       72      118 </v>
   <v type="int" >        4       67       68      113      118 </v>
   <v type="int" >        4       68       70      116      118 </v>
   <v type="int" >        4       68      114      116      118 </v>
   <v type="int" >        4       68      113      114      118 </v>
   <v type="int" >        4       65       69       70      116 </v>
   <v type="int" >        4       68       69       70      116 </v>
   <v type="int" >        4       68       69      114      116 </v>
   <v type="int" >        4       65       69      111      116 </v>
   <v type="int" >        4       69      111      115      116 </v>
   <v type="int" >        4       69      114      115      116 </v>
   <v type="int" >        4       57       64       65      111 </v>
   <v type="int" >        4       64       65       69      111 </v>
   <v type="int" >        4       64       69      111      115 </v>
   <v type="int" >        4       57       64      103      111 </v>
   <v type="int" >        4       64      103      110      111 </v>
   <v type="int" >        4       64      110      111      115 </v>
   <v type="int" >        4       46       56       57      103 </v>
   <v type="int" >        4       56       57       64      103 </v>
   <v type="int" >        4       56       64      103      110 </v>
   <v type="int" >        4       46       56       92      103 </v>
   <v type="int" >        4       56       92      102      103 </v>
   <v type="int" >        4       56      102      103      110 </v>
   <v type="int" >        4       32       45       46       92 </v>
   <v type="int" >        4       45       46       56       92 </v>
   <v type="int" >        4       45       56       92      102 </v>
   <v type="int" >        4       32       45       78       92 </v>
   <v type="int" >        4       45       78       91       92 </v>
   <v type="int" >        4       45       91       92      102 </v>
   <v type="int" >        4       31       32       45       78 </v>
   <v type="int" >        4       31       45       78       91 </v>
   <v type="int" >        4       31       77       78       91 </v>
   <v type="int" >        4       38       51       52       84 </v>
   <v type="int" >        4       38       39       52       84 </v>
   <v type="int" >        4       39       52       84       85 </v>
   <v type="int" >        4       51       52       84       97 </v>
   <v type="int" >        4       52       84       97       98 </v>
   <v type="int" >        4       52       84       85       98 </v>
   <v type="int" >        4       51       61       62       97 </v>
   <v type="int" >        4       51       52       62       97 </v>
   <v type="int" >        4       52       62       97       98 </v>
   <v type="int" >        4       61       62       97      107 </v>
   <v type="int" >        4       62       97      107      108 </v>
   <v type="int" >        4       62       97       98      108 </v>
   <v type="int" >        4       61       68       69      107 </v>
   <v type="int" >        4       61       62       69      107 </v>
   <v type="int" >        4       62       69      107      108 </v>
   <v type="int" >        4       68       69      107      114 </v>
   <v type="int" >        4       69      107      114      115 </v>
   <v type="int" >        4       69      107      108      115 </v>
   <v type="int" >        4       68       70       72      114 </v>
   <v type="int" >        4       68       69       70      114 </v>
   <v type="int" >        4       69       70      114      115 </v>
   <v type="int" >        4       70       72      114      118 </v>
   <v type="int" >        4       70      114      116      118 </v>
   <v type="int" >        4       70      114      115      116 </v>
   <v type="int" >        8       71       72       73      118 </v>
   <v type="int" >        4       70       71       72      118 </v>
   <v type="int" >        4       70       71      116      118 </v>
   <v type="int" >        8       71       73      118      119 </v>
   <v type="int" >        8       71      117      118      119 </v>
   <v type="int" >        4       71      116      117      118 </v>
   <v type="int" >        8       71       72       73      119 </v>
   <v type="int" >        8       71       72      117      119 </v>
   <v type="int" >        8       72      117      118      119 </v>
   <v type="int" >        4       66       70       71      117 </v>
   <v type="int" >        4       70       71       72      117 </v>
   <v type="int" >        4       70       72      117      118 </v>
   <v type="int" >        4       66       70      112      117 </v>
   <v type="int" >        4       70      112      116      117 </v>
   <v type="int" >        4       70      116      117      118 </v>
   <v type="int" >        4       58       65       66      112 </v>
   <v type="int" >        4       65       66       70      112 </v>
   <v type="int" >        4       65       70      112      116 </v>
   <v type="int" >        4       58       65      104      112 </v>
   <v type="int" >        4       65      104      111      112 </v>
   <v type="int" >        4       65      111      112      116 </v>
   <v type="int" >        4       47       57       58      104 </v>
   <v type="int" >        4       57       58       65      104 </v>
   <v type="int" >        4       57       65      104      111 </v>
   <v type="int" >        4       47       57       93      104 </v>
   <v type="int" >        4       57       93      103      104 </v>
   <v type="int" >        4       57      103      104      111 </v>
   <v type="int" >        4       33       46       47       93 </v>
   <v type="int" >        4       46       47       57       93 </v>
   <v type="int" >        4       46       57       93      103 </v>
   <v type="int" >        4       33       46       79       93 </v>
   <v type="int" >        4       46       79       92       93 </v>
   <v type="int" >        4       46       92       93      103 </v>
   <v type="int" >        4       32       33       46       79 </v>
   <v type="int" >        4       32       46       79       92 </v>
   <v type="int" >        4       32       78       79       92 </v>
   <v type="int" >        4       37       50       51       83 </v>
   <v type="int" >        4       37       38       51       83 </v>
   <v type="int" >        4       38       51       83       84 </v>
   <v type="int" >        4       50       51       83       96 </v>
   <v type="int" >        4       51       83       96       97 </v>
   <v type="int" >        4       51       83       84       97 </v>
   <v type="int" >        4       50       60       61       96 </v>
   <v type="int" >        4       50       51       61       96 </v>
   <v type="int" >        4       51       61       96       97 </v>
   <v type="int" >        4       60       61       96      106 </v>
   <v type="int" >        4       61       96      106      107 </v>
   <v type="int" >        4       61       96       97      107 </v>
   <v type="int" >        4       60       67       68      106 </v>
   <v type="int" >        4       60       61       68      106 </v>
   <v type="int" >        4       61       68      106      107 </v>
   <v type="int" >        4       67       68      106      113 </v>
   <v type="int" >        4       68      106      113      114 </v>
   <v type="int" >        4       68      106      107      114 </v>
   <v type="int" >        4       67       71       72      113 </v>
   <v type="int" >        4       67       68       72      113 </v>
   <v type="int" >        4       68       72      113      114 </v>
   <v type="int" >        4       71       72      113      117 </v>
   <v type="int" >        4       72      113      117      118 </v>
   <v type="int" >        4       72      113      114      118 </v>
   <v type="int" >        8       71       72       73      117 </v>
   <v type="int" >        8       72       73      117      118 </v>
   <v type="int" >        8       73      117      118      119 </v>
   <v type="int" >        4       67       71       72      118 </v>
   <v type="int" >        4       67       71      113      118 </v>
   <v type="int" >        4       71      113      117      118 </v>
   <v type="int" >        4       59       66       67      113 </v>
   <v type="int" >        4       66       67       71      113 </v>
   <v type="int" >        4       66       71      113      117 </v>
   <v type="int" >        4       59       66      105      113 </v>
   <v type="int" >        4       66      105      112      113 </v>
   <v type="int" >        4       66      112      113      117 </v>
   <v type="int" >        4       48       58       59      105 </v>
   <v type="int" >        4       58       59       66      105 </v>
   <v type="int" >        4       58       66      105      112 </v>
   <v type="int" >        4       48       58       94      105 </v>
   <v type="int" >        4       58       94      104      105 </v>
   <v type="int" >        4       58      104      105      112 </v>
   <v type="int" >        4       34       47       48       94 </v>
   <v type="int" >        4       47       48       58       94 </v>
   <v type="int" >        4       47       58       94      104 </v>
   <v type="int" >        4       34       47       80       94 </v>
   <v type="int" >        4       47       80       93       94 </v>
   <v type="int" >        4       47       93       94      104 </v>
   <v type="int" >        4       33       34       47       80 </v>
   <v type="int" >        4       33       47       80       93 </v>
   <v type="int" >        4       33       79       80       93 </v>
   <v type="int" >        4       36       49       50       82 </v>
   <v type="int" >        4       36       37       50       82 </v>
   <v type="int" >        4       37       50       82       83 </v>
   <v type="int" >        4       49       50       82       95 </v>
   <v type="int" >        4       50       82       95       96 </v>
   <v type="int" >        4       50       82       83       96 </v>
   <v type="int" >        4       49       59       60       95 </v>
   <v type="int" >        4       49       50       60       95 </v>
   <v type="int" >        4       50       60       95       96 </v>
   <v type="int" >        4       59       60       95      105 </v>
   <v type="int" >        4       60       95      105      106 </v>
   <v type="int" >        4       60       95       96      106 </v>
   <v type="int" >        4       59       66       67      105 </v>
   <v type="int" >        4       59       60       67      105 </v>
   <v type="int" >        4       60       67      105      106 </v>
   <v type="int" >        4       66       67      105      112 </v>
   <v type="int" >        4       67      105      112      113 </v>
   <v type="int" >        4       67      105      106      113 </v>
   <v type="int" >        4       66       70       71      112 </v>
   <v type="int" >        4       66       67       71      112 </v>
   <v type="int" >        4       67       71      112      113 </v>
   <v type="int" >        4       70       71      112      116 </v>
   <v type="int" >        4       71      112      116      117 </v>
   <v type="int" >        4       71      112      113      117 </v>
   <v type="int" >        4       68       70       72      116 </v>
   <v type="int" >        4       70       71       72      116 </v>
   <v type="int" >        4       71       72      116      117 </v>
   <v type="int" >        4       68       72      114      116 </v>
   <v type="int" >        4       72      114      116      118 </v>
   <v type="int" >        4       72      116      117      118 </v>
   <v type="int" >        4       60       67       68      114 </v>
   <v type="int" >        4       67       68       72      114 </v>
   <v type="int" >        4       67       72      114      118 </v>
   <v type="int" >        4       60       67      106      114 </v>
   <v type="int" >        4       67      106      113      114 </v>
   <v type="int" >        4       67      113      114      118 </v>
   <v type="int" >        4       49       59       60      106 </v>
   <v type="int" >        4       59       60       67      106 </v>
   <v type="int" >        4       59       67      106      113 </v>
   <v type="int" >        4       49       59       95      106 </v>
   <v type="int" >        4       59       95      105      106 </v>
   <v type="int" >        4       59      105      106      113 </v>
   <v type="int" >        4       35       48       49       95 </v>
   <v type="int" >        4       48       49       59       95 </v>
   <v type="int" >        4       48       59       95      105 </v>
   <v type="int" >        4       35       48       81       95 </v>
   <v type="int" >        4       48       81       94       95 </v>
   <v type="int" >        4       48       94       95      105 </v>
   <v type="int" >        4       34       35       48       81 </v>
   <v type="int" >        4       34       48       81       94 </v>
   <v type="int" >        4       34       80       81       94 </v>
   <v type="int" >        4       35       48       49       81 </v>
   <v type="int" >        4       35       36       49       81 </v>
   <v type="int" >        4       36       49       81       82 </v>
   <v type="int" >        4       48       49       81       94 </v>
   <v type="int" >        4       49       81       94       95 </v>
   <v type="int" >        4       49       81       82       95 </v>
   <v type="int" >        4       48       58       59       94 </v>
   <v type="int" >        4       48       49       59       94 </v>
   <v type="int" >        4       49       59       94       95 </v>
   <v type="int" >        4       58       59       94      104 </v>
   <v type="int" >        4       59       94      104      105 </v>
   <v type="int" >        4       59       94       95      105 </v>
   <v type="int" >        4       58       65       66      104 </v>
   <v type="int" >        4       58       59       66      104 </v>
   <v type="int" >        4       59       66      104      105 </v>
   <v type="int" >        4       65       66      104      111 </v>
   <v type="int" >        4       66      104      111      112 </v>
   <v type="int" >        4       66      104      105      112 </v>
   <v type="int" >        4       65       69       70      111 </v>
   <v type="int" >        4       65       66       70      111 </v>
   <v type="int" >        4       66       70      111      112 </v>
   <v type="int" >        4       69       70      111      115 </v>
   <v type="int" >        4       70      111      115      116 </v>
   <v type="int" >        4       70      111      112      116 </v>
   <v type="int" >        4       61       68       69      115 </v>
   <v type="int" >        4       68       69       70      115 </v>
   <v type="int" >        4       68       70      115      116 </v>
   <v type="int" >        4       61       68      107      115 </v>
   <v type="int" >        4       68      107      114      115 </v>
   <v type="int" >        4       68      114      115      116 </v>
   <v type="int" >        4       50       60       61      107 </v>
   <v type="int" >        4       60       61       68      107 </v>
   <v type="int" >        4       60       68      107      114 </v>
   <v type="int" >        4       50       60       96      107 </v>
   <v type="int" >        4       60       96      106      107 </v>
   <v type="int" >        4       60      106      107      114 </v>
   <v type="int" >        4       36       49       50       96 </v>
   <v type="int" >        4       49       50       60       96 </v>
   <v type="int" >        4       49       60       96      106 </v>
   <v type="int" >        4       36       49       82       96 </v>
   <v type="int" >        4       49       82       95       96 </v>
   <v type="int" >        4       49       95       96      106 </v>
   <v type="int" >        4       35       36       49       82 </v>
   <v type="int" >        4       35       49       82       95 </v>
   <v type="int" >        4       35       81       82       95 </v>
   <v type="int" >        4       34       47       48       80 </v>
   <v type="int" >        4       34       35       48       80 </v>
   <v type="int" >        4       35       48       80       81 </v>
   <v type="int" >        4       47       48       80       93 </v>
   <v type="int" >        4       48       80       93       94 </v>
   <v type="int" >        4       48       80       81       94 </v>
   <v type="int" >        4       47       57       58       93 </v>
   <v type="int" >        4       47       48       58       93 </v>
   <v type="int" >        4       48       58       93       94 </v>
   <v type="int" >        4       57       58       93      103 </v>
   <v type="int" >        4       58       93      103      104 </v>
   <v type="int" >        4       58       93       94      104 </v>
   <v type="int" >        4       57       64       65      103 </v>
   <v type="int" >        4       57       58       65      103 </v>
   <v type="int" >        4       58       65      103      104 </v>
   <v type="int" >        4       64       65      103      110 </v>
   <v type="int" >        4       65      103      110      111 </v>
   <v type="int" >        4       65      103      104      111 </v>
   <v type="int" >        4       62       64       69      110 </v>
   <v type="int" >        4       64       65       69      110 </v>
   <v type="int" >        4       65       69      110      111 </v>
   <v type="int" >        4       62       69      108      110 </v>
   <v type="int" >        4       69      108      110      115 </v>
   <v type="int" >        4       69      110      111      115 </v>
   <v type="int" >        4       51       61       62      108 </v>
   <v type="int" >        4       61       62       69      108 </v>
   <v type="int" >        4       61       69      108      115 </v>
   <v type="int" >        4       51       61       97      108 </v>
   <v type="int" >        4       61       97      107      108 </v>
   <v type="int" >        4       61      107      108      115 </v>
   <v type="int" >        4       37       50       51       97 </v>
   <v type="int" >        4       50       51       61       97 </v>
   <v type="int" >        4       50       61       97      107 </v>
   <v type="int" >        4       37       50       83       97 </v>
   <v type="int" >        4       50       83       96       97 </v>
   <v type="int" >        4       50       96       97      107 </v>
   <v type="int" >        4       36       37       50       83 </v>
   <v type="int" >        4       36       50       83       96 </v>
   <v type="int" >        4       36       82       83       96 </v>
   <v type="int" >        4       33       46       47       79 </v>
   <v type="int" >        4       33       34       47       79 </v>
   <v type="int" >        4       34       47       79       80 </v>
   <v type="int" >        4       46       47       79       92 </v>
   <v type="int" >        4       47       79       92       93 </v>
   <v type="int" >        4       47       79       80       93 </v>
   <v type="int" >        4       46       56       57       92 </v>
   <v type="int" >        4       46       47       57       92 </v>
   <v type="int" >        4       47       57       92       93 </v>
   <v type="int" >        4       56       57       92      102 </v>
   <v type="int" >        4       57       92      102      103 </v>
   <v type="int" >        4       57       92       93      103 </v>
   <v type="int" >        4       56       63       64      102 </v>
   <v type="int" >        4       56       57       64      102 </v>
   <v type="int" >        4       57       64      102      103 </v>
   <v type="int" >        4       63       64      102      109 </v>
   <v type="int" >        4       64      102      109      110 </v>
   <v type="int" >        4       64      102      103      110 </v>
   <v type="int" >        4       52       62       63      109 </v>
   <v type="int" >        4       62       63       64      109 </v>
   <v type="int" >        4       62       64      109      110 </v>
   <v type="int" >        4       52       62       98      109 </v>
   <v type="int" >        4       62       98      108      109 </v>
   <v type="int" >        4       62      108      109      110 </v>
   <v type="int" >        4       38       51       52       98 </v>
   <v type="int" >        4       51       52       62       98 </v>
   <v type="int" >        4       51       62       98      108 </v>
   <v type="int" >        4       38       51       84       98 </v>
   <v type="int" >        4       51       84       97       98 </v>
   <v type="int" >        4       51       97       98      108 </v>
   <v type="int" >        4       37       38       51       84 </v>
   <v type="int" >        4       37       51       84       97 </v>
   <v type="int" >        4       37       83       84       97 </v>
   <v type="int" >        4       32       45       46       78 </v>
   <v type="int" >        4       32       33       46       78 </v>
   <v type="int" >        4       33       46       78       79 </v>
   <v type="int" >        4       45       46       78       91 </v>
   <v type="int" >        4       46       78       91       92 </v>
   <v type="int" >        4       46       78       79       92 </v>
   <v type="int" >        4       45       55       56       91 </v>
   <v type="int" >        4       45       46       56       91 </v>
   <v type="int" >        4       46       56       91       92 </v>
   <v type="int" >        4       55       56       91      101 </v>
   <v type="int" >        4       56       91      101      102 </v>
   <v type="int" >        4       56       91       92      102 </v>
   <v type="int" >        4       53       55       63      101 </v>
   <v type="int" >        4       55       56       63      101 </v>
   <v type="int" >        4       56       63      101      102 </v>
   <v type="int" >        4       53       63       99      101 </v>
   <v type="int" >        4       63       99      101      109 </v>
   <v type="int" >        4       63      101      102      109 </v>
   <v type="int" >        4       39       52       53       99 </v>
   <v type="int" >        4       52       53       63       99 </v>
   <v type="int" >        4       52       63       99      109 </v>
   <v type="int" >        4       39       52       85       99 </v>
   <v type="int" >        4       52       85       98       99 </v>
   <v type="int" >        4       52       98       99      109 </v>
   <v type="int" >        4       38       39       52       85 </v>
   <v type="int" >        4       38       52       85       98 </v>
   <v type="int" >        4       38       84       85       98 </v>
   <v type="int" >        4       31       44       45       77 </v>
   <v type="int" >        4       31       32       45       77 </v>
   <v type="int" >        4       32       45       77       78 </v>
   <v type="int" >        4       44       45       77       90 </v>
   <v type="int" >        4       45       77       90       91 </v>
   <v type="int" >        4       45       77       78       91 </v>
   <v type="int" >        4       44       54       55       90 </v>
   <v type="int" >        4       44       45       55       90 </v>
   <v type="int" >        4       45       55       90       91 </v>
   <v type="int" >        4       54       55       90      100 </v>
   <v type="int" >        4       55       90      100      101 </v>
   <v type="int" >        4       55       90       91      101 </v>
   <v type="int" >        4       40       53       54      100 </v>
   <v type="int" >        4       53       54       55      100 </v>
   <v type="int" >        4       53       55      100      101 </v>
   <v type="int" >        4       40       53       86      100 </v>
   <v type="int" >        4       53       86       99      100 </v>
   <v type="int" >        4       53       99      100      101 </v>
   <v type="int" >        4       39       40       53       86 </v>
   <v type="int" >        4       39       53       86       99 </v>
   <v type="int" >        4       39       85       86       99 </v>
   <v type="int" >        4       30       43       44       76 </v>
   <v type="int" >        4       30       31       44       76 </v>
   <v type="int" >        4       31       44       76       77 </v>
   <v type="int" >        4       43       44       76       89 </v>
   <v type="int" >        4       44       76       89       90 </v>
   <v type="int" >        4       44       76       77       90 </v>
   <v type="int" >        4       41       43       54       89 </v>
   <v type="int" >        4       43       44       54       89 </v>
   <v type="int" >        4       44       54       89       90 </v>
   <v type="int" >        4       41       54       87       89 </v>
   <v type="int" >        4       54       87       89      100 </v>
   <v type="int" >        4       54       89       90      100 </v>
   <v type="int" >        4       40       41       54       87 </v>
   <v type="int" >        4       40       54       87      100 </v>
   <v type="int" >        4       40       86       87      100 </v>
   <v type="int" >        4       29       42       43       75 </v>
   <v type="int" >        4       29       30       43       75 </v>
   <v type="int" >        4       30       43       75       76 </v>
   <v type="int" >        4       42       43       75       88 </v>
   <v type="int" >        4       43       75       88       89 </v>
   <v type="int" >        4       43       75       76       89 </v>
   <v type="int" >        4       41       42       43       88 </v>
   <v type="int" >        4       41       43       88       89 </v>
   <v type="int" >        4       41       87       88       89 </v>
   <v type="int" >        4       28       29       42       74 </v>
   <v type="int" >        4       29       42       74       75 </v>
   <v type="int" >        4       42       74       75       88 </v>
   <v type="int" >        4       75       75       88       89 </v>
   <v type="int" >        4       74       75       75       88 </v>
   <v type="int" >        2       74       74       75       75 </v>
   <v type="int" >        2       75       75       89       89 </v>
   <v type="int" >        4       76       89       89       90 </v>
   <v type="int" >        4       75       76       89       89 </v>
   <v type="int" >        8       75       76       88       89 </v>
   <v type="int" >        8       76       89       90      100 </v>
   <v type="int" >        8       76       87       89      100 </v>
   <v type="int" >        8       76       87       88       89 </v>
   <v type="int" >        4       77       90       91      100 </v>
   <v type="int" >        4       76       77       90      100 </v>
   <v type="int" >        4       76       77       87      100 </v>
   <v type="int" >        4       77       91       99      100 </v>
   <v type="int" >        4       77       86       99      100 </v>
   <v type="int" >        4       77       86       87      100 </v>
   <v type="int" >        4       78       91       92       99 </v>
   <v type="int" >        4       77       78       91       99 </v>
   <v type="int" >        4       77       78       86       99 </v>
   <v type="int" >        4       78       92       98       99 </v>
   <v type="int" >        4       78       85       98       99 </v>
   <v type="int" >        4       78       85       86       99 </v>
   <v type="int" >        4       79       92       93       98 </v>
   <v type="int" >        4       78       79       92       98 </v>
   <v type="int" >        4       78       79       85       98 </v>
   <v type="int" >        4       79       93       97       98 </v>
   <v type="int" >        4       79       84       97       98 </v>
   <v type="int" >        4       79       84       85       98 </v>
   <v type="int" >        4       80       93       94       97 </v>
   <v type="int" >        4       79       80       93       97 </v>
   <v type="int" >        4       79       80       84       97 </v>
   <v type="int" >        4       80       94       96       97 </v>
   <v type="int" >        4       80       83       96       97 </v>
   <v type="int" >        4       80       83       84       97 </v>
   <v type="int" >        4       81       94       95       96 </v>
   <v type="int" >        4       80       81       94       96 </v>
   <v type="int" >        4       80       81       83       96 </v>
   <v type="int" >        4       81       95       95       96 </v>
   <v type="int" >        4       81       82       95       96 </v>
   <v type="int" >        4       81       82       83       96 </v>
   <v type="int" >        4       82       95       95       96 </v>
   <v type="int" >        4       81       82       95       95 </v>
   <v type="int" >        8       81       82       82       95 </v>
   <v type="int" >        8       82       94       95       96 </v>
   <v type="int" >        8       81       82       94       95 </v>
   <v type="int" >        4       83       94       96       97 </v>
   <v type="int" >        4       82       83       94       96 </v>
   <v type="int" >        4       81       82       83       94 </v>
   <v type="int" >        4       83       93       94       97 </v>
   <v type="int" >        4       80       83       93       94 </v>
   <v type="int" >        4       80       81       83       94 </v>
   <v type="int" >        4       84       93       97       98 </v>
   <v type="int" >        4       83       84       93       97 </v>
   <v type="int" >        4       80       83       84       93 </v>
   <v type="int" >        4       84       92       93       98 </v>
   <v type="int" >        4       79       84       92       93 </v>
   <v type="int" >        4       79       80       84       93 </v>
   <v type="int" >        4       85       92       98       99 </v>
   <v type="int" >        4       84       85       92       98 </v>
   <v type="int" >        4       79       84       85       92 </v>
   <v type="int" >        4       85       91       92       99 </v>
   <v type="int" >        4       78       85       91       92 </v>
   <v type="int" >        4       78       79       85       92 </v>
   <v type="int" >        4       86       91       99      100 </v>
   <v type="int" >        4       85       86       91       99 </v>
   <v type="int" >        4       78       85       86       91 </v>
   <v type="int" >        4       86       90       91      100 </v>
   <v type="int" >        4       77       86       90       91 </v>
   <v type="int" >        4       77       78       86       91 </v>
   <v type="int" >        4       87       89       90      100 </v>
   <v type="int" >        4       86       87       90      100 </v>
   <v type="int" >        4       77       86       87       90 </v>
   <v type="int" >        4       87       89       89       90 </v>
   <v type="int" >        4       76       87       89       90 </v>
   <v type="int" >        4       76       77       87       90 </v>
   <v type="int" >        4       75       88       89       89 </v>
   <v type="int" >        4       87       88       89       89 </v>
   <v type="int" >        8       75       88       88       89 </v>
   <v type="int" >        8       74       75       88       88 </v>
   <v type="int" >        4       74       74       75       88 </v>
   <v type="int" >        4       90       90      100      101 </v>
   <v type="int" >        4       89       90       90      100 </v>
   <v type="int" >        2       89       89       90       90 </v>
   <v type="int" >        2       90       90      101      101 </v>
   <v type="int" >        4       91      101      101      102 </v>
   <v type="int" >        4       90       91      101      101 </v>
   <v type="int" >        8       90       91      100      101 </v>
   <v type="int" >        8       91      101      102      109 </v>
   <v type="int" >        8       91       99      101      109 </v>
   <v type="int" >        8       91       99      100      101 </v>
   <v type="int" >        4       92      102      103      109 </v>
   <v type="int" >        4       91       92      102      109 </v>
   <v type="int" >        4       91       92       99      109 </v>
   <v type="int" >        4       92      103      108      109 </v>
   <v type="int" >        4       92       98      108      109 </v>
   <v type="int" >        4       92       98       99      109 </v>
   <v type="int" >        4       93      103      104      108 </v>
   <v type="int" >        4       92       93      103      108 </v>
   <v type="int" >        4       92       93       98      108 </v>
   <v type="int" >        4       93      104      107      108 </v>
   <v type="int" >        4       93       97      107      108 </v>
   <v type="int" >        4       93       97       98      108 </v>
   <v type="int" >        4       94      104      105      107 </v>
   <v type="int" >        4       93       94      104      107 </v>
   <v type="int" >        4       93       94       97      107 </v>
   <v type="int" >        4       94      105      106      107 </v>
   <v type="int" >        4       94       96      106      107 </v>
   <v type="int" >        4       94       96       97      107 </v>
   <v type="int" >        8       95      105      106      106 </v>
   <v type="int" >        8       94       95      105      106 </v>
   <v type="int" >        8       94       95       96      106 </v>
   <v type="int" >        4       95       95      105      106 </v>
   <v type="int" >        4       95       95       96      106 </v>
   <v type="int" >        4       96      105      106      107 </v>
   <v type="int" >        4       95       96      105      106 </v>
   <v type="int" >        4       95       95       96      105 </v>
   <v type="int" >        4       96      104      105      107 </v>
   <v type="int" >        4       94       96      104      105 </v>
   <v type="int" >        4       94       95       96      105 </v>
   <v type="int" >        4       97      104      107      108 </v>
   <v type="int" >        4       96       97      104      107 </v>
   <v type="int" >        4       94       96       97      104 </v>
   <v type="int" >        4       97      103      104      108 </v>
   <v type="int" >        4       93       97      103      104 </v>
   <v type="int" >        4       93       94       97      104 </v>
   <v type="int" >        4       98      103      108      109 </v>
   <v type="int" >        4       97       98      103      108 </v>
   <v type="int" >        4       93       97       98      103 </v>
   <v type="int" >        4       98      102      103      109 </v>
   <v type="int" >        4       92       98      102      103 </v>
   <v type="int" >        4       92       93       98      103 </v>
   <v type="int" >        4       99      101      102      109 </v>
   <v type="int" >        4       98       99      102      109 </v>
   <v type="int" >        4       92       98       99      102 </v>
   <v type="int" >        4       99      101      101      102 </v>
   <v type="int" >        4       91       99      101      102 </v>
   <v type="int" >        4       91       92       99      102 </v>
   <v type="int" >        4       90      100      101      101 </v>
   <v type="int" >        4       99      100      101      101 </v>
   <v type="int" >        8       90      100      100      101 </v>
   <v type="int" >        8       89       90      100      100 </v>
   <v type="int" >        4       87       89       89      100 </v>
   <v type="int" >        4       89       89       90      100 </v>
   <v type="int" >        4       75       76       87       89 </v>
   <v type="int" >        4       75       87       89       89 </v>
   <v type="int" >        4       75       87       88       89 </v>
   <v type="int" >        4      102      102      109      110 </v>
   <v type="int" >        4      101      102      102      109 </v>
   <v type="int" >        2      101      101      102      102 </v>
   <v type="int" >        2      102      102      110      110 </v>
   <v type="int" >        4      103      110      110      111 </v>
   <v type="int" >        4      102      103      110      110 </v>
   <v type="int" >        8      102      103      109      110 </v>
   <v type="int" >        8      103      110      111      115 </v>
   <v type="int" >        8      103      108      110      115 </v>
   <v type="int" >        8      103      108      109      110 </v>
   <v type="int" >        4      104      111      112      115 </v>
   <v type="int" >        4      103      104      111      115 </v>
   <v type="int" >        4      103      104      108      115 </v>
   <v type="int" >        4      104      112      114      115 </v>
   <v type="int" >        4      104      107      114      115 </v>
   <v type="int" >        4      104      107      108      115 </v>
   <v type="int" >        4      105      112      113      114 </v>
   <v type="int" >        4      104      105      112      114 </v>
   <v type="int" >        4      104      105      107      114 </v>
   <v type="int" >        4      105      113      113      114 </v>
   <v type="int" >        4      105      106      113      114 </v>
   <v type="int" >        4      105      106      107      114 </v>
   <v type="int" >        4      106      113      113      114 </v>
   <v type="int" >        4      105      106      113      113 </v>
   <v type="int" >        8      105      106      106      113 </v>
   <v type="int" >        8      106      112      113      114 </v>
   <v type="int" >        8      105      106      112      113 </v>
   <v type="int" >        4      107      112      114      115 </v>
   <v type="int" >        4      106      107      112      114 </v>
   <v type="int" >        4      105      106      107      112 </v>
   <v type="int" >        4      107      111      112      115 </v>
   <v type="int" >        4      104      107      111      112 </v>
   <v type="int" >        4      104      105      107      112 </v>
   <v type="int" >        4      108      110      111      115 </v>
   <v type="int" >        4      107      108      111      115 </v>
   <v type="int" >        4      104      107      108      111 </v>
   <v type="int" >        4      108      110      110      111 </v>
   <v type="int" >        4      103      108      110      111 </v>
   <v type="int" >        4      103      104      108      111 </v>
   <v type="int" >        4      102      109      110      110 </v>
   <v type="int" >        4      108      109      110      110 </v>
   <v type="int" >        8      102      109      109      110 </v>
   <v type="int" >        8      101      102      109      109 </v>
   <v type="int" >        4       99      101      101      109 </v>
   <v type="int" >        4      101      101      102      109 </v>
   <v type="int" >        4       77       90       91       99 </v>
   <v type="int" >        4       90       91       99      101 </v>
   <v type="int" >        4       90       99      101      101 </v>
   <v type="int" >        4       77       86       90       99 </v>
   <v type="int" >        4       86       90       99      100 </v>
   <v type="int" >        4       90       99      100      101 </v>
   <v type="int" >        4       76       77       86       90 </v>
   <v type="int" >        4       76       86       90      100 </v>
   <v type="int" >        4       76       86       87      100 </v>
   <v type="int" >        4      111      111      115      116 </v>
   <v type="int" >        4      110      111      111      115 </v>
   <v type="int" >        2      110      110      111      111 </v>
   <v type="int" >        2      111      111      116      116 </v>
   <v type="int" >        4      112      116      116      117 </v>
   <v type="int" >        4      111      112      116      116 </v>
   <v type="int" >        8      111      112      115      116 </v>
   <v type="int" >        8      112      116      117      118 </v>
   <v type="int" >        8      112      114      116      118 </v>
   <v type="int" >        8      112      114      115      116 </v>
   <v type="int" >        8      113      117      118      118 </v>
   <v type="int" >        8      112      113      117      118 </v>
   <v type="int" >        8      112      113      114      118 </v>
   <v type="int" >        4      113      113      117      118 </v>
   <v type="int" >        4      113      113      114      118 </v>
   <v type="int" >        4      114      116      117      118 </v>
   <v type="int" >        4      113      114      117      118 </v>
   <v type="int" >        4      113      113      114      117 </v>
   <v type="int" >        4      114      116      116      117 </v>
   <v type="int" >        4      112      114      116      117 </v>
   <v type="int" >        4      112      113      114      117 </v>
   <v type="int" >        4      111      115      116      116 </v>
   <v type="int" >        4      114      115      116      116 </v>
   <v type="int" >        8      111      115      115      116 </v>
   <v type="int" >        8      110      111      115      115 </v>
   <v type="int" >        4      108      110      110      115 </v>
   <v type="int" >        4      110      110      111      115 </v>
   <v type="int" >        4       92      102      103      108 </v>
   <v type="int" >        4      102      103      108      110 </v>
   <v type="int" >        4      102      108      110      110 </v>
   <v type="int" >        4       92       98      102      108 </v>
   <v type="int" >        4       98      102      108      109 </v>
   <v type="int" >        4      102      108      109      110 </v>
   <v type="int" >        4       78       91       92       98 </v>
   <v type="int" >        4       91       92       98      102 </v>
   <v type="int" >        4       91       98      102      109 </v>
   <v type="int" >        4       78       85       91       98 </v>
   <v type="int" >        4       85       91       98       99 </v>
   <v type="int" >        4       91       98       99      109 </v>
   <v type="int" >        4       77       78       85       91 </v>
   <v type="int" >        4       77       85       91       99 </v>
   <v type="int" >        4       77       85       86       99 </v>
   <v type="int" >        8      117      117      118      119 </v>
   <v type="int" >        4      116      117      117      118 </v>
   <v type="int" >        2      116      116      117      117 </v>
   <v type="int" >        4      117      117      119      119 </v>
   <v type="int" >        8      117      118      119      119 </v>
   <v type="int" >       16      117      118      118      119 </v>
   <v type="int" >        8      116      117      118      118 </v>
   <v type="int" >        4      114      116      116      118 </v>
   <v type="int" >        4      116      116      117      118 </v>
   <v type="int" >        4      104      111      112      114 </v>
   <v type="int" >        4      111      112      114      116 </v>
   <v type="int" >        4      111      114      116      116 </v>
   <v type="int" >        4      104      107      111      114 </v>
   <v type="int" >        4      107      111      114      115 </v>
   <v type="int" >        4      111      114      115      116 </v>
   <v type="int" >        4       93      103      104      107 </v>
   <v type="int" >        4      103      104      107      111 </v>
   <v type="int" >        4      103      107      111      115 </v>
   <v type="int" >        4       93       97      103      107 </v>
   <v type="int" >        4       97      103      107      108 </v>
   <v type="int" >        4      103      107      108      115 </v>
   <v type="int" >        4       79       92       93       97 </v>
   <v type="int" >        4       92       93       97      103 </v>
   <v type="int" >        4       92       97      103      108 </v>
   <v type="int" >        4       79       84       92       97 </v>
   <v type="int" >        4       84       92       97       98 </v>
   <v type="int" >        4       92       97       98      108 </v>
   <v type="int" >        4       78       79       84       92 </v>
   <v type="int" >        4       78       84       92       98 </v>
   <v type="int" >        4       78       84       85       98 </v>
   <v type="int" >        4      113      117      117      118 </v>
   <v type="int" >        2      113      113      117      117 </v>
   <v type="int" >        4      105      112      113      113 </v>
   <v type="int" >        4      112      113      113      117 </v>
   <v type="int" >        4       94      104      105      106 </v>
   <v type="int" >        4      104      105      106      112 </v>
   <v type="int" >        4      104      106      112      114 </v>
   <v type="int" >        4       94       96      104      106 </v>
   <v type="int" >        4       96      104      106      107 </v>
   <v type="int" >        4      104      106      107      114 </v>
   <v type="int" >        4       80       93       94       96 </v>
   <v type="int" >        4       93       94       96      104 </v>
   <v type="int" >        4       93       96      104      107 </v>
   <v type="int" >        4       80       83       93       96 </v>
   <v type="int" >        4       83       93       96       97 </v>
   <v type="int" >        4       93       96       97      107 </v>
   <v type="int" >        4       79       80       83       93 </v>
   <v type="int" >        4       79       83       93       97 </v>
   <v type="int" >        4       79       83       84       97 </v>
   <v type="int" >        4       95      105      105      106 </v>
   <v type="int" >        4      105      105      106      113 </v>
   <v type="int" >        2      105      105      113      113 </v>
   <v type="int" >        2       95       95      105      105 </v>
   <v type="int" >        4       81       94       95       95 </v>
   <v type="int" >        4       94       95       95      105 </v>
   <v type="int" >        4       80       81       82       94 </v>
   <v type="int" >        4       80       82       94       96 </v>
   <v type="int" >        4       80       82       83       96 </v>
   <v type="int" >        4       81       81       82       95 </v>
   <v type="int" >        2       81       81       95       95 </v>
  </varray>
  <i name="volumeweight">      0.00014815 </i>
 </kpoints>
 <parameters>
  <separator name="general" >
   <i type="string" name="SYSTEM">ZnIn2S4 bulk k-point convergence</i>
   <i type="logical" name="LCOMPAT"> F  </i>
  </separator>
  <separator name="electronic" >
   <i type="string" name="PREC">accura</i>
   <i name="ENMAX">    500.00000000</i>
   <i name="ENAUG">    575.89200000</i>
   <i name="EDIFF">      0.00000010</i>
   <i type="int" name="IALGO">    38</i>
   <i type="int" name="IWAVPR">    10</i>
   <i type="int" name="NBANDS">    40</i>
   <i name="NELECT">     62.00000000</i>
   <i type="int" name="TURBO">     0</i>
   <i type="int" name="IRESTART">     0</i>
   <i type="int" name="NREBOOT">     0</i>
   <i type="int" name="NMIN">     0</i>
   <i name="EREF">      0.00000000</i>
   <separator name="electronic smearing" >
    <i type="int" name="ISMEAR">    -5</i>
    <i name="SIGMA">      0.20000000</i>
    <i name="KSPACING">      0.50000000</i>
    <i type="logical" name="KGAMMA"> T  </i>
   </separator>
   <separator name="electronic projectors" >
    <i type="logical" name="LREAL"> F  </i>
    <v name="ROPT">      0.00000000      0.00000000      0.00000000</v>
    <i type="int" name="LMAXPAW">  -100</i>
    <i type="int" name="LMAXMIX">     2</i>
    <i type="logical" name="NLSPLINE"> F  </i>
   </separator>
   <separator name="electronic startup" >
    <i type="int" name="ISTART">     0</i>
    <i type="int" name="ICHARG">     2</i>
    <i type="int" name="INIWAV">     1</i>
   </separator>
   <separator name="electronic spin" >
    <i type="int" name="ISPIN">     1</i>
    <i type="logical" name="LNONCOLLINEAR"> F  </i>
    <v name="MAGMOM">      1.00000000      1.00000000      1.00000000      1.00000000      1.00000000      1.00000000      1.00000000</v>
    <i name="NUPDOWN">     -1.00000000</i>
    <i type="logical" name="LSORBIT"> F  </i>
    <v name="SAXIS">      0.00000000      0.00000000      1.00000000</v>
    <i type="logical" name="LSPIRAL"> F  </i>
    <v name="QSPIRAL">      0.00000000      0.00000000      0.00000000</v>
    <i type="logical" name="LZEROZ"> F  </i>
   </separator>
   <separator name="electronic exchange-correlation" >
    <i type="logical" name="LASPH"> T  </i>
    <i type="logical" name="LMETAGGA"> F  </i>
   </separator>
   <separator name="electronic convergence" >
    <i type="int" name="NELM">   150</i>
    <i type="int" name="NELMDL">    -5</i>
    <i type="int" name="NELMIN">     2</i>
    <i name="ENINI">    500.00000000</i>
    <separator name="electronic convergence detail" >
     <i type="logical" name="LDIAG"> T  </i>
     <i type="logical" name="LSUBROT"> F  </i>
     <i name="WEIMIN">      0.00000000</i>
     <i name="EBREAK">      0.00000000</i>
     <i name="DEPER">      0.30000000</i>
     <i type="int" name="NRMM">     4</i>
     <i name="TIME">      0.40000000</i>
    </separator>
   </separator>
   <separator name="electronic mixer" >
    <i name="AMIX">      0.40000000</i>
    <i name="BMIX">      1.00000000</i>
    <i name="AMIN">      0.10000000</i>
    <i name="AMIX_MAG">      1.60000000</i>
    <i name="BMIX_MAG">      1.00000000</i>
    <separator name="electronic mixer details" >
     <i type="int" name="IMIX">     4</i>
     <i type="logical" name="MIXFIRST"> F  </i>
     <i type="int" name="MAXMIX">   -45</i>
     <i name="WC">    100.00000000</i>
     <i type="int" name="INIMIX">     1</i>
     <i type="int" name="MIXPRE">     1</i>
     <i type="int" name="MREMOVE">     5</i>
    </separator>
   </separator>
   <separator name="electronic dipolcorrection" >
    <i type="logical" name="LDIPOL"> F  </i>
    <i type="logical" name="LMONO"> F  </i>
    <i type="int" name="IDIPOL">     0</i>
    <i name="EPSILON">      1.00000000</i>
    <v name="DIPOL">   -100.00000000   -100.00000000   -100.00000000</v>
    <i name="EFIELD">      0.00000000</i>
   </separator>
  </separator>
  <separator name="grids" >
   <i type="int" name="NGX">    28</i>
   <i type="int" name="NGY">    28</i>
   <i type="int" name="NGZ">    90</i>
   <i type="int" name="NGXF">    56</i>
   <i type="int" name="NGYF">    56</i>
   <i type="int" name="NGZF">   180</i>
   <i type="logical" name="ADDGRID"> T  </i>
  </separator>
  <separator name="ionic" >
   <i type="int" name="NSW">     0</i>
   <i type="int" name="IBRION">    -1</i>
   <i type="int" name="MDALGO">     0</i>
   <i type="int" name="ISIF">     2</i>
   <i name="PSTRESS">      0.00000000</i>
   <i name="EDIFFG">      0.00000100</i>
   <i type="int" name="NFREE">     0</i>
   <i name="POTIM">      0.50000000</i>
   <i name="SMASS">     -3.00000000</i>
   <i name="SCALEE">      1.00000000</i>
  </separator>
  <separator name="ionic md" >
   <i name="TEBEG">      0.00010000</i>
   <i name="TEEND">      0.00010000</i>
   <i type="int" name="NBLOCK">     1</i>
   <i type="int" name="KBLOCK">     1</i>
   <i type="int" name="NPACO">   256</i>
   <i name="APACO">     16.00000000</i>
  </separator>
  <separator name="symmetry" >
   <i type="int" name="ISYM">     2</i>
   <i name="SYMPREC">      0.00001000</i>
  </separator>
  <separator name="dos" >
   <i type="int" name="LORBIT">     0</i>
   <v name="RWIGS">     -1.00000000     -1.00000000     -1.00000000</v>
   <i type="int" name="NEDOS">   301</i>
   <i name="EMIN">     10.00000000</i>
   <i name="EMAX">    -10.00000000</i>
   <i name="EFERMI">      0.00000000</i>
  </separator>
  <separator name="writing" >
   <i type="int" name="NWRITE">     2</i>
   <i type="logical" name="LWAVE"> F  </i>
   <i type="logical" name="LDOWNSAMPLE"> F  </i>
   <i type="logical" name="LCHARG"> F  </i>
   <i type="logical" name="LPARD"> F  </i>
   <i type="logical" name="LVTOT"> F  </i>
   <i type="logical" name="LVHAR"> F  </i>
   <i type="logical" name="LELF"> F  </i>
   <i type="logical" name="LOPTICS"> F  </i>
   <v name="STM">      0.00000000      0.00000000      0.00000000      0.00000000      0.00000000      0.00000000      0.00000000</v>
  </separator>
  <separator name="performance" >
   <i type="int" name="NPAR">     8</i>
   <i type="int" name="NSIM">     4</i>
   <i type="int" name="NBLK">    -1</i>
   <i type="logical" name="LPLANE"> T  </i>
   <i type="logical" name="LSCALAPACK"> T  </i>
   <i type="logical" name="LSCAAWARE"> F  </i>
   <i type="logical" name="LSCALU"> F  </i>
   <i type="logical" name="LASYNC"> F  </i>
   <i type="logical" name="LORBITALREAL"> F  </i>
  </separator>
  <separator name="miscellaneous" >
   <i type="int" name="IDIOT">     3</i>
   <i type="int" name="ISPECIAL">     0</i>
   <i type="logical" name="LMUSIC"> F  </i>
   <v name="POMASS">     32.06600000    114.82000000     65.39000000</v>
   <v name="DARWINR">      0.00000000      0.00000000      0.00000000</v>
   <v name="DARWINV">      1.00000000      1.00000000      1.00000000</v>
   <i type="logical" name="LCORR"> T  </i>
  </separator>
  <i type="logical" name="GGA_COMPAT"> T  </i>
  <i type="logical" name="LBERRY"> F  </i>
  <i type="int" name="ICORELEVEL">     0</i>
  <i type="logical" name="LDAU"> F  </i>
  <i type="int" name="I_CONSTRAINED_M">     0</i>
  <separator name="electronic exchange-correlation" >
   <i type="string" name="GGA">PE</i>
   <i type="int" name="VOSKOWN">     0</i>
   <i type="logical" name="LHFCALC"> F  </i>
   <i type="string" name="PRECFOCK"></i>
   <i type="logical" name="LSYMGRAD"> F  </i>
   <i type="logical" name="LHFONE"> F  </i>
   <i type="logical" name="LRHFCALC"> F  </i>
   <i type="logical" name="LTHOMAS"> F  </i>
   <i type="logical" name="LMODELHF"> F  </i>
   <i name="ENCUT4O">     -1.00000000</i>
   <i type="int" name="EXXOEP">     0</i>
   <i type="int" name="FOURORBIT">     0</i>
   <i name="AEXX">      0.00000000</i>
   <i name="HFALPHA">      0.00000000</i>
   <i name="MCALPHA">      0.00000000</i>
   <i name="ALDAX">      1.00000000</i>
   <i name="AGGAX">      1.00000000</i>
   <i name="ALDAC">      1.00000000</i>
   <i name="AGGAC">      1.00000000</i>
   <i type="int" name="NKREDX">     1</i>
   <i type="int" name="NKREDY">     1</i>
   <i type="int" name="NKREDZ">     1</i>
   <i type="logical" name="SHIFTRED"> F  </i>
   <i type="logical" name="ODDONLY"> F  </i>
   <i type="logical" name="EVENONLY"> F  </i>
   <i type="int" name="LMAXFOCK">     0</i>
   <i type="int" name="NMAXFOCKAE">     0</i>
   <i type="logical" name="LFOCKAEDFT"> F  </i>
   <i name="HFSCREEN">      0.00000000</i>
   <i name="HFSCREENC">      0.00000000</i>
   <i type="int" name="NBANDSGWLOW">     0</i>
  </separator>
  <separator name="vdW DFT" >
   <i type="logical" name="LUSE_VDW"> F  </i>
   <i name="Zab_VDW">     -0.84910000</i>
   <i name="PARAM1">      0.12340000</i>
   <i name="PARAM2">      1.00000000</i>
   <i name="PARAM3">      0.00000000</i>
  </separator>
  <separator name="model GW" >
   <i type="int" name="MODEL_GW">     0</i>
   <i name="MODEL_EPS0">     13.56386293</i>
   <i name="MODEL_ALPHA">      1.00000000</i>
  </separator>
  <separator name="linear response parameters" >
   <i type="logical" name="LEPSILON"> F  </i>
   <i type="logical" name="LRPA"> F  </i>
   <i type="logical" name="LNABLA"> F  </i>
   <i type="logical" name="LVEL"> F  </i>
   <i type="int" name="KINTER">     0</i>
   <i name="CSHIFT">      0.10000000</i>
   <i name="OMEGAMAX">     -1.00000000</i>
   <i name="DEG_THRESHOLD">      0.00200000</i>
   <i name="RTIME">     -0.10000000</i>
   <i name="WPLASMAI">      0.00000000</i>
   <v name="DFIELD">      0.00000000      0.00000000      0.00000000</v>
   <v name="WPLASMA">      0.00000000      0.00000000      0.00000000      0.00000000      0.00000000      0.00000000      0.00000000      0.00000000      0.00000000</v>
  </separator>
  <separator name="orbital magnetization" >
   <i type="logical" name="NUCIND"> F  </i>
   <v name="MAGPOS">      0.00000000      0.00000000      0.00000000</v>
   <i type="logical" name="LNICSALL"> T  </i>
   <i type="logical" name="ORBITALMAG"> F  </i>
   <i type="logical" name="LMAGBLOCH"> F  </i>
   <i type="logical" name="LCHIMAG"> F  </i>
   <i type="logical" name="LGAUGE"> T  </i>
   <i type="int" name="MAGATOM">     0</i>
   <v name="MAGDIPOL">      0.00000000      0.00000000      0.00000000</v>
   <v name="AVECCONST">      0.00000000      0.00000000      0.00000000</v>
  </separator>
  <separator name="response functions" >
   <i type="logical" name="LADDER"> F  </i>
   <i type="logical" name="LRPAFORCE"> F  </i>
   <i type="logical" name="LFXC"> F  </i>
   <i type="logical" name="LHARTREE"> T  </i>
   <i type="int" name="IBSE">     0</i>
   <v type="int" name="KPOINT">    -1     0     0     0</v>
   <i type="logical" name="LTCTE"> F  </i>
   <i type="logical" name="LTETE"> F  </i>
   <i type="logical" name="LTRIPLET"> F  </i>
   <i type="logical" name="LFXCEPS"> F  </i>
   <i type="logical" name="LFXHEG"> F  </i>
   <i type="int" name="NATURALO">     2</i>
   <i type="logical" name="L2ORDER"> F  </i>
   <i type="logical" name="LMP2LT"> F  </i>
   <i type="logical" name="LUSEW"> F  </i>
   <i name="ENCUTGW">     -2.00000000</i>
   <i name="ENCUTGWSOFT">     -2.00000000</i>
   <i name="ENCUTLF">     -1.00000000</i>
   <i type="int" name="LMAXMP2">    -1</i>
   <i name="SCISSOR">      0.00000000</i>
   <i type="int" name="NOMEGA">     0</i>
   <i type="int" name="NOMEGAR">     0</i>
   <i type="int" name="NBANDSGW">    -1</i>
   <i type="int" name="NBANDSO">    -1</i>
   <i type="int" name="NBANDSV">    -1</i>
   <i type="int" name="NELM">   150</i>
   <i type="int" name="NELMHF">     1</i>
   <i type="int" name="DIM">     3</i>
   <i type="int" name="ANTIRES">     0</i>
   <i name="OMEGAMAX">    -30.00000000</i>
   <i name="OMEGAMIN">    -30.00000000</i>
   <i name="OMEGATL">   -200.00000000</i>
   <i type="int" name="OMEGAGRID">   140</i>
   <i name="CSHIFT">     -0.10000000</i>
   <i type="logical" name="SELFENERGY"> F  </i>
   <i type="logical" name="LSPECTRAL"> F  </i>
   <i type="logical" name="LSPECTRALGW"> F  </i>
   <i type="logical" name="LSINGLES"> F  </i>
   <i type="logical" name="LFERMIGW"> F  </i>
   <i type="logical" name="ODDONLYGW"> F  </i>
   <i type="logical" name="EVENONLYGW"> F  </i>
   <i type="int" name="NKREDLFX">     1</i>
   <i type="int" name="NKREDLFY">     1</i>
   <i type="int" name="NKREDLFZ">     1</i>
   <i type="int" name="MAXMEM">  2800</i>
   <i type="int" name="TELESCOPE">     0</i>
   <i type="int" name="TAUPAR">     1</i>
   <i type="int" name="OMEGAPAR">    -1</i>
   <i name="LAMBDA">      1.00000000</i>
  </separator>
  <separator name="External order field" >
   <i name="OFIELD_KAPPA">      0.00000000</i>
   <v name="OFIELD_K">      0.00000000      0.00000000      0.00000000</v>
   <i name="OFIELD_Q6_NEAR">      0.00000000</i>
   <i name="OFIELD_Q6_FAR">      0.00000000</i>
   <i name="OFIELD_A">      0.00000000</i>
  </separator>
 </parameters>
 <atominfo>
  <atoms>       7 </atoms>
  <types>       3 </types>
  <array name="atoms" >
   <dimension dim="1">ion</dimension>
   <field type="string">element</field>
   <field type="int">atomtype</field>
   <set>
    <rc><c>S </c><c>   1</c></rc>
    <rc><c>S </c><c>   1</c></rc>
    <rc><c>S </c><c>   1</c></rc>
    <rc><c>S </c><c>   1</c></rc>
    <rc><c>In</c><c>   2</c></rc>
    <rc><c>In</c><c>   2</c></rc>
    <rc><c>Zn</c><c>   3</c></rc>
   </set>
  </array>
  <array name="atomtypes" >
   <dimension dim="1">type</dimension>
   <field type="int">atomspertype</field>
   <field type="string">element</field>
   <field>mass</field>
   <field>valence</field>
   <field type="string">pseudopotential</field>
   <set>
    <rc><c>   4</c><c>S </c><c>     32.06600000</c><c>      6.00000000</c><c>  PAW_PBE S 06Sep2000                   </c></rc>
    <rc><c>   2</c><c>In</c><c>    114.82000000</c><c>     13.00000000</c><c>  PAW_PBE In_d 06Sep2000                </c></rc>
    <rc><c>   1</c><c>Zn</c><c>     65.39000000</c><c>     12.00000000</c><c>  PAW_PBE Zn 06Sep2000                  </c></rc>
   </set>
  </array>
 </atominfo>
 <structure name="initialpos" >
  <crystal>
   <varray name="basis" >
    <v>       3.87828429       0.00000000       0.00000000 </v>
    <v>      -1.93914215       3.35869272       0.00000000 </v>
    <v>       0.00000000       0.00000000      12.14843313 </v>
   </varray>
   <i name="volume">    158.24506747 </i>
   <varray name="rec_basis" >
    <v>       0.25784598       0.14886744       0.00000000 </v>
    <v>       0.00000000       0.29773489       0.00000000 </v>
    <v>       0.00000000       0.00000000       0.08231514 </v>
   </varray>
  </crystal>
  <varray name="positions" >
   <v>       0.00000000       0.00000000       0.09678648 </v>
   <v>       0.33333334       0.66666669       0.38799482 </v>
   <v>       0.00000000       0.00000000       0.61769726 </v>
   <v>       0.66666669       0.33333334       0.87218345 </v>
   <v>       0.33333334       0.66666669       0.18624456 </v>
   <v>       0.66666669       0.33333334       0.51353990 </v>
   <v>       0.00000000       0.00000000       0.82655349 </v>
  </varray>
 </structure>
 <calculation>
  <scstep>
   <time name="dav">   13.31   13.97</time>
   <time name="total">   13.61   14.47</time>
   <energy>
    <i name="alphaZ">    146.42802824 </i>
    <i name="ewald">  -4073.84861287 </i>
    <i name="hartreedc">  -1913.88535575 </i>
    <i name="XCdc">    189.71025673 </i>
    <i name="pawpsdc">   5087.04612586 </i>
    <i name="pawaedc">  -5233.23548032 </i>
    <i name="eentropy">      0.00000000 </i>
    <i name="bandstr">    375.46370718 </i>
    <i name="atom">   6009.76902234 </i>
    <i name="e_fr_energy">    587.44769141 </i>
    <i name="e_wo_entrp">    587.44769141 </i>
    <i name="e_0_energy">    587.44769141 </i>
   </energy>
  </scstep>
  <scstep>
   <time name="dav">   14.77   18.34</time>
   <time name="total">   14.86   18.43</time>
   <energy>
    <i name="e_fr_energy">     58.46428021 </i>
    <i name="e_wo_entrp">     58.46428021 </i>
    <i name="e_0_energy">     58.46428021 </i>
   </energy>
  </scstep>
  <scstep>
   <time name="dav">   17.82   20.18</time>
   <time name="total">   17.84   20.20</time>
   <energy>
    <i name="e_fr_energy">    -23.52344866 </i>
    <i name="e_wo_entrp">    -23.52344866 </i>
    <i name="e_0_energy">    -23.52344866 </i>
   </energy>
  </scstep>
  <scstep>
   <time name="dav">   17.16   18.76</time>
   <time name="total">   17.18   18.78</time>
   <energy>
    <i name="e_fr_energy">    -28.20045293 </i>
    <i name="e_wo_entrp">    -28.20045293 </i>
    <i name="e_0_energy">    -28.20045293 </i>
   </energy>
  </scstep>
  <scstep>
   <time name="dav">   18.90   20.58</time>
   <time name="total">   19.39   21.08</time>
   <energy>
    <i name="e_fr_energy">    -28.40616863 </i>
    <i name="e_wo_entrp">    -28.40616863 </i>
    <i name="e_0_energy">    -28.40616863 </i>
   </energy>
  </scstep>
  <scstep>
   <time name="dav">   20.90   22.09</time>
   <time name="total">   21.79   23.68</time>
   <energy>
    <i name="e_fr_energy">    -26.65824047 </i>
    <i name="e_wo_entrp">    -26.65824047 </i>
    <i name="e_0_energy">    -26.65824047 </i>
   </energy>
  </scstep>
  <scstep>
   <time name="dav">   16.37   17.16</time>
   <time name="total">   17.43   18.48</time>
   <energy>
    <i name="e_fr_energy">    -26.67593867 </i>
    <i name="e_wo_entrp">    -26.67593867 </i>
    <i name="e_0_energy">    -26.67593867 </i>
   </energy>
  </scstep>
  <scstep>
   <time name="dav">   17.37   18.34</time>
   <time name="total">   17.95   19.15</time>
   <energy>
    <i name="e_fr_energy">    -26.63646846 </i>
    <i name="e_wo_entrp">    -26.63646846 </i>
    <i name="e_0_energy">    -26.63646846 </i>
   </energy>
  </scstep>
  <scstep>
   <time name="dav">   14.86   16.44</time>
   <time name="total">   15.73   17.44</time>
   <energy>
    <i name="e_fr_energy">    -26.63908879 </i>
    <i name="e_wo_entrp">    -26.63908879 </i>
    <i name="e_0_energy">    -26.63908879 </i>
   </energy>
  </scstep>
  <scstep>
   <time name="dav">   17.98   18.13</time>
   <time name="total">   18.72   18.89</time>
   <energy>
    <i name="e_fr_energy">    -26.63851922 </i>
    <i name="e_wo_entrp">    -26.63851922 </i>
    <i name="e_0_energy">    -26.63851922 </i>
   </energy>
  </scstep>
  <scstep>
   <time name="dav">   15.81   16.51</time>
   <time name="total">   16.71   17.44</time>
   <energy>
    <i name="e_fr_energy">    -26.63889740 </i>
    <i name="e_wo_entrp">    -26.63889740 </i>
    <i name="e_0_energy">    -26.63889740 </i>
   </energy>
  </scstep>
  <scstep>
   <time name="dav">   18.15   18.72</time>
   <time name="total">   18.85   19.42</time>
   <energy>
    <i name="e_fr_energy">    -26.63885753 </i>
    <i name="e_wo_entrp">    -26.63885753 </i>
    <i name="e_0_energy">    -26.63885753 </i>
   </energy>
  </scstep>
  <scstep>
   <time name="dav">   15.26   15.88</time>
   <time name="total">   16.02   16.72</time>
   <energy>
    <i name="e_fr_energy">    -26.63886504 </i>
    <i name="e_wo_entrp">    -26.63886504 </i>
    <i name="e_0_energy">    -26.63886504 </i>
   </energy>
  </scstep>
  <scstep>
   <time name="dav">   15.52   16.17</time>
   <time name="total">   16.51   17.21</time>
   <energy>
    <i name="e_fr_energy">    -26.63886651 </i>
    <i name="e_wo_entrp">    -26.63886651 </i>
    <i name="e_0_energy">    -26.63886651 </i>
   </energy>
  </scstep>
  <scstep>
   <time name="dav">   19.11   20.24</time>
   <time name="total">   19.87   21.01</time>
   <energy>
    <i name="e_fr_energy">    -26.63886688 </i>
    <i name="e_wo_entrp">    -26.63886688 </i>
    <i name="e_0_energy">    -26.63886688 </i>
   </energy>
  </scstep>
  <scstep>
   <time name="dav">   16.75   18.65</time>
   <time name="total">   16.94   18.85</time>
   <energy>
    <i name="alphaZ">    146.42802824 </i>
    <i name="ewald">  -4073.84861287 </i>
    <i name="hartreedc">  -1901.44244155 </i>
    <i name="XCdc">    190.82738812 </i>
    <i name="pawpsdc">   8184.74345134 </i>
    <i name="pawaedc">  -8330.29739213 </i>
    <i name="eentropy">      0.00000000 </i>
    <i name="bandstr">   -252.81831031 </i>
    <i name="atom">   6009.76902234 </i>
    <i name="e_fr_energy">    -26.63886683 </i>
    <i name="e_wo_entrp">    -26.63886683 </i>
    <i name="e_0_energy">    -26.63886683 </i>
   </energy>
  </scstep>
  <structure>
   <crystal>
    <varray name="basis" >
     <v>       3.87828429       0.00000000       0.00000000 </v>
     <v>      -1.93914215       3.35869272       0.00000000 </v>
     <v>       0.00000000       0.00000000      12.14843313 </v>
    </varray>
    <i name="volume">    158.24506747 </i>
    <varray name="rec_basis" >
     <v>       0.25784598       0.14886744       0.00000000 </v>
     <v>       0.00000000       0.29773489       0.00000000 </v>
     <v>       0.00000000       0.00000000       0.08231514 </v>
    </varray>
   </crystal>
   <varray name="positions" >
    <v>       0.00000000       0.00000000       0.09678648 </v>
    <v>       0.33333334       0.66666669       0.38799482 </v>
    <v>       0.00000000       0.00000000       0.61769726 </v>
    <v>       0.66666669       0.33333334       0.87218345 </v>
    <v>       0.33333334       0.66666669       0.18624456 </v>
    <v>       0.66666669       0.33333334       0.51353990 </v>
    <v>       0.00000000       0.00000000       0.82655349 </v>
   </varray>
  </structure>
  <varray name="forces" >
   <v>       0.00000000       0.00000000       0.00468733 </v>
   <v>      -0.00000000       0.00000000       0.00160827 </v>
   <v>       0.00000000       0.00000000       0.00851621 </v>
   <v>      -0.00000000       0.00000000      -0.00367858 </v>
   <v>       0.00000000      -0.00000000      -0.00613957 </v>
   <v>       0.00000000       0.00000000      -0.00116023 </v>
   <v>      -0.00000000       0.00000000      -0.00383343 </v>
  </varray>
  <varray name="stress" >
   <v>      -0.04375398       0.00000000       0.00000000 </v>
   <v>       0.00000000      -0.04375398       0.00000000 </v>
   <v>       0.00000000       0.00000000       0.37417460 </v>
  </varray>
  <energy>
   <i name="e_fr_energy">    -28.75511512 </i>
   <i name="e_wo_entrp">    -28.75511512 </i>
   <i name="e_0_energy">      0.00000000 </i>
  </energy>
  <time name="totalsc">  289.19  312.71</time>
  <eigenvalues>
   <array>
    <dimension dim="1">band</dimension>
    <dimension dim="2">kpoint</dimension>
    <dimension dim="3">spin</dimension>
    <field>eigene</field>
    <field>occ</field>
    <set>
     <set comment="spin 1">
      <set comment="kpoint 1">
       <r>  -10.9225    1.0000 </r>
       <r>  -10.7135    1.0000 </r>
       <r>  -10.7135    1.0000 </r>
       <r>  -10.5432    1.0000 </r>
       <r>  -10.5432    1.0000 </r>
       <r>  -10.2307    1.0000 </r>
       <r>  -10.2307    1.0000 </r>
       <r>  -10.2170    1.0000 </r>
       <r>  -10.0840    1.0000 </r>
       <r>  -10.0840    1.0000 </r>
       <r>   -9.6643    1.0000 </r>
       <r>   -9.0833    1.0000 </r>
       <r>   -8.1589    1.0000 </r>
       <r>   -7.3764    1.0000 </r>
       <r>   -2.0013    1.0000 </r>
       <r>   -1.5440    1.0000 </r>
       <r>   -1.5440    1.0000 </r>
       <r>   -1.3368    1.0000 </r>
       <r>   -1.0981    1.0000 </r>
       <r>   -1.0981    1.0000 </r>
       <r>    0.4962    1.0000 </r>
       <r>    1.4109    1.0000 </r>
       <r>    2.1626    1.0000 </r>
       <r>    2.1626    1.0000 </r>
       <r>    2.7470    1.0000 </r>
       <r>    2.7470    1.0000 </r>
       <r>    3.0410    1.0000 </r>
       <r>    3.0410    1.0000 </r>
       <r>    3.9979    1.0000 </r>
       <r>    4.5312    1.0000 </r>
       <r>    4.5312    1.0000 </r>
       <r>    4.8364    0.0000 </r>
       <r>    6.3922    0.0000 </r>
       <r>    7.2551    0.0000 </r>
       <r>    7.9444    0.0000 </r>
       <r>    9.0520    0.0000 </r>
       <r>    9.0962    0.0000 </r>
       <r>    9.0962    0.0000 </r>
       <r>    9.6620    0.0000 </r>
       <r>    9.6620    0.0000 </r>
      </set>
      <set comment="kpoint 2">
       <r>  -10.9266    1.0000 </r>
       <r>  -10.7281    1.0000 </r>
       <r>  -10.7094    1.0000 </r>
       <r>  -10.5473    1.0000 </r>
       <r>  -10.5429    1.0000 </r>
       <r>  -10.2587    1.0000 </r>
       <r>  -10.2270    1.0000 </r>
       <r>  -10.2010    1.0000 </r>
       <r>  -10.0882    1.0000 </r>
       <r>  -10.0835    1.0000 </r>
       <r>   -9.6099    1.0000 </r>
       <r>   -9.0481    1.0000 </r>
       <r>   -8.1165    1.0000 </r>
       <r>   -7.3517    1.0000 </r>
       <r>   -1.9819    1.0000 </r>
       <r>   -1.5437    1.0000 </r>
       <r>   -1.5346    1.0000 </r>
       <r>   -1.3317    1.0000 </r>
       <r>   -1.1033    1.0000 </r>
       <r>   -1.0983    1.0000 </r>
       <r>    0.4514    1.0000 </r>
       <r>    1.4097    1.0000 </r>
       <r>    1.9317    1.0000 </r>
       <r>    2.1040    1.0000 </r>
       <r>    2.4867    1.0000 </r>
       <r>    2.6376    1.0000 </r>
       <r>    2.9159    1.0000 </r>
       <r>    3.0830    1.0000 </r>
       <r>    4.0142    1.0000 </r>
       <r>    4.2119    1.0000 </r>
       <r>    4.4691    1.0000 </r>
       <r>    5.1505    0.0000 </r>
       <r>    6.5254    0.0000 </r>
       <r>    7.4741    0.0000 </r>
       <r>    8.1171    0.0000 </r>
       <r>    8.7882    0.0000 </r>
       <r>    9.1720    0.0000 </r>
       <r>    9.2175    0.0000 </r>
       <r>    9.6194    0.0000 </r>
       <r>    9.7694    0.0000 </r>
      </set>
      <set comment="kpoint 3">
       <r>  -10.9439    1.0000 </r>
       <r>  -10.7587    1.0000 </r>
       <r>  -10.6982    1.0000 </r>
       <r>  -10.5564    1.0000 </r>
       <r>  -10.5415    1.0000 </r>
       <r>  -10.3174    1.0000 </r>
       <r>  -10.2173    1.0000 </r>
       <r>  -10.1760    1.0000 </r>
       <r>  -10.0968    1.0000 </r>
       <r>  -10.0813    1.0000 </r>
       <r>   -9.4607    1.0000 </r>
       <r>   -8.9434    1.0000 </r>
       <r>   -7.9995    1.0000 </r>
       <r>   -7.2814    1.0000 </r>
       <r>   -1.9330    1.0000 </r>
       <r>   -1.5399    1.0000 </r>
       <r>   -1.5078    1.0000 </r>
       <r>   -1.3174    1.0000 </r>
       <r>   -1.1180    1.0000 </r>
       <r>   -1.0983    1.0000 </r>
       <r>    0.2776    1.0000 </r>
       <r>    1.2690    1.0000 </r>
       <r>    1.5383    1.0000 </r>
       <r>    1.9451    1.0000 </r>
       <r>    1.9912    1.0000 </r>
       <r>    2.4133    1.0000 </r>
       <r>    2.5686    1.0000 </r>
       <r>    3.1213    1.0000 </r>
       <r>    3.5730    1.0000 </r>
       <r>    4.1245    1.0000 </r>
       <r>    4.3016    1.0000 </r>
       <r>    5.5991    0.0000 </r>
       <r>    6.7540    0.0000 </r>
       <r>    7.8600    0.0000 </r>
       <r>    8.3301    0.0000 </r>
       <r>    8.6602    0.0000 </r>
       <r>    9.2712    0.0000 </r>
       <r>    9.3640    0.0000 </r>
       <r>    9.7427    0.0000 </r>
       <r>   10.0684    0.0000 </r>
      </set>
      <set comment="kpoint 4">
       <r>  -10.9810    1.0000 </r>
       <r>  -10.7823    1.0000 </r>
       <r>  -10.6828    1.0000 </r>
       <r>  -10.5665    1.0000 </r>
       <r>  -10.5383    1.0000 </r>
       <r>  -10.3920    1.0000 </r>
       <r>  -10.2048    1.0000 </r>
       <r>  -10.1498    1.0000 </r>
       <r>  -10.1033    1.0000 </r>
       <r>  -10.0761    1.0000 </r>
       <r>   -9.2425    1.0000 </r>
       <r>   -8.7756    1.0000 </r>
       <r>   -7.8337    1.0000 </r>
       <r>   -7.1767    1.0000 </r>
       <r>   -1.8860    1.0000 </r>
       <r>   -1.5261    1.0000 </r>
       <r>   -1.4680    1.0000 </r>
       <r>   -1.2985    1.0000 </r>
       <r>   -1.1400    1.0000 </r>
       <r>   -1.0971    1.0000 </r>
       <r>   -0.0982    1.0000 </r>
       <r>    0.7651    1.0000 </r>
       <r>    1.2676    1.0000 </r>
       <r>    1.6983    1.0000 </r>
       <r>    1.7272    1.0000 </r>
       <r>    2.1397    1.0000 </r>
       <r>    2.1569    1.0000 </r>
       <r>    3.0258    1.0000 </r>
       <r>    3.1131    1.0000 </r>
       <r>    4.0745    1.0000 </r>
       <r>    4.0968    1.0000 </r>
       <r>    5.9474    0.0000 </r>
       <r>    6.7203    0.0000 </r>
       <r>    7.8133    0.0000 </r>
       <r>    8.4805    0.0000 </r>
       <r>    8.9145    0.0000 </r>
       <r>    9.5803    0.0000 </r>
       <r>    9.5978    0.0000 </r>
       <r>   10.0601    0.0000 </r>
       <r>   10.4888    0.0000 </r>
      </set>
      <set comment="kpoint 5">
       <r>  -11.0311    1.0000 </r>
       <r>  -10.7945    1.0000 </r>
       <r>  -10.6672    1.0000 </r>
       <r>  -10.5764    1.0000 </r>
       <r>  -10.5323    1.0000 </r>
       <r>  -10.4645    1.0000 </r>
       <r>  -10.1937    1.0000 </r>
       <r>  -10.1367    1.0000 </r>
       <r>  -10.0975    1.0000 </r>
       <r>  -10.0666    1.0000 </r>
       <r>   -8.9799    1.0000 </r>
       <r>   -8.5613    1.0000 </r>
       <r>   -7.6514    1.0000 </r>
       <r>   -7.0555    1.0000 </r>
       <r>   -1.8987    1.0000 </r>
       <r>   -1.4973    1.0000 </r>
       <r>   -1.4223    1.0000 </r>
       <r>   -1.2942    1.0000 </r>
       <r>   -1.1665    1.0000 </r>
       <r>   -1.0933    1.0000 </r>
       <r>   -0.6105    1.0000 </r>
       <r>    0.3077    1.0000 </r>
       <r>    0.8746    1.0000 </r>
       <r>    1.4549    1.0000 </r>
       <r>    1.4966    1.0000 </r>
       <r>    1.8573    1.0000 </r>
       <r>    1.9087    1.0000 </r>
       <r>    2.6722    1.0000 </r>
       <r>    3.0664    1.0000 </r>
       <r>    3.8393    1.0000 </r>
       <r>    4.0266    1.0000 </r>
       <r>    6.0678    0.0000 </r>
       <r>    6.4682    0.0000 </r>
       <r>    7.5337    0.0000 </r>
       <r>    8.6115    0.0000 </r>
       <r>    9.1053    0.0000 </r>
       <r>    9.7236    0.0000 </r>
       <r>    9.8555    0.0000 </r>
       <r>   10.3876    0.0000 </r>
       <r>   10.9020    0.0000 </r>
      </set>
      <set comment="kpoint 6">
       <r>  -11.0791    1.0000 </r>
       <r>  -10.8039    1.0000 </r>
       <r>  -10.6550    1.0000 </r>
       <r>  -10.5865    1.0000 </r>
       <r>  -10.5236    1.0000 </r>
       <r>  -10.5198    1.0000 </r>
       <r>  -10.1866    1.0000 </r>
       <r>  -10.1393    1.0000 </r>
       <r>  -10.0795    1.0000 </r>
       <r>  -10.0538    1.0000 </r>
       <r>   -8.7003    1.0000 </r>
       <r>   -8.3329    1.0000 </r>
       <r>   -7.4870    1.0000 </r>
       <r>   -6.9398    1.0000 </r>
       <r>   -2.0326    1.0000 </r>
       <r>   -1.4794    1.0000 </r>
       <r>   -1.3795    1.0000 </r>
       <r>   -1.3788    1.0000 </r>
       <r>   -1.1856    1.0000 </r>
       <r>   -1.0859    1.0000 </r>
       <r>   -1.0000    1.0000 </r>
       <r>    0.0191    1.0000 </r>
       <r>    0.5390    1.0000 </r>
       <r>    0.9733    1.0000 </r>
       <r>    1.2920    1.0000 </r>
       <r>    1.6977    1.0000 </r>
       <r>    1.7972    1.0000 </r>
       <r>    2.5370    1.0000 </r>
       <r>    2.9982    1.0000 </r>
       <r>    3.6393    1.0000 </r>
       <r>    3.9576    1.0000 </r>
       <r>    5.9079    0.0000 </r>
       <r>    6.3140    0.0000 </r>
       <r>    7.2251    0.0000 </r>
       <r>    8.7025    0.0000 </r>
       <r>    9.0147    0.0000 </r>
       <r>    9.7498    0.0000 </r>
       <r>    9.7660    0.0000 </r>
       <r>   10.6871    0.0000 </r>
       <r>   10.9069    0.0000 </r>
      </set>
      <set comment="kpoint 7">
       <r>  -11.1152    1.0000 </r>
       <r>  -10.8141    1.0000 </r>
       <r>  -10.6474    1.0000 </r>
       <r>  -10.5972    1.0000 </r>
       <r>  -10.5508    1.0000 </r>
       <r>  -10.5147    1.0000 </r>
       <r>  -10.1831    1.0000 </r>
       <r>  -10.1444    1.0000 </r>
       <r>  -10.0638    1.0000 </r>
       <r>  -10.0414    1.0000 </r>
       <r>   -8.4449    1.0000 </r>
       <r>   -8.1394    1.0000 </r>
       <r>   -7.3716    1.0000 </r>
       <r>   -6.8498    1.0000 </r>
       <r>   -2.2564    1.0000 </r>
       <r>   -1.7039    1.0000 </r>
       <r>   -1.3995    1.0000 </r>
       <r>   -1.3479    1.0000 </r>
       <r>   -1.2161    1.0000 </r>
       <r>   -1.0761    1.0000 </r>
       <r>   -1.0252    1.0000 </r>
       <r>   -0.1665    1.0000 </r>
       <r>    0.3014    1.0000 </r>
       <r>    0.6087    1.0000 </r>
       <r>    1.1410    1.0000 </r>
       <r>    1.5454    1.0000 </r>
       <r>    1.7181    1.0000 </r>
       <r>    2.5151    1.0000 </r>
       <r>    2.9296    1.0000 </r>
       <r>    3.5013    1.0000 </r>
       <r>    3.9284    1.0000 </r>
       <r>    5.6800    0.0000 </r>
       <r>    6.2365    0.0000 </r>
       <r>    6.9726    0.0000 </r>
       <r>    8.7471    0.0000 </r>
       <r>    8.8892    0.0000 </r>
       <r>    9.5525    0.0000 </r>
       <r>    9.7511    0.0000 </r>
       <r>   10.7206    0.0000 </r>
       <r>   10.7904    0.0000 </r>
      </set>
      <set comment="kpoint 8">
       <r>  -11.1344    1.0000 </r>
       <r>  -10.8217    1.0000 </r>
       <r>  -10.6440    1.0000 </r>
       <r>  -10.6050    1.0000 </r>
       <r>  -10.5620    1.0000 </r>
       <r>  -10.5089    1.0000 </r>
       <r>  -10.1819    1.0000 </r>
       <r>  -10.1475    1.0000 </r>
       <r>  -10.0554    1.0000 </r>
       <r>  -10.0339    1.0000 </r>
       <r>   -8.2786    1.0000 </r>
       <r>   -8.0325    1.0000 </r>
       <r>   -7.3181    1.0000 </r>
       <r>   -6.8004    1.0000 </r>
       <r>   -2.4251    1.0000 </r>
       <r>   -1.8912    1.0000 </r>
       <r>   -1.3843    1.0000 </r>
       <r>   -1.3317    1.0000 </r>
       <r>   -1.2350    1.0000 </r>
       <r>   -1.0687    1.0000 </r>
       <r>   -0.9248    1.0000 </r>
       <r>   -0.3229    1.0000 </r>
       <r>    0.0972    1.0000 </r>
       <r>    0.5425    1.0000 </r>
       <r>    1.0612    1.0000 </r>
       <r>    1.4657    1.0000 </r>
       <r>    1.6329    1.0000 </r>
       <r>    2.5230    1.0000 </r>
       <r>    2.8859    1.0000 </r>
       <r>    3.4332    1.0000 </r>
       <r>    3.9315    1.0000 </r>
       <r>    5.5441    0.0000 </r>
       <r>    6.1901    0.0000 </r>
       <r>    6.8295    0.0000 </r>
       <r>    8.7219    0.0000 </r>
       <r>    8.8886    0.0000 </r>
       <r>    9.3960    0.0000 </r>
       <r>    9.7301    0.0000 </r>
       <r>   10.6392    0.0000 </r>
       <r>   10.7085    0.0000 </r>
      </set>
      <set comment="kpoint 9">
       <r>  -10.9374    1.0000 </r>
       <r>  -10.7503    1.0000 </r>
       <r>  -10.7019    1.0000 </r>
       <r>  -10.5536    1.0000 </r>
       <r>  -10.5422    1.0000 </r>
       <r>  -10.2971    1.0000 </r>
       <r>  -10.2252    1.0000 </r>
       <r>  -10.1807    1.0000 </r>
       <r>  -10.0944    1.0000 </r>
       <r>  -10.0822    1.0000 </r>
       <r>   -9.5083    1.0000 </r>
       <r>   -8.9779    1.0000 </r>
       <r>   -8.0369    1.0000 </r>
       <r>   -7.3042    1.0000 </r>
       <r>   -1.9476    1.0000 </r>
       <r>   -1.5416    1.0000 </r>
       <r>   -1.5165    1.0000 </r>
       <r>   -1.3219    1.0000 </r>
       <r>   -1.1131    1.0000 </r>
       <r>   -1.0985    1.0000 </r>
       <r>    0.3431    1.0000 </r>
       <r>    1.3565    1.0000 </r>
       <r>    1.6236    1.0000 </r>
       <r>    1.9706    1.0000 </r>
       <r>    2.2019    1.0000 </r>
       <r>    2.3050    1.0000 </r>
       <r>    2.8790    1.0000 </r>
       <r>    3.0078    1.0000 </r>
       <r>    3.7433    1.0000 </r>
       <r>    4.1235    1.0000 </r>
       <r>    4.3380    1.0000 </r>
       <r>    5.4888    0.0000 </r>
       <r>    6.7126    0.0000 </r>
       <r>    7.8116    0.0000 </r>
       <r>    8.2753    0.0000 </r>
       <r>    8.6792    0.0000 </r>
       <r>    9.1106    0.0000 </r>
       <r>    9.4083    0.0000 </r>
       <r>    9.6271    0.0000 </r>
       <r>   10.0075    0.0000 </r>
      </set>
      <set comment="kpoint 10">
       <r>  -10.9652    1.0000 </r>
       <r>  -10.7755    1.0000 </r>
       <r>  -10.6889    1.0000 </r>
       <r>  -10.5623    1.0000 </r>
       <r>  -10.5404    1.0000 </r>
       <r>  -10.3598    1.0000 </r>
       <r>  -10.2204    1.0000 </r>
       <r>  -10.1533    1.0000 </r>
       <r>  -10.1021    1.0000 </r>
       <r>  -10.0785    1.0000 </r>
       <r>   -9.3251    1.0000 </r>
       <r>   -8.8405    1.0000 </r>
       <r>   -7.8964    1.0000 </r>
       <r>   -7.2166    1.0000 </r>
       <r>   -1.8986    1.0000 </r>
       <r>   -1.5325    1.0000 </r>
       <r>   -1.4831    1.0000 </r>
       <r>   -1.3051    1.0000 </r>
       <r>   -1.1309    1.0000 </r>
       <r>   -1.0982    1.0000 </r>
       <r>    0.0696    1.0000 </r>
       <r>    0.9798    1.0000 </r>
       <r>    1.3905    1.0000 </r>
       <r>    1.7399    1.0000 </r>
       <r>    1.8144    1.0000 </r>
       <r>    1.9907    1.0000 </r>
       <r>    2.6038    1.0000 </r>
       <r>    2.9712    1.0000 </r>
       <r>    3.2627    1.0000 </r>
       <r>    4.0713    1.0000 </r>
       <r>    4.1525    1.0000 </r>
       <r>    5.8738    0.0000 </r>
       <r>    6.8254    0.0000 </r>
       <r>    7.9931    0.0000 </r>
       <r>    8.4622    0.0000 </r>
       <r>    8.7540    0.0000 </r>
       <r>    9.2147    0.0000 </r>
       <r>    9.6662    0.0000 </r>
       <r>    9.8137    0.0000 </r>
       <r>   10.4382    0.0000 </r>
      </set>
      <set comment="kpoint 11">
       <r>  -11.0097    1.0000 </r>
       <r>  -10.7904    1.0000 </r>
       <r>  -10.6741    1.0000 </r>
       <r>  -10.5713    1.0000 </r>
       <r>  -10.5364    1.0000 </r>
       <r>  -10.4306    1.0000 </r>
       <r>  -10.2122    1.0000 </r>
       <r>  -10.1330    1.0000 </r>
       <r>  -10.1044    1.0000 </r>
       <r>  -10.0704    1.0000 </r>
       <r>   -9.0843    1.0000 </r>
       <r>   -8.6468    1.0000 </r>
       <r>   -7.7240    1.0000 </r>
       <r>   -7.1036    1.0000 </r>
       <r>   -1.8783    1.0000 </r>
       <r>   -1.5094    1.0000 </r>
       <r>   -1.4402    1.0000 </r>
       <r>   -1.2909    1.0000 </r>
       <r>   -1.1549    1.0000 </r>
       <r>   -1.0957    1.0000 </r>
       <r>   -0.3804    1.0000 </r>
       <r>    0.5065    1.0000 </r>
       <r>    1.0250    1.0000 </r>
       <r>    1.4704    1.0000 </r>
       <r>    1.5987    1.0000 </r>
       <r>    1.7692    1.0000 </r>
       <r>    2.2301    1.0000 </r>
       <r>    2.7751    1.0000 </r>
       <r>    3.0229    1.0000 </r>
       <r>    3.8282    1.0000 </r>
       <r>    4.0828    1.0000 </r>
       <r>    6.1190    0.0000 </r>
       <r>    6.6642    0.0000 </r>
       <r>    7.7936    0.0000 </r>
       <r>    8.6519    0.0000 </r>
       <r>    9.0740    0.0000 </r>
       <r>    9.4610    0.0000 </r>
       <r>    9.8797    0.0000 </r>
       <r>   10.1190    0.0000 </r>
       <r>   10.6802    0.0000 </r>
      </set>
      <set comment="kpoint 12">
       <r>  -11.0586    1.0000 </r>
       <r>  -10.7989    1.0000 </r>
       <r>  -10.6611    1.0000 </r>
       <r>  -10.5802    1.0000 </r>
       <r>  -10.5299    1.0000 </r>
       <r>  -10.4925    1.0000 </r>
       <r>  -10.2047    1.0000 </r>
       <r>  -10.1321    1.0000 </r>
       <r>  -10.0911    1.0000 </r>
       <r>  -10.0583    1.0000 </r>
       <r>   -8.8104    1.0000 </r>
       <r>   -8.4213    1.0000 </r>
       <r>   -7.5531    1.0000 </r>
       <r>   -6.9851    1.0000 </r>
       <r>   -1.9491    1.0000 </r>
       <r>   -1.4755    1.0000 </r>
       <r>   -1.3971    1.0000 </r>
       <r>   -1.3182    1.0000 </r>
       <r>   -1.1778    1.0000 </r>
       <r>   -1.0893    1.0000 </r>
       <r>   -0.8538    1.0000 </r>
       <r>    0.1504    1.0000 </r>
       <r>    0.6647    1.0000 </r>
       <r>    1.1067    1.0000 </r>
       <r>    1.3249    1.0000 </r>
       <r>    1.6434    1.0000 </r>
       <r>    1.9683    1.0000 </r>
       <r>    2.5687    1.0000 </r>
       <r>    2.9612    1.0000 </r>
       <r>    3.5899    1.0000 </r>
       <r>    4.0084    1.0000 </r>
       <r>    6.1111    0.0000 </r>
       <r>    6.4559    0.0000 </r>
       <r>    7.4969    0.0000 </r>
       <r>    8.7724    0.0000 </r>
       <r>    9.2138    0.0000 </r>
       <r>    9.5500    0.0000 </r>
       <r>    9.8969    0.0000 </r>
       <r>   10.5397    0.0000 </r>
       <r>   10.7486    0.0000 </r>
      </set>
      <set comment="kpoint 13">
       <r>  -11.0999    1.0000 </r>
       <r>  -10.8076    1.0000 </r>
       <r>  -10.6521    1.0000 </r>
       <r>  -10.5894    1.0000 </r>
       <r>  -10.5365    1.0000 </r>
       <r>  -10.5197    1.0000 </r>
       <r>  -10.2000    1.0000 </r>
       <r>  -10.1379    1.0000 </r>
       <r>  -10.0738    1.0000 </r>
       <r>  -10.0465    1.0000 </r>
       <r>   -8.5364    1.0000 </r>
       <r>   -8.2052    1.0000 </r>
       <r>   -7.4171    1.0000 </r>
       <r>   -6.8825    1.0000 </r>
       <r>   -2.1357    1.0000 </r>
       <r>   -1.5661    1.0000 </r>
       <r>   -1.4020    1.0000 </r>
       <r>   -1.3571    1.0000 </r>
       <r>   -1.1987    1.0000 </r>
       <r>   -1.0867    1.0000 </r>
       <r>   -1.0410    1.0000 </r>
       <r>   -0.0649    1.0000 </r>
       <r>    0.4082    1.0000 </r>
       <r>    0.6956    1.0000 </r>
       <r>    1.1174    1.0000 </r>
       <r>    1.4766    1.0000 </r>
       <r>    1.8367    1.0000 </r>
       <r>    2.4841    1.0000 </r>
       <r>    2.9160    1.0000 </r>
       <r>    3.4083    1.0000 </r>
       <r>    3.9547    1.0000 </r>
       <r>    5.9024    0.0000 </r>
       <r>    6.3644    0.0000 </r>
       <r>    7.2180    0.0000 </r>
       <r>    8.8440    0.0000 </r>
       <r>    9.1140    0.0000 </r>
       <r>    9.5264    0.0000 </r>
       <r>    9.7739    0.0000 </r>
       <r>   10.7820    0.0000 </r>
       <r>   10.8380    0.0000 </r>
      </set>
      <set comment="kpoint 14">
       <r>  -11.1269    1.0000 </r>
       <r>  -10.8160    1.0000 </r>
       <r>  -10.6473    1.0000 </r>
       <r>  -10.5985    1.0000 </r>
       <r>  -10.5557    1.0000 </r>
       <r>  -10.5134    1.0000 </r>
       <r>  -10.1978    1.0000 </r>
       <r>  -10.1426    1.0000 </r>
       <r>  -10.0602    1.0000 </r>
       <r>  -10.0391    1.0000 </r>
       <r>   -8.3142    1.0000 </r>
       <r>   -8.0521    1.0000 </r>
       <r>   -7.3389    1.0000 </r>
       <r>   -6.8129    1.0000 </r>
       <r>   -2.3426    1.0000 </r>
       <r>   -1.8122    1.0000 </r>
       <r>   -1.3835    1.0000 </r>
       <r>   -1.3360    1.0000 </r>
       <r>   -1.2252    1.0000 </r>
       <r>   -1.0780    1.0000 </r>
       <r>   -0.9668    1.0000 </r>
       <r>   -0.2372    1.0000 </r>
       <r>    0.1809    1.0000 </r>
       <r>    0.5182    1.0000 </r>
       <r>    0.9839    1.0000 </r>
       <r>    1.3649    1.0000 </r>
       <r>    1.7255    1.0000 </r>
       <r>    2.4447    1.0000 </r>
       <r>    2.8946    1.0000 </r>
       <r>    3.2990    1.0000 </r>
       <r>    3.9402    1.0000 </r>
       <r>    5.7217    0.0000 </r>
       <r>    6.3061    0.0000 </r>
       <r>    7.0220    0.0000 </r>
       <r>    8.9019    0.0000 </r>
       <r>    9.0137    0.0000 </r>
       <r>    9.4437    0.0000 </r>
       <r>    9.6397    0.0000 </r>
       <r>   10.6997    0.0000 </r>
       <r>   10.8458    0.0000 </r>
      </set>
      <set comment="kpoint 15">
       <r>  -11.1362    1.0000 </r>
       <r>  -10.8196    1.0000 </r>
       <r>  -10.6458    1.0000 </r>
       <r>  -10.6024    1.0000 </r>
       <r>  -10.5607    1.0000 </r>
       <r>  -10.5107    1.0000 </r>
       <r>  -10.1973    1.0000 </r>
       <r>  -10.1443    1.0000 </r>
       <r>  -10.0549    1.0000 </r>
       <r>  -10.0369    1.0000 </r>
       <r>   -8.2221    1.0000 </r>
       <r>   -8.0004    1.0000 </r>
       <r>   -7.3160    1.0000 </r>
       <r>   -6.7881    1.0000 </r>
       <r>   -2.4308    1.0000 </r>
       <r>   -1.9085    1.0000 </r>
       <r>   -1.3760    1.0000 </r>
       <r>   -1.3287    1.0000 </r>
       <r>   -1.2339    1.0000 </r>
       <r>   -1.0727    1.0000 </r>
       <r>   -0.8927    1.0000 </r>
       <r>   -0.3369    1.0000 </r>
       <r>    0.0643    1.0000 </r>
       <r>    0.5120    1.0000 </r>
       <r>    0.9374    1.0000 </r>
       <r>    1.3332    1.0000 </r>
       <r>    1.6685    1.0000 </r>
       <r>    2.4299    1.0000 </r>
       <r>    2.8905    1.0000 </r>
       <r>    3.2629    1.0000 </r>
       <r>    3.9421    1.0000 </r>
       <r>    5.6550    0.0000 </r>
       <r>    6.2827    0.0000 </r>
       <r>    6.9515    0.0000 </r>
       <r>    8.9086    0.0000 </r>
       <r>    9.0167    0.0000 </r>
       <r>    9.3667    0.0000 </r>
       <r>    9.5974    0.0000 </r>
       <r>   10.6484    0.0000 </r>
       <r>   10.8298    0.0000 </r>
      </set>
      <set comment="kpoint 16">
       <r>  -11.0015    1.0000 </r>
       <r>  -10.7887    1.0000 </r>
       <r>  -10.6772    1.0000 </r>
       <r>  -10.5686    1.0000 </r>
       <r>  -10.5386    1.0000 </r>
       <r>  -10.4123    1.0000 </r>
       <r>  -10.2287    1.0000 </r>
       <r>  -10.1284    1.0000 </r>
       <r>  -10.1082    1.0000 </r>
       <r>  -10.0714    1.0000 </r>
       <r>   -9.1192    1.0000 </r>
       <r>   -8.6750    1.0000 </r>
       <r>   -7.7508    1.0000 </r>
       <r>   -7.1206    1.0000 </r>
       <r>   -1.8737    1.0000 </r>
       <r>   -1.5131    1.0000 </r>
       <r>   -1.4464    1.0000 </r>
       <r>   -1.2917    1.0000 </r>
       <r>   -1.1499    1.0000 </r>
       <r>   -1.0968    1.0000 </r>
       <r>   -0.2803    1.0000 </r>
       <r>    0.6168    1.0000 </r>
       <r>    1.0697    1.0000 </r>
       <r>    1.4557    1.0000 </r>
       <r>    1.5526    1.0000 </r>
       <r>    1.7427    1.0000 </r>
       <r>    2.5299    1.0000 </r>
       <r>    2.6717    1.0000 </r>
       <r>    3.0158    1.0000 </r>
       <r>    3.7587    1.0000 </r>
       <r>    4.1132    1.0000 </r>
       <r>    6.1596    0.0000 </r>
       <r>    6.8064    0.0000 </r>
       <r>    8.0360    0.0000 </r>
       <r>    8.7917    0.0000 </r>
       <r>    8.8332    0.0000 </r>
       <r>    9.2688    0.0000 </r>
       <r>    9.8611    0.0000 </r>
       <r>   10.0702    0.0000 </r>
       <r>   10.6651    0.0000 </r>
      </set>
      <set comment="kpoint 17">
       <r>  -11.0452    1.0000 </r>
       <r>  -10.7960    1.0000 </r>
       <r>  -10.6662    1.0000 </r>
       <r>  -10.5746    1.0000 </r>
       <r>  -10.5354    1.0000 </r>
       <r>  -10.4659    1.0000 </r>
       <r>  -10.2335    1.0000 </r>
       <r>  -10.1193    1.0000 </r>
       <r>  -10.1050    1.0000 </r>
       <r>  -10.0597    1.0000 </r>
       <r>   -8.8646    1.0000 </r>
       <r>   -8.4646    1.0000 </r>
       <r>   -7.5931    1.0000 </r>
       <r>   -7.0102    1.0000 </r>
       <r>   -1.9057    1.0000 </r>
       <r>   -1.4789    1.0000 </r>
       <r>   -1.4060    1.0000 </r>
       <r>   -1.2968    1.0000 </r>
       <r>   -1.1715    1.0000 </r>
       <r>   -1.0912    1.0000 </r>
       <r>   -0.7046    1.0000 </r>
       <r>    0.2890    1.0000 </r>
       <r>    0.6985    1.0000 </r>
       <r>    1.1267    1.0000 </r>
       <r>    1.2130    1.0000 </r>
       <r>    1.6444    1.0000 </r>
       <r>    2.2001    1.0000 </r>
       <r>    2.5359    1.0000 </r>
       <r>    2.8876    1.0000 </r>
       <r>    3.4226    1.0000 </r>
       <r>    4.0593    1.0000 </r>
       <r>    6.3093    0.0000 </r>
       <r>    6.6705    0.0000 </r>
       <r>    7.9062    0.0000 </r>
       <r>    8.8895    0.0000 </r>
       <r>    9.1481    0.0000 </r>
       <r>    9.5303    0.0000 </r>
       <r>    9.9005    0.0000 </r>
       <r>   10.3406    0.0000 </r>
       <r>   10.6446    0.0000 </r>
      </set>
      <set comment="kpoint 18">
       <r>  -11.0861    1.0000 </r>
       <r>  -10.8013    1.0000 </r>
       <r>  -10.6582    1.0000 </r>
       <r>  -10.5804    1.0000 </r>
       <r>  -10.5320    1.0000 </r>
       <r>  -10.5083    1.0000 </r>
       <r>  -10.2358    1.0000 </r>
       <r>  -10.1253    1.0000 </r>
       <r>  -10.0891    1.0000 </r>
       <r>  -10.0490    1.0000 </r>
       <r>   -8.5886    1.0000 </r>
       <r>   -8.2423    1.0000 </r>
       <r>   -7.4563    1.0000 </r>
       <r>   -6.9052    1.0000 </r>
       <r>   -2.0332    1.0000 </r>
       <r>   -1.4738    1.0000 </r>
       <r>   -1.3911    1.0000 </r>
       <r>   -1.3456    1.0000 </r>
       <r>   -1.1862    1.0000 </r>
       <r>   -1.0848    1.0000 </r>
       <r>   -1.0136    1.0000 </r>
       <r>    0.0519    1.0000 </r>
       <r>    0.4325    1.0000 </r>
       <r>    0.7514    1.0000 </r>
       <r>    0.9522    1.0000 </r>
       <r>    1.4600    1.0000 </r>
       <r>    1.9513    1.0000 </r>
       <r>    2.4077    1.0000 </r>
       <r>    2.8641    1.0000 </r>
       <r>    3.1554    1.0000 </r>
       <r>    3.9981    1.0000 </r>
       <r>    6.2391    0.0000 </r>
       <r>    6.5689    0.0000 </r>
       <r>    7.6735    0.0000 </r>
       <r>    8.9434    0.0000 </r>
       <r>    9.3056    0.0000 </r>
       <r>    9.6973    0.0000 </r>
       <r>    9.8817    0.0000 </r>
       <r>   10.5951    0.0000 </r>
       <r>   10.7382    0.0000 </r>
      </set>
      <set comment="kpoint 19">
       <r>  -11.1168    1.0000 </r>
       <r>  -10.8070    1.0000 </r>
       <r>  -10.6535    1.0000 </r>
       <r>  -10.5865    1.0000 </r>
       <r>  -10.5420    1.0000 </r>
       <r>  -10.5204    1.0000 </r>
       <r>  -10.2372    1.0000 </r>
       <r>  -10.1309    1.0000 </r>
       <r>  -10.0727    1.0000 </r>
       <r>  -10.0439    1.0000 </r>
       <r>   -8.3317    1.0000 </r>
       <r>   -8.0569    1.0000 </r>
       <r>   -7.3681    1.0000 </r>
       <r>   -6.8233    1.0000 </r>
       <r>   -2.2217    1.0000 </r>
       <r>   -1.6951    1.0000 </r>
       <r>   -1.3757    1.0000 </r>
       <r>   -1.3360    1.0000 </r>
       <r>   -1.2085    1.0000 </r>
       <r>   -1.0992    1.0000 </r>
       <r>   -0.9947    1.0000 </r>
       <r>   -0.1204    1.0000 </r>
       <r>    0.2316    1.0000 </r>
       <r>    0.4619    1.0000 </r>
       <r>    0.7986    1.0000 </r>
       <r>    1.2773    1.0000 </r>
       <r>    1.7900    1.0000 </r>
       <r>    2.2831    1.0000 </r>
       <r>    2.8888    1.0000 </r>
       <r>    2.9858    1.0000 </r>
       <r>    3.9584    1.0000 </r>
       <r>    6.0768    0.0000 </r>
       <r>    6.5198    0.0000 </r>
       <r>    7.4637    0.0000 </r>
       <r>    8.9513    0.0000 </r>
       <r>    9.3885    0.0000 </r>
       <r>    9.5789    0.0000 </r>
       <r>    9.8204    0.0000 </r>
       <r>   10.6579    0.0000 </r>
       <r>   10.9082    0.0000 </r>
      </set>
      <set comment="kpoint 20">
       <r>  -11.1331    1.0000 </r>
       <r>  -10.8111    1.0000 </r>
       <r>  -10.6514    1.0000 </r>
       <r>  -10.5915    1.0000 </r>
       <r>  -10.5518    1.0000 </r>
       <r>  -10.5182    1.0000 </r>
       <r>  -10.2379    1.0000 </r>
       <r>  -10.1341    1.0000 </r>
       <r>  -10.0592    1.0000 </r>
       <r>  -10.0455    1.0000 </r>
       <r>   -8.1589    1.0000 </r>
       <r>   -7.9590    1.0000 </r>
       <r>   -7.3334    1.0000 </r>
       <r>   -6.7780    1.0000 </r>
       <r>   -2.3606    1.0000 </r>
       <r>   -1.8682    1.0000 </r>
       <r>   -1.3614    1.0000 </r>
       <r>   -1.3266    1.0000 </r>
       <r>   -1.2237    1.0000 </r>
       <r>   -1.0873    1.0000 </r>
       <r>   -0.8899    1.0000 </r>
       <r>   -0.2695    1.0000 </r>
       <r>    0.0617    1.0000 </r>
       <r>    0.3678    1.0000 </r>
       <r>    0.7370    1.0000 </r>
       <r>    1.1963    1.0000 </r>
       <r>    1.6960    1.0000 </r>
       <r>    2.1905    1.0000 </r>
       <r>    2.8874    1.0000 </r>
       <r>    2.9342    1.0000 </r>
       <r>    3.9459    1.0000 </r>
       <r>    5.9738    0.0000 </r>
       <r>    6.4859    0.0000 </r>
       <r>    7.3449    0.0000 </r>
       <r>    8.9784    0.0000 </r>
       <r>    9.4007    0.0000 </r>
       <r>    9.4849    0.0000 </r>
       <r>    9.7273    0.0000 </r>
       <r>   10.5867    0.0000 </r>
       <r>   10.9153    0.0000 </r>
      </set>
      <set comment="kpoint 21">
       <r>  -11.0804    1.0000 </r>
       <r>  -10.7990    1.0000 </r>
       <r>  -10.6609    1.0000 </r>
       <r>  -10.5761    1.0000 </r>
       <r>  -10.5355    1.0000 </r>
       <r>  -10.4950    1.0000 </r>
       <r>  -10.2561    1.0000 </r>
       <r>  -10.1140    1.0000 </r>
       <r>  -10.1014    1.0000 </r>
       <r>  -10.0495    1.0000 </r>
       <r>   -8.6055    1.0000 </r>
       <r>   -8.2536    1.0000 </r>
       <r>   -7.4718    1.0000 </r>
       <r>   -6.9133    1.0000 </r>
       <r>   -1.9936    1.0000 </r>
       <r>   -1.4545    1.0000 </r>
       <r>   -1.3877    1.0000 </r>
       <r>   -1.3286    1.0000 </r>
       <r>   -1.1831    1.0000 </r>
       <r>   -1.0811    1.0000 </r>
       <r>   -0.9791    1.0000 </r>
       <r>    0.1139    1.0000 </r>
       <r>    0.4044    1.0000 </r>
       <r>    0.7964    1.0000 </r>
       <r>    0.8304    1.0000 </r>
       <r>    1.4877    1.0000 </r>
       <r>    2.0213    1.0000 </r>
       <r>    2.3466    1.0000 </r>
       <r>    2.8579    1.0000 </r>
       <r>    3.0012    1.0000 </r>
       <r>    4.0172    1.0000 </r>
       <r>    6.4022    0.0000 </r>
       <r>    6.6697    0.0000 </r>
       <r>    7.9884    0.0000 </r>
       <r>    8.8308    0.0000 </r>
       <r>    9.4211    0.0000 </r>
       <r>    9.6958    0.0000 </r>
       <r>   10.0998    0.0000 </r>
       <r>   10.5534    0.0000 </r>
       <r>   10.7481    0.0000 </r>
      </set>
      <set comment="kpoint 22">
       <r>  -11.1094    1.0000 </r>
       <r>  -10.8007    1.0000 </r>
       <r>  -10.6582    1.0000 </r>
       <r>  -10.5767    1.0000 </r>
       <r>  -10.5370    1.0000 </r>
       <r>  -10.5151    1.0000 </r>
       <r>  -10.2745    1.0000 </r>
       <r>  -10.1162    1.0000 </r>
       <r>  -10.0889    1.0000 </r>
       <r>  -10.0455    1.0000 </r>
       <r>   -8.3389    1.0000 </r>
       <r>   -8.0535    1.0000 </r>
       <r>   -7.3896    1.0000 </r>
       <r>   -6.8291    1.0000 </r>
       <r>   -2.1310    1.0000 </r>
       <r>   -1.6019    1.0000 </r>
       <r>   -1.3702    1.0000 </r>
       <r>   -1.3265    1.0000 </r>
       <r>   -1.1914    1.0000 </r>
       <r>   -1.1164    1.0000 </r>
       <r>   -1.0072    1.0000 </r>
       <r>   -0.0410    1.0000 </r>
       <r>    0.1720    1.0000 </r>
       <r>    0.4427    1.0000 </r>
       <r>    0.6650    1.0000 </r>
       <r>    1.3248    1.0000 </r>
       <r>    1.7649    1.0000 </r>
       <r>    2.1934    1.0000 </r>
       <r>    2.6827    1.0000 </r>
       <r>    2.9089    1.0000 </r>
       <r>    3.9688    1.0000 </r>
       <r>    6.3712    0.0000 </r>
       <r>    6.6661    0.0000 </r>
       <r>    7.9174    0.0000 </r>
       <r>    8.7672    0.0000 </r>
       <r>    9.5824    0.0000 </r>
       <r>    9.9401    0.0000 </r>
       <r>   10.2333    0.0000 </r>
       <r>   10.5655    0.0000 </r>
       <r>   10.9131    0.0000 </r>
      </set>
      <set comment="kpoint 23">
       <r>  -11.1284    1.0000 </r>
       <r>  -10.8020    1.0000 </r>
       <r>  -10.6572    1.0000 </r>
       <r>  -10.5779    1.0000 </r>
       <r>  -10.5390    1.0000 </r>
       <r>  -10.5250    1.0000 </r>
       <r>  -10.2860    1.0000 </r>
       <r>  -10.1189    1.0000 </r>
       <r>  -10.0736    1.0000 </r>
       <r>  -10.0491    1.0000 </r>
       <r>   -8.1137    1.0000 </r>
       <r>   -7.9154    1.0000 </r>
       <r>   -7.3597    1.0000 </r>
       <r>   -6.7714    1.0000 </r>
       <r>   -2.2598    1.0000 </r>
       <r>   -1.8011    1.0000 </r>
       <r>   -1.3481    1.0000 </r>
       <r>   -1.3219    1.0000 </r>
       <r>   -1.2066    1.0000 </r>
       <r>   -1.1094    1.0000 </r>
       <r>   -0.9047    1.0000 </r>
       <r>   -0.1750    1.0000 </r>
       <r>   -0.0080    1.0000 </r>
       <r>    0.1706    1.0000 </r>
       <r>    0.6514    1.0000 </r>
       <r>    1.2077    1.0000 </r>
       <r>    1.6040    1.0000 </r>
       <r>    2.0183    1.0000 </r>
       <r>    2.5132    1.0000 </r>
       <r>    2.9681    1.0000 </r>
       <r>    3.9341    1.0000 </r>
       <r>    6.3086    0.0000 </r>
       <r>    6.6564    0.0000 </r>
       <r>    7.8135    0.0000 </r>
       <r>    8.7166    0.0000 </r>
       <r>    9.7063    0.0000 </r>
       <r>    9.9412    0.0000 </r>
       <r>   10.2364    0.0000 </r>
       <r>   10.4628    0.0000 </r>
       <r>   11.0263    0.0000 </r>
      </set>
      <set comment="kpoint 24">
       <r>  -11.1349    1.0000 </r>
       <r>  -10.8025    1.0000 </r>
       <r>  -10.6570    1.0000 </r>
       <r>  -10.5788    1.0000 </r>
       <r>  -10.5397    1.0000 </r>
       <r>  -10.5277    1.0000 </r>
       <r>  -10.2899    1.0000 </r>
       <r>  -10.1200    1.0000 </r>
       <r>  -10.0600    1.0000 </r>
       <r>  -10.0585    1.0000 </r>
       <r>   -8.0131    1.0000 </r>
       <r>   -7.8738    1.0000 </r>
       <r>   -7.3585    1.0000 </r>
       <r>   -6.7507    1.0000 </r>
       <r>   -2.3126    1.0000 </r>
       <r>   -1.8808    1.0000 </r>
       <r>   -1.3430    1.0000 </r>
       <r>   -1.3196    1.0000 </r>
       <r>   -1.2128    1.0000 </r>
       <r>   -1.1007    1.0000 </r>
       <r>   -0.8250    1.0000 </r>
       <r>   -0.2735    1.0000 </r>
       <r>   -0.0522    1.0000 </r>
       <r>    0.0675    1.0000 </r>
       <r>    0.6591    1.0000 </r>
       <r>    1.1579    1.0000 </r>
       <r>    1.5788    1.0000 </r>
       <r>    1.9239    1.0000 </r>
       <r>    2.4602    1.0000 </r>
       <r>    2.9933    1.0000 </r>
       <r>    3.9223    1.0000 </r>
       <r>    6.2826    0.0000 </r>
       <r>    6.6493    0.0000 </r>
       <r>    7.7713    0.0000 </r>
       <r>    8.6986    0.0000 </r>
       <r>    9.7641    0.0000 </r>
       <r>    9.8938    0.0000 </r>
       <r>   10.2305    0.0000 </r>
       <r>   10.3925    0.0000 </r>
       <r>   11.0005    0.0000 </r>
      </set>
      <set comment="kpoint 25">
       <r>  -11.1261    1.0000 </r>
       <r>  -10.7981    1.0000 </r>
       <r>  -10.6596    1.0000 </r>
       <r>  -10.5707    1.0000 </r>
       <r>  -10.5399    1.0000 </r>
       <r>  -10.5197    1.0000 </r>
       <r>  -10.3096    1.0000 </r>
       <r>  -10.1070    1.0000 </r>
       <r>  -10.0859    1.0000 </r>
       <r>  -10.0496    1.0000 </r>
       <r>   -8.0986    1.0000 </r>
       <r>   -7.8946    1.0000 </r>
       <r>   -7.3731    1.0000 </r>
       <r>   -6.7691    1.0000 </r>
       <r>   -2.2100    1.0000 </r>
       <r>   -1.7659    1.0000 </r>
       <r>   -1.3436    1.0000 </r>
       <r>   -1.3184    1.0000 </r>
       <r>   -1.1915    1.0000 </r>
       <r>   -1.1256    1.0000 </r>
       <r>   -0.9137    1.0000 </r>
       <r>   -0.1677    1.0000 </r>
       <r>   -0.0379    1.0000 </r>
       <r>    0.0902    1.0000 </r>
       <r>    0.6493    1.0000 </r>
       <r>    1.2902    1.0000 </r>
       <r>    1.4748    1.0000 </r>
       <r>    1.9851    1.0000 </r>
       <r>    2.3462    1.0000 </r>
       <r>    2.9811    1.0000 </r>
       <r>    3.9260    1.0000 </r>
       <r>    6.4547    0.0000 </r>
       <r>    6.7207    0.0000 </r>
       <r>    8.0307    0.0000 </r>
       <r>    8.6092    0.0000 </r>
       <r>    9.7902    0.0000 </r>
       <r>   10.1529    0.0000 </r>
       <r>   10.3758    0.0000 </r>
       <r>   10.7327    0.0000 </r>
       <r>   11.1458    0.0000 </r>
      </set>
      <set comment="kpoint 26">
       <r>  -11.1348    1.0000 </r>
       <r>  -10.7959    1.0000 </r>
       <r>  -10.6609    1.0000 </r>
       <r>  -10.5658    1.0000 </r>
       <r>  -10.5408    1.0000 </r>
       <r>  -10.5224    1.0000 </r>
       <r>  -10.3309    1.0000 </r>
       <r>  -10.1031    1.0000 </r>
       <r>  -10.0764    1.0000 </r>
       <r>  -10.0590    1.0000 </r>
       <r>   -7.9286    1.0000 </r>
       <r>   -7.8075    1.0000 </r>
       <r>   -7.3944    1.0000 </r>
       <r>   -6.7357    1.0000 </r>
       <r>   -2.2494    1.0000 </r>
       <r>   -1.8764    1.0000 </r>
       <r>   -1.3344    1.0000 </r>
       <r>   -1.3172    1.0000 </r>
       <r>   -1.1951    1.0000 </r>
       <r>   -1.1146    1.0000 </r>
       <r>   -0.7988    1.0000 </r>
       <r>   -0.2892    1.0000 </r>
       <r>   -0.1510    1.0000 </r>
       <r>   -0.1195    1.0000 </r>
       <r>    0.7168    1.0000 </r>
       <r>    1.1840    1.0000 </r>
       <r>    1.3997    1.0000 </r>
       <r>    1.7931    1.0000 </r>
       <r>    2.1905    1.0000 </r>
       <r>    3.0321    1.0000 </r>
       <r>    3.8939    1.0000 </r>
       <r>    6.4926    0.0000 </r>
       <r>    6.7437    0.0000 </r>
       <r>    8.0440    0.0000 </r>
       <r>    8.5198    0.0000 </r>
       <r>    9.9123    0.0000 </r>
       <r>   10.1902    0.0000 </r>
       <r>   10.3017    0.0000 </r>
       <r>   10.8858    0.0000 </r>
       <r>   11.4245    0.0000 </r>
      </set>
      <set comment="kpoint 27">
       <r>  -11.1368    1.0000 </r>
       <r>  -10.7931    1.0000 </r>
       <r>  -10.6624    1.0000 </r>
       <r>  -10.5527    1.0000 </r>
       <r>  -10.5527    1.0000 </r>
       <r>  -10.5160    1.0000 </r>
       <r>  -10.3505    1.0000 </r>
       <r>  -10.0891    1.0000 </r>
       <r>  -10.0841    1.0000 </r>
       <r>  -10.0644    1.0000 </r>
       <r>   -7.8526    1.0000 </r>
       <r>   -7.7582    1.0000 </r>
       <r>   -7.4266    1.0000 </r>
       <r>   -6.7229    1.0000 </r>
       <r>   -2.2330    1.0000 </r>
       <r>   -1.9077    1.0000 </r>
       <r>   -1.3327    1.0000 </r>
       <r>   -1.3159    1.0000 </r>
       <r>   -1.1888    1.0000 </r>
       <r>   -1.1149    1.0000 </r>
       <r>   -0.7464    1.0000 </r>
       <r>   -0.3271    1.0000 </r>
       <r>   -0.2949    1.0000 </r>
       <r>   -0.1586    1.0000 </r>
       <r>    0.8441    1.0000 </r>
       <r>    1.0315    1.0000 </r>
       <r>    1.4087    1.0000 </r>
       <r>    1.6695    1.0000 </r>
       <r>    2.0846    1.0000 </r>
       <r>    3.0573    1.0000 </r>
       <r>    3.8740    1.0000 </r>
       <r>    6.5634    0.0000 </r>
       <r>    6.7732    0.0000 </r>
       <r>    8.1128    0.0000 </r>
       <r>    8.4424    0.0000 </r>
       <r>    9.9221    0.0000 </r>
       <r>   10.2866    0.0000 </r>
       <r>   10.3419    0.0000 </r>
       <r>   11.1988    0.0000 </r>
       <r>   11.6436    0.0000 </r>
      </set>
      <set comment="kpoint 28">
       <r>  -10.9225    1.0000 </r>
       <r>  -10.7135    1.0000 </r>
       <r>  -10.7135    1.0000 </r>
       <r>  -10.5432    1.0000 </r>
       <r>  -10.5432    1.0000 </r>
       <r>  -10.2307    1.0000 </r>
       <r>  -10.2307    1.0000 </r>
       <r>  -10.2169    1.0000 </r>
       <r>  -10.0840    1.0000 </r>
       <r>  -10.0840    1.0000 </r>
       <r>   -9.6608    1.0000 </r>
       <r>   -9.0945    1.0000 </r>
       <r>   -8.1398    1.0000 </r>
       <r>   -7.3895    1.0000 </r>
       <r>   -2.0212    1.0000 </r>
       <r>   -1.5440    1.0000 </r>
       <r>   -1.5440    1.0000 </r>
       <r>   -1.2510    1.0000 </r>
       <r>   -1.0981    1.0000 </r>
       <r>   -1.0981    1.0000 </r>
       <r>    0.2542    1.0000 </r>
       <r>    1.6934    1.0000 </r>
       <r>    2.1619    1.0000 </r>
       <r>    2.1619    1.0000 </r>
       <r>    2.7510    1.0000 </r>
       <r>    2.7510    1.0000 </r>
       <r>    3.0373    1.0000 </r>
       <r>    3.0373    1.0000 </r>
       <r>    3.7040    1.0000 </r>
       <r>    4.5317    1.0000 </r>
       <r>    4.5317    1.0000 </r>
       <r>    5.0975    0.0000 </r>
       <r>    6.3332    0.0000 </r>
       <r>    7.2693    0.0000 </r>
       <r>    7.8916    0.0000 </r>
       <r>    9.0657    0.0000 </r>
       <r>    9.0945    0.0000 </r>
       <r>    9.0945    0.0000 </r>
       <r>    9.6697    0.0000 </r>
       <r>    9.6697    0.0000 </r>
      </set>
      <set comment="kpoint 29">
       <r>  -10.9267    1.0000 </r>
       <r>  -10.7280    1.0000 </r>
       <r>  -10.7094    1.0000 </r>
       <r>  -10.5473    1.0000 </r>
       <r>  -10.5429    1.0000 </r>
       <r>  -10.2586    1.0000 </r>
       <r>  -10.2271    1.0000 </r>
       <r>  -10.2009    1.0000 </r>
       <r>  -10.0882    1.0000 </r>
       <r>  -10.0835    1.0000 </r>
       <r>   -9.6063    1.0000 </r>
       <r>   -9.0592    1.0000 </r>
       <r>   -8.0976    1.0000 </r>
       <r>   -7.3646    1.0000 </r>
       <r>   -2.0039    1.0000 </r>
       <r>   -1.5438    1.0000 </r>
       <r>   -1.5346    1.0000 </r>
       <r>   -1.2457    1.0000 </r>
       <r>   -1.1028    1.0000 </r>
       <r>   -1.0983    1.0000 </r>
       <r>    0.2344    1.0000 </r>
       <r>    1.6327    1.0000 </r>
       <r>    1.9599    1.0000 </r>
       <r>    2.1020    1.0000 </r>
       <r>    2.4705    1.0000 </r>
       <r>    2.6449    1.0000 </r>
       <r>    2.9018    1.0000 </r>
       <r>    3.0764    1.0000 </r>
       <r>    3.7951    1.0000 </r>
       <r>    4.2650    1.0000 </r>
       <r>    4.4706    1.0000 </r>
       <r>    5.3147    0.0000 </r>
       <r>    6.4671    0.0000 </r>
       <r>    7.4907    0.0000 </r>
       <r>    8.0659    0.0000 </r>
       <r>    8.7899    0.0000 </r>
       <r>    9.1696    0.0000 </r>
       <r>    9.2119    0.0000 </r>
       <r>    9.6468    0.0000 </r>
       <r>    9.7759    0.0000 </r>
      </set>
      <set comment="kpoint 30">
       <r>  -10.9439    1.0000 </r>
       <r>  -10.7586    1.0000 </r>
       <r>  -10.6982    1.0000 </r>
       <r>  -10.5564    1.0000 </r>
       <r>  -10.5416    1.0000 </r>
       <r>  -10.3174    1.0000 </r>
       <r>  -10.2173    1.0000 </r>
       <r>  -10.1760    1.0000 </r>
       <r>  -10.0968    1.0000 </r>
       <r>  -10.0813    1.0000 </r>
       <r>   -9.4569    1.0000 </r>
       <r>   -8.9541    1.0000 </r>
       <r>   -7.9818    1.0000 </r>
       <r>   -7.2936    1.0000 </r>
       <r>   -1.9606    1.0000 </r>
       <r>   -1.5407    1.0000 </r>
       <r>   -1.5078    1.0000 </r>
       <r>   -1.2312    1.0000 </r>
       <r>   -1.1152    1.0000 </r>
       <r>   -1.0983    1.0000 </r>
       <r>    0.1319    1.0000 </r>
       <r>    1.2349    1.0000 </r>
       <r>    1.7715    1.0000 </r>
       <r>    1.9399    1.0000 </r>
       <r>    1.9433    1.0000 </r>
       <r>    2.4179    1.0000 </r>
       <r>    2.5220    1.0000 </r>
       <r>    3.1168    1.0000 </r>
       <r>    3.5810    1.0000 </r>
       <r>    4.0683    1.0000 </r>
       <r>    4.3036    1.0000 </r>
       <r>    5.6798    0.0000 </r>
       <r>    6.7044    0.0000 </r>
       <r>    7.8848    0.0000 </r>
       <r>    8.2483    0.0000 </r>
       <r>    8.7194    0.0000 </r>
       <r>    9.2245    0.0000 </r>
       <r>    9.3554    0.0000 </r>
       <r>    9.7795    0.0000 </r>
       <r>   10.0816    0.0000 </r>
      </set>
      <set comment="kpoint 31">
       <r>  -10.9811    1.0000 </r>
       <r>  -10.7823    1.0000 </r>
       <r>  -10.6828    1.0000 </r>
       <r>  -10.5664    1.0000 </r>
       <r>  -10.5383    1.0000 </r>
       <r>  -10.3921    1.0000 </r>
       <r>  -10.2048    1.0000 </r>
       <r>  -10.1498    1.0000 </r>
       <r>  -10.1033    1.0000 </r>
       <r>  -10.0761    1.0000 </r>
       <r>   -9.2390    1.0000 </r>
       <r>   -8.7849    1.0000 </r>
       <r>   -7.8185    1.0000 </r>
       <r>   -7.1870    1.0000 </r>
       <r>   -1.9186    1.0000 </r>
       <r>   -1.5285    1.0000 </r>
       <r>   -1.4680    1.0000 </r>
       <r>   -1.2165    1.0000 </r>
       <r>   -1.1328    1.0000 </r>
       <r>   -1.0971    1.0000 </r>
       <r>   -0.1584    1.0000 </r>
       <r>    0.6778    1.0000 </r>
       <r>    1.3855    1.0000 </r>
       <r>    1.7267    1.0000 </r>
       <r>    1.7370    1.0000 </r>
       <r>    2.0481    1.0000 </r>
       <r>    2.1578    1.0000 </r>
       <r>    3.0777    1.0000 </r>
       <r>    3.1119    1.0000 </r>
       <r>    4.0730    1.0000 </r>
       <r>    4.0755    1.0000 </r>
       <r>    5.9723    0.0000 </r>
       <r>    6.7055    0.0000 </r>
       <r>    7.7658    0.0000 </r>
       <r>    8.5373    0.0000 </r>
       <r>    8.9002    0.0000 </r>
       <r>    9.5552    0.0000 </r>
       <r>    9.5670    0.0000 </r>
       <r>   10.0650    0.0000 </r>
       <r>   10.5127    0.0000 </r>
      </set>
      <set comment="kpoint 32">
       <r>  -11.0311    1.0000 </r>
       <r>  -10.7945    1.0000 </r>
       <r>  -10.6672    1.0000 </r>
       <r>  -10.5764    1.0000 </r>
       <r>  -10.5323    1.0000 </r>
       <r>  -10.4645    1.0000 </r>
       <r>  -10.1937    1.0000 </r>
       <r>  -10.1367    1.0000 </r>
       <r>  -10.0975    1.0000 </r>
       <r>  -10.0666    1.0000 </r>
       <r>   -8.9771    1.0000 </r>
       <r>   -8.5684    1.0000 </r>
       <r>   -7.6403    1.0000 </r>
       <r>   -7.0627    1.0000 </r>
       <r>   -1.9283    1.0000 </r>
       <r>   -1.4999    1.0000 </r>
       <r>   -1.4223    1.0000 </r>
       <r>   -1.2315    1.0000 </r>
       <r>   -1.1550    1.0000 </r>
       <r>   -1.0933    1.0000 </r>
       <r>   -0.6278    1.0000 </r>
       <r>    0.2340    1.0000 </r>
       <r>    0.9504    1.0000 </r>
       <r>    1.4534    1.0000 </r>
       <r>    1.4981    1.0000 </r>
       <r>    1.7907    1.0000 </r>
       <r>    1.9058    1.0000 </r>
       <r>    2.7227    1.0000 </r>
       <r>    3.0699    1.0000 </r>
       <r>    3.8371    1.0000 </r>
       <r>    4.0199    1.0000 </r>
       <r>    6.0451    0.0000 </r>
       <r>    6.5125    0.0000 </r>
       <r>    7.5221    0.0000 </r>
       <r>    8.6439    0.0000 </r>
       <r>    9.0072    0.0000 </r>
       <r>    9.7151    0.0000 </r>
       <r>    9.9396    0.0000 </r>
       <r>   10.2644    0.0000 </r>
       <r>   11.0215    0.0000 </r>
      </set>
      <set comment="kpoint 33">
       <r>  -11.0791    1.0000 </r>
       <r>  -10.8039    1.0000 </r>
       <r>  -10.6550    1.0000 </r>
       <r>  -10.5864    1.0000 </r>
       <r>  -10.5236    1.0000 </r>
       <r>  -10.5199    1.0000 </r>
       <r>  -10.1865    1.0000 </r>
       <r>  -10.1393    1.0000 </r>
       <r>  -10.0795    1.0000 </r>
       <r>  -10.0538    1.0000 </r>
       <r>   -8.6984    1.0000 </r>
       <r>   -8.3374    1.0000 </r>
       <r>   -7.4807    1.0000 </r>
       <r>   -6.9436    1.0000 </r>
       <r>   -2.0485    1.0000 </r>
       <r>   -1.4580    1.0000 </r>
       <r>   -1.3797    1.0000 </r>
       <r>   -1.3796    1.0000 </r>
       <r>   -1.1786    1.0000 </r>
       <r>   -1.0859    1.0000 </r>
       <r>   -0.9927    1.0000 </r>
       <r>   -0.0403    1.0000 </r>
       <r>    0.6205    1.0000 </r>
       <r>    0.9321    1.0000 </r>
       <r>    1.2954    1.0000 </r>
       <r>    1.6913    1.0000 </r>
       <r>    1.7944    1.0000 </r>
       <r>    2.5454    1.0000 </r>
       <r>    3.0080    1.0000 </r>
       <r>    3.6319    1.0000 </r>
       <r>    3.9341    1.0000 </r>
       <r>    5.8687    0.0000 </r>
       <r>    6.4000    0.0000 </r>
       <r>    7.2809    0.0000 </r>
       <r>    8.6366    0.0000 </r>
       <r>    8.8923    0.0000 </r>
       <r>    9.7705    0.0000 </r>
       <r>    9.8624    0.0000 </r>
       <r>   10.4744    0.0000 </r>
       <r>   11.1874    0.0000 </r>
      </set>
      <set comment="kpoint 34">
       <r>  -11.1152    1.0000 </r>
       <r>  -10.8141    1.0000 </r>
       <r>  -10.6474    1.0000 </r>
       <r>  -10.5971    1.0000 </r>
       <r>  -10.5508    1.0000 </r>
       <r>  -10.5147    1.0000 </r>
       <r>  -10.1831    1.0000 </r>
       <r>  -10.1444    1.0000 </r>
       <r>  -10.0638    1.0000 </r>
       <r>  -10.0414    1.0000 </r>
       <r>   -8.4437    1.0000 </r>
       <r>   -8.1418    1.0000 </r>
       <r>   -7.3687    1.0000 </r>
       <r>   -6.8514    1.0000 </r>
       <r>   -2.2586    1.0000 </r>
       <r>   -1.6965    1.0000 </r>
       <r>   -1.4001    1.0000 </r>
       <r>   -1.3479    1.0000 </r>
       <r>   -1.2177    1.0000 </r>
       <r>   -1.0761    1.0000 </r>
       <r>   -1.0186    1.0000 </r>
       <r>   -0.2159    1.0000 </r>
       <r>    0.3143    1.0000 </r>
       <r>    0.6420    1.0000 </r>
       <r>    1.1462    1.0000 </r>
       <r>    1.5358    1.0000 </r>
       <r>    1.7550    1.0000 </r>
       <r>    2.4848    1.0000 </r>
       <r>    2.9462    1.0000 </r>
       <r>    3.4880    1.0000 </r>
       <r>    3.8651    1.0000 </r>
       <r>    5.6708    0.0000 </r>
       <r>    6.3283    0.0000 </r>
       <r>    7.0608    0.0000 </r>
       <r>    8.6242    0.0000 </r>
       <r>    8.7530    0.0000 </r>
       <r>    9.6716    0.0000 </r>
       <r>    9.7692    0.0000 </r>
       <r>   10.4673    0.0000 </r>
       <r>   11.0550    0.0000 </r>
      </set>
      <set comment="kpoint 35">
       <r>  -11.1343    1.0000 </r>
       <r>  -10.8217    1.0000 </r>
       <r>  -10.6440    1.0000 </r>
       <r>  -10.6049    1.0000 </r>
       <r>  -10.5621    1.0000 </r>
       <r>  -10.5089    1.0000 </r>
       <r>  -10.1819    1.0000 </r>
       <r>  -10.1475    1.0000 </r>
       <r>  -10.0554    1.0000 </r>
       <r>  -10.0339    1.0000 </r>
       <r>   -8.2772    1.0000 </r>
       <r>   -8.0349    1.0000 </r>
       <r>   -7.3161    1.0000 </r>
       <r>   -6.8016    1.0000 </r>
       <r>   -2.4205    1.0000 </r>
       <r>   -1.8924    1.0000 </r>
       <r>   -1.3761    1.0000 </r>
       <r>   -1.3317    1.0000 </r>
       <r>   -1.2397    1.0000 </r>
       <r>   -1.0687    1.0000 </r>
       <r>   -0.9222    1.0000 </r>
       <r>   -0.3615    1.0000 </r>
       <r>    0.0413    1.0000 </r>
       <r>    0.6572    1.0000 </r>
       <r>    1.0678    1.0000 </r>
       <r>    1.4537    1.0000 </r>
       <r>    1.6604    1.0000 </r>
       <r>    2.4785    1.0000 </r>
       <r>    2.9080    1.0000 </r>
       <r>    3.4150    1.0000 </r>
       <r>    3.8467    1.0000 </r>
       <r>    5.5824    0.0000 </r>
       <r>    6.2679    0.0000 </r>
       <r>    6.8967    0.0000 </r>
       <r>    8.5998    0.0000 </r>
       <r>    8.7429    0.0000 </r>
       <r>    9.5209    0.0000 </r>
       <r>    9.7583    0.0000 </r>
       <r>   10.4223    0.0000 </r>
       <r>   10.9531    0.0000 </r>
      </set>
      <set comment="kpoint 36">
       <r>  -11.1343    1.0000 </r>
       <r>  -10.8217    1.0000 </r>
       <r>  -10.6440    1.0000 </r>
       <r>  -10.6050    1.0000 </r>
       <r>  -10.5620    1.0000 </r>
       <r>  -10.5089    1.0000 </r>
       <r>  -10.1819    1.0000 </r>
       <r>  -10.1475    1.0000 </r>
       <r>  -10.0554    1.0000 </r>
       <r>  -10.0339    1.0000 </r>
       <r>   -8.2758    1.0000 </r>
       <r>   -8.0371    1.0000 </r>
       <r>   -7.3150    1.0000 </r>
       <r>   -6.8017    1.0000 </r>
       <r>   -2.4196    1.0000 </r>
       <r>   -1.8968    1.0000 </r>
       <r>   -1.3726    1.0000 </r>
       <r>   -1.3317    1.0000 </r>
       <r>   -1.2403    1.0000 </r>
       <r>   -1.0688    1.0000 </r>
       <r>   -0.9264    1.0000 </r>
       <r>   -0.3466    1.0000 </r>
       <r>    0.0159    1.0000 </r>
       <r>    0.7058    1.0000 </r>
       <r>    1.0688    1.0000 </r>
       <r>    1.4519    1.0000 </r>
       <r>    1.6066    1.0000 </r>
       <r>    2.4806    1.0000 </r>
       <r>    2.9112    1.0000 </r>
       <r>    3.4123    1.0000 </r>
       <r>    3.8756    1.0000 </r>
       <r>    5.6273    0.0000 </r>
       <r>    6.2223    0.0000 </r>
       <r>    6.8452    0.0000 </r>
       <r>    8.6026    0.0000 </r>
       <r>    8.8204    0.0000 </r>
       <r>    9.4876    0.0000 </r>
       <r>    9.7636    0.0000 </r>
       <r>   10.4344    0.0000 </r>
       <r>   10.9430    0.0000 </r>
      </set>
      <set comment="kpoint 37">
       <r>  -11.1152    1.0000 </r>
       <r>  -10.8142    1.0000 </r>
       <r>  -10.6474    1.0000 </r>
       <r>  -10.5972    1.0000 </r>
       <r>  -10.5507    1.0000 </r>
       <r>  -10.5147    1.0000 </r>
       <r>  -10.1831    1.0000 </r>
       <r>  -10.1444    1.0000 </r>
       <r>  -10.0638    1.0000 </r>
       <r>  -10.0414    1.0000 </r>
       <r>   -8.4405    1.0000 </r>
       <r>   -8.1474    1.0000 </r>
       <r>   -7.3648    1.0000 </r>
       <r>   -6.8528    1.0000 </r>
       <r>   -2.2552    1.0000 </r>
       <r>   -1.7169    1.0000 </r>
       <r>   -1.3776    1.0000 </r>
       <r>   -1.3479    1.0000 </r>
       <r>   -1.2229    1.0000 </r>
       <r>   -1.0761    1.0000 </r>
       <r>   -1.0350    1.0000 </r>
       <r>   -0.1508    1.0000 </r>
       <r>    0.2133    1.0000 </r>
       <r>    0.7571    1.0000 </r>
       <r>    1.1491    1.0000 </r>
       <r>    1.5306    1.0000 </r>
       <r>    1.6347    1.0000 </r>
       <r>    2.5085    1.0000 </r>
       <r>    2.9554    1.0000 </r>
       <r>    3.4805    1.0000 </r>
       <r>    3.9244    1.0000 </r>
       <r>    5.7809    0.0000 </r>
       <r>    6.2082    0.0000 </r>
       <r>    6.9380    0.0000 </r>
       <r>    8.6582    0.0000 </r>
       <r>    8.9175    0.0000 </r>
       <r>    9.5994    0.0000 </r>
       <r>    9.7851    0.0000 </r>
       <r>   10.5145    0.0000 </r>
       <r>   10.9907    0.0000 </r>
      </set>
      <set comment="kpoint 38">
       <r>  -11.0791    1.0000 </r>
       <r>  -10.8039    1.0000 </r>
       <r>  -10.6550    1.0000 </r>
       <r>  -10.5865    1.0000 </r>
       <r>  -10.5236    1.0000 </r>
       <r>  -10.5198    1.0000 </r>
       <r>  -10.1865    1.0000 </r>
       <r>  -10.1393    1.0000 </r>
       <r>  -10.0795    1.0000 </r>
       <r>  -10.0538    1.0000 </r>
       <r>   -8.6950    1.0000 </r>
       <r>   -8.3439    1.0000 </r>
       <r>   -7.4748    1.0000 </r>
       <r>   -6.9464    1.0000 </r>
       <r>   -2.0420    1.0000 </r>
       <r>   -1.5067    1.0000 </r>
       <r>   -1.3796    1.0000 </r>
       <r>   -1.3418    1.0000 </r>
       <r>   -1.1856    1.0000 </r>
       <r>   -1.0859    1.0000 </r>
       <r>   -1.0020    1.0000 </r>
       <r>    0.0874    1.0000 </r>
       <r>    0.4742    1.0000 </r>
       <r>    0.9934    1.0000 </r>
       <r>    1.3001    1.0000 </r>
       <r>    1.6827    1.0000 </r>
       <r>    1.7103    1.0000 </r>
       <r>    2.5949    1.0000 </r>
       <r>    3.0212    1.0000 </r>
       <r>    3.6216    1.0000 </r>
       <r>    3.9753    1.0000 </r>
       <r>    5.9680    0.0000 </r>
       <r>    6.2722    0.0000 </r>
       <r>    7.1619    0.0000 </r>
       <r>    8.7069    0.0000 </r>
       <r>    9.0354    0.0000 </r>
       <r>    9.7949    0.0000 </r>
       <r>    9.7992    0.0000 </r>
       <r>   10.5790    0.0000 </r>
       <r>   10.9304    0.0000 </r>
      </set>
      <set comment="kpoint 39">
       <r>  -11.0310    1.0000 </r>
       <r>  -10.7946    1.0000 </r>
       <r>  -10.6672    1.0000 </r>
       <r>  -10.5765    1.0000 </r>
       <r>  -10.5323    1.0000 </r>
       <r>  -10.4645    1.0000 </r>
       <r>  -10.1937    1.0000 </r>
       <r>  -10.1367    1.0000 </r>
       <r>  -10.0975    1.0000 </r>
       <r>  -10.0666    1.0000 </r>
       <r>   -8.9743    1.0000 </r>
       <r>   -8.5736    1.0000 </r>
       <r>   -7.6351    1.0000 </r>
       <r>   -7.0654    1.0000 </r>
       <r>   -1.9223    1.0000 </r>
       <r>   -1.5036    1.0000 </r>
       <r>   -1.4223    1.0000 </r>
       <r>   -1.2598    1.0000 </r>
       <r>   -1.1545    1.0000 </r>
       <r>   -1.0934    1.0000 </r>
       <r>   -0.6106    1.0000 </r>
       <r>    0.4003    1.0000 </r>
       <r>    0.7473    1.0000 </r>
       <r>    1.3730    1.0000 </r>
       <r>    1.5041    1.0000 </r>
       <r>    1.8942    1.0000 </r>
       <r>    1.8960    1.0000 </r>
       <r>    2.7624    1.0000 </r>
       <r>    3.0847    1.0000 </r>
       <r>    3.8267    1.0000 </r>
       <r>    4.0205    1.0000 </r>
       <r>    6.0368    0.0000 </r>
       <r>    6.4835    0.0000 </r>
       <r>    7.4829    0.0000 </r>
       <r>    8.6413    0.0000 </r>
       <r>    9.1159    0.0000 </r>
       <r>    9.7415    0.0000 </r>
       <r>    9.8560    0.0000 </r>
       <r>   10.4180    0.0000 </r>
       <r>   10.9091    0.0000 </r>
      </set>
      <set comment="kpoint 40">
       <r>  -10.9810    1.0000 </r>
       <r>  -10.7823    1.0000 </r>
       <r>  -10.6828    1.0000 </r>
       <r>  -10.5665    1.0000 </r>
       <r>  -10.5383    1.0000 </r>
       <r>  -10.3921    1.0000 </r>
       <r>  -10.2048    1.0000 </r>
       <r>  -10.1498    1.0000 </r>
       <r>  -10.1033    1.0000 </r>
       <r>  -10.0761    1.0000 </r>
       <r>   -9.2374    1.0000 </r>
       <r>   -8.7879    1.0000 </r>
       <r>   -7.8155    1.0000 </r>
       <r>   -7.1886    1.0000 </r>
       <r>   -1.9158    1.0000 </r>
       <r>   -1.5282    1.0000 </r>
       <r>   -1.4680    1.0000 </r>
       <r>   -1.2346    1.0000 </r>
       <r>   -1.1307    1.0000 </r>
       <r>   -1.0972    1.0000 </r>
       <r>   -0.1332    1.0000 </r>
       <r>    0.8350    1.0000 </r>
       <r>    1.0810    1.0000 </r>
       <r>    1.7258    1.0000 </r>
       <r>    1.7334    1.0000 </r>
       <r>    2.1439    1.0000 </r>
       <r>    2.2123    1.0000 </r>
       <r>    3.0999    1.0000 </r>
       <r>    3.1265    1.0000 </r>
       <r>    4.0396    1.0000 </r>
       <r>    4.0669    1.0000 </r>
       <r>    5.9324    0.0000 </r>
       <r>    6.7251    0.0000 </r>
       <r>    7.8227    0.0000 </r>
       <r>    8.4462    0.0000 </r>
       <r>    8.9452    0.0000 </r>
       <r>    9.4586    0.0000 </r>
       <r>    9.5847    0.0000 </r>
       <r>   10.2623    0.0000 </r>
       <r>   10.4958    0.0000 </r>
      </set>
      <set comment="kpoint 41">
       <r>  -10.9439    1.0000 </r>
       <r>  -10.7586    1.0000 </r>
       <r>  -10.6982    1.0000 </r>
       <r>  -10.5564    1.0000 </r>
       <r>  -10.5416    1.0000 </r>
       <r>  -10.3175    1.0000 </r>
       <r>  -10.2173    1.0000 </r>
       <r>  -10.1759    1.0000 </r>
       <r>  -10.0968    1.0000 </r>
       <r>  -10.0813    1.0000 </r>
       <r>   -9.4563    1.0000 </r>
       <r>   -8.9552    1.0000 </r>
       <r>   -7.9807    1.0000 </r>
       <r>   -7.2941    1.0000 </r>
       <r>   -1.9598    1.0000 </r>
       <r>   -1.5405    1.0000 </r>
       <r>   -1.5079    1.0000 </r>
       <r>   -1.2367    1.0000 </r>
       <r>   -1.1145    1.0000 </r>
       <r>   -1.0983    1.0000 </r>
       <r>    0.1477    1.0000 </r>
       <r>    1.3236    1.0000 </r>
       <r>    1.5194    1.0000 </r>
       <r>    1.9491    1.0000 </r>
       <r>    2.0534    1.0000 </r>
       <r>    2.4031    1.0000 </r>
       <r>    2.5780    1.0000 </r>
       <r>    3.1305    1.0000 </r>
       <r>    3.6161    1.0000 </r>
       <r>    4.0120    1.0000 </r>
       <r>    4.2980    1.0000 </r>
       <r>    5.6663    0.0000 </r>
       <r>    6.7212    0.0000 </r>
       <r>    7.8782    0.0000 </r>
       <r>    8.3691    0.0000 </r>
       <r>    8.5801    0.0000 </r>
       <r>    9.1661    0.0000 </r>
       <r>    9.3598    0.0000 </r>
       <r>    9.8995    0.0000 </r>
       <r>   10.0844    0.0000 </r>
      </set>
      <set comment="kpoint 42">
       <r>  -10.9267    1.0000 </r>
       <r>  -10.7280    1.0000 </r>
       <r>  -10.7094    1.0000 </r>
       <r>  -10.5473    1.0000 </r>
       <r>  -10.5429    1.0000 </r>
       <r>  -10.2587    1.0000 </r>
       <r>  -10.2271    1.0000 </r>
       <r>  -10.2009    1.0000 </r>
       <r>  -10.0882    1.0000 </r>
       <r>  -10.0835    1.0000 </r>
       <r>   -9.6062    1.0000 </r>
       <r>   -9.0594    1.0000 </r>
       <r>   -8.0975    1.0000 </r>
       <r>   -7.3647    1.0000 </r>
       <r>   -2.0038    1.0000 </r>
       <r>   -1.5438    1.0000 </r>
       <r>   -1.5346    1.0000 </r>
       <r>   -1.2464    1.0000 </r>
       <r>   -1.1027    1.0000 </r>
       <r>   -1.0983    1.0000 </r>
       <r>    0.2369    1.0000 </r>
       <r>    1.6385    1.0000 </r>
       <r>    1.9361    1.0000 </r>
       <r>    2.1055    1.0000 </r>
       <r>    2.4824    1.0000 </r>
       <r>    2.6324    1.0000 </r>
       <r>    2.9116    1.0000 </r>
       <r>    3.0877    1.0000 </r>
       <r>    3.8000    1.0000 </r>
       <r>    4.2511    1.0000 </r>
       <r>    4.4680    1.0000 </r>
       <r>    5.3157    0.0000 </r>
       <r>    6.4703    0.0000 </r>
       <r>    7.4868    0.0000 </r>
       <r>    8.0818    0.0000 </r>
       <r>    8.7661    0.0000 </r>
       <r>    9.1673    0.0000 </r>
       <r>    9.2122    0.0000 </r>
       <r>    9.6591    0.0000 </r>
       <r>    9.7831    0.0000 </r>
      </set>
      <set comment="kpoint 43">
       <r>  -10.9374    1.0000 </r>
       <r>  -10.7503    1.0000 </r>
       <r>  -10.7019    1.0000 </r>
       <r>  -10.5536    1.0000 </r>
       <r>  -10.5422    1.0000 </r>
       <r>  -10.2971    1.0000 </r>
       <r>  -10.2252    1.0000 </r>
       <r>  -10.1807    1.0000 </r>
       <r>  -10.0944    1.0000 </r>
       <r>  -10.0822    1.0000 </r>
       <r>   -9.5044    1.0000 </r>
       <r>   -8.9892    1.0000 </r>
       <r>   -8.0184    1.0000 </r>
       <r>   -7.3168    1.0000 </r>
       <r>   -1.9733    1.0000 </r>
       <r>   -1.5421    1.0000 </r>
       <r>   -1.5165    1.0000 </r>
       <r>   -1.2375    1.0000 </r>
       <r>   -1.1109    1.0000 </r>
       <r>   -1.0985    1.0000 </r>
       <r>    0.1795    1.0000 </r>
       <r>    1.4192    1.0000 </r>
       <r>    1.7050    1.0000 </r>
       <r>    1.9883    1.0000 </r>
       <r>    2.1955    1.0000 </r>
       <r>    2.2983    1.0000 </r>
       <r>    2.8848    1.0000 </r>
       <r>    2.9915    1.0000 </r>
       <r>    3.7363    1.0000 </r>
       <r>    4.0473    1.0000 </r>
       <r>    4.3388    1.0000 </r>
       <r>    5.5841    0.0000 </r>
       <r>    6.6653    0.0000 </r>
       <r>    7.8315    0.0000 </r>
       <r>    8.2559    0.0000 </r>
       <r>    8.6587    0.0000 </r>
       <r>    9.0490    0.0000 </r>
       <r>    9.3975    0.0000 </r>
       <r>    9.7228    0.0000 </r>
       <r>   10.0176    0.0000 </r>
      </set>
      <set comment="kpoint 44">
       <r>  -10.9652    1.0000 </r>
       <r>  -10.7755    1.0000 </r>
       <r>  -10.6889    1.0000 </r>
       <r>  -10.5623    1.0000 </r>
       <r>  -10.5404    1.0000 </r>
       <r>  -10.3598    1.0000 </r>
       <r>  -10.2204    1.0000 </r>
       <r>  -10.1533    1.0000 </r>
       <r>  -10.1021    1.0000 </r>
       <r>  -10.0785    1.0000 </r>
       <r>   -9.3212    1.0000 </r>
       <r>   -8.8509    1.0000 </r>
       <r>   -7.8796    1.0000 </r>
       <r>   -7.2280    1.0000 </r>
       <r>   -1.9296    1.0000 </r>
       <r>   -1.5342    1.0000 </r>
       <r>   -1.4831    1.0000 </r>
       <r>   -1.2234    1.0000 </r>
       <r>   -1.1251    1.0000 </r>
       <r>   -1.0981    1.0000 </r>
       <r>   -0.0153    1.0000 </r>
       <r>    0.9196    1.0000 </r>
       <r>    1.5106    1.0000 </r>
       <r>    1.6976    1.0000 </r>
       <r>    1.8336    1.0000 </r>
       <r>    2.0005    1.0000 </r>
       <r>    2.5781    1.0000 </r>
       <r>    2.9737    1.0000 </r>
       <r>    3.3031    1.0000 </r>
       <r>    4.0541    1.0000 </r>
       <r>    4.1309    1.0000 </r>
       <r>    5.9045    0.0000 </r>
       <r>    6.7999    0.0000 </r>
       <r>    7.9829    0.0000 </r>
       <r>    8.4426    0.0000 </r>
       <r>    8.8290    0.0000 </r>
       <r>    9.0840    0.0000 </r>
       <r>    9.6555    0.0000 </r>
       <r>    9.9247    0.0000 </r>
       <r>   10.4320    0.0000 </r>
      </set>
      <set comment="kpoint 45">
       <r>  -11.0097    1.0000 </r>
       <r>  -10.7904    1.0000 </r>
       <r>  -10.6741    1.0000 </r>
       <r>  -10.5713    1.0000 </r>
       <r>  -10.5364    1.0000 </r>
       <r>  -10.4306    1.0000 </r>
       <r>  -10.2122    1.0000 </r>
       <r>  -10.1330    1.0000 </r>
       <r>  -10.1044    1.0000 </r>
       <r>  -10.0704    1.0000 </r>
       <r>   -9.0808    1.0000 </r>
       <r>   -8.6554    1.0000 </r>
       <r>   -7.7106    1.0000 </r>
       <r>   -7.1124    1.0000 </r>
       <r>   -1.9103    1.0000 </r>
       <r>   -1.5130    1.0000 </r>
       <r>   -1.4402    1.0000 </r>
       <r>   -1.2205    1.0000 </r>
       <r>   -1.1441    1.0000 </r>
       <r>   -1.0955    1.0000 </r>
       <r>   -0.4095    1.0000 </r>
       <r>    0.4362    1.0000 </r>
       <r>    1.1164    1.0000 </r>
       <r>    1.4134    1.0000 </r>
       <r>    1.6294    1.0000 </r>
       <r>    1.7392    1.0000 </r>
       <r>    2.2095    1.0000 </r>
       <r>    2.8080    1.0000 </r>
       <r>    3.0419    1.0000 </r>
       <r>    3.8355    1.0000 </r>
       <r>    4.0725    1.0000 </r>
       <r>    6.1064    0.0000 </r>
       <r>    6.6810    0.0000 </r>
       <r>    7.7576    0.0000 </r>
       <r>    8.7140    0.0000 </r>
       <r>    9.0738    0.0000 </r>
       <r>    9.3186    0.0000 </r>
       <r>    9.9308    0.0000 </r>
       <r>   10.1798    0.0000 </r>
       <r>   10.6870    0.0000 </r>
      </set>
      <set comment="kpoint 46">
       <r>  -11.0586    1.0000 </r>
       <r>  -10.7989    1.0000 </r>
       <r>  -10.6611    1.0000 </r>
       <r>  -10.5802    1.0000 </r>
       <r>  -10.5299    1.0000 </r>
       <r>  -10.4926    1.0000 </r>
       <r>  -10.2047    1.0000 </r>
       <r>  -10.1321    1.0000 </r>
       <r>  -10.0911    1.0000 </r>
       <r>  -10.0583    1.0000 </r>
       <r>   -8.8078    1.0000 </r>
       <r>   -8.4275    1.0000 </r>
       <r>   -7.5443    1.0000 </r>
       <r>   -6.9905    1.0000 </r>
       <r>   -1.9720    1.0000 </r>
       <r>   -1.4739    1.0000 </r>
       <r>   -1.3962    1.0000 </r>
       <r>   -1.2826    1.0000 </r>
       <r>   -1.1659    1.0000 </r>
       <r>   -1.0889    1.0000 </r>
       <r>   -0.8595    1.0000 </r>
       <r>    0.0906    1.0000 </r>
       <r>    0.7366    1.0000 </r>
       <r>    1.0996    1.0000 </r>
       <r>    1.3280    1.0000 </r>
       <r>    1.5690    1.0000 </r>
       <r>    1.9977    1.0000 </r>
       <r>    2.5682    1.0000 </r>
       <r>    2.9780    1.0000 </r>
       <r>    3.5940    1.0000 </r>
       <r>    4.0036    1.0000 </r>
       <r>    6.0672    0.0000 </r>
       <r>    6.5237    0.0000 </r>
       <r>    7.5136    0.0000 </r>
       <r>    8.7596    0.0000 </r>
       <r>    9.1180    0.0000 </r>
       <r>    9.5078    0.0000 </r>
       <r>   10.0099    0.0000 </r>
       <r>   10.4484    0.0000 </r>
       <r>   10.8066    0.0000 </r>
      </set>
      <set comment="kpoint 47">
       <r>  -11.0999    1.0000 </r>
       <r>  -10.8076    1.0000 </r>
       <r>  -10.6521    1.0000 </r>
       <r>  -10.5894    1.0000 </r>
       <r>  -10.5366    1.0000 </r>
       <r>  -10.5197    1.0000 </r>
       <r>  -10.2000    1.0000 </r>
       <r>  -10.1379    1.0000 </r>
       <r>  -10.0738    1.0000 </r>
       <r>  -10.0465    1.0000 </r>
       <r>   -8.5348    1.0000 </r>
       <r>   -8.2088    1.0000 </r>
       <r>   -7.4129    1.0000 </r>
       <r>   -6.8849    1.0000 </r>
       <r>   -2.1440    1.0000 </r>
       <r>   -1.5467    1.0000 </r>
       <r>   -1.4121    1.0000 </r>
       <r>   -1.3593    1.0000 </r>
       <r>   -1.1957    1.0000 </r>
       <r>   -1.0849    1.0000 </r>
       <r>   -1.0319    1.0000 </r>
       <r>   -0.1168    1.0000 </r>
       <r>    0.4419    1.0000 </r>
       <r>    0.7270    1.0000 </r>
       <r>    1.1158    1.0000 </r>
       <r>    1.4225    1.0000 </r>
       <r>    1.9019    1.0000 </r>
       <r>    2.4443    1.0000 </r>
       <r>    2.9266    1.0000 </r>
       <r>    3.4052    1.0000 </r>
       <r>    3.9258    1.0000 </r>
       <r>    5.8734    0.0000 </r>
       <r>    6.4498    0.0000 </r>
       <r>    7.2816    0.0000 </r>
       <r>    8.7455    0.0000 </r>
       <r>    8.9890    0.0000 </r>
       <r>    9.5567    0.0000 </r>
       <r>    9.8506    0.0000 </r>
       <r>   10.5727    0.0000 </r>
       <r>   11.0996    0.0000 </r>
      </set>
      <set comment="kpoint 48">
       <r>  -11.1269    1.0000 </r>
       <r>  -10.8160    1.0000 </r>
       <r>  -10.6473    1.0000 </r>
       <r>  -10.5984    1.0000 </r>
       <r>  -10.5557    1.0000 </r>
       <r>  -10.5134    1.0000 </r>
       <r>  -10.1978    1.0000 </r>
       <r>  -10.1426    1.0000 </r>
       <r>  -10.0602    1.0000 </r>
       <r>  -10.0391    1.0000 </r>
       <r>   -8.3130    1.0000 </r>
       <r>   -8.0543    1.0000 </r>
       <r>   -7.3368    1.0000 </r>
       <r>   -6.8141    1.0000 </r>
       <r>   -2.3408    1.0000 </r>
       <r>   -1.8106    1.0000 </r>
       <r>   -1.3784    1.0000 </r>
       <r>   -1.3371    1.0000 </r>
       <r>   -1.2276    1.0000 </r>
       <r>   -1.0779    1.0000 </r>
       <r>   -0.9634    1.0000 </r>
       <r>   -0.2777    1.0000 </r>
       <r>    0.1426    1.0000 </r>
       <r>    0.6105    1.0000 </r>
       <r>    0.9840    1.0000 </r>
       <r>    1.3391    1.0000 </r>
       <r>    1.7866    1.0000 </r>
       <r>    2.4067    1.0000 </r>
       <r>    2.8919    1.0000 </r>
       <r>    3.2877    1.0000 </r>
       <r>    3.8812    1.0000 </r>
       <r>    5.7306    0.0000 </r>
       <r>    6.3912    0.0000 </r>
       <r>    7.0882    0.0000 </r>
       <r>    8.7548    0.0000 </r>
       <r>    8.8873    0.0000 </r>
       <r>    9.5498    0.0000 </r>
       <r>    9.6710    0.0000 </r>
       <r>   10.5414    0.0000 </r>
       <r>   11.0210    0.0000 </r>
      </set>
      <set comment="kpoint 49">
       <r>  -11.1362    1.0000 </r>
       <r>  -10.8197    1.0000 </r>
       <r>  -10.6458    1.0000 </r>
       <r>  -10.6024    1.0000 </r>
       <r>  -10.5607    1.0000 </r>
       <r>  -10.5107    1.0000 </r>
       <r>  -10.1973    1.0000 </r>
       <r>  -10.1443    1.0000 </r>
       <r>  -10.0548    1.0000 </r>
       <r>  -10.0369    1.0000 </r>
       <r>   -8.2200    1.0000 </r>
       <r>   -8.0036    1.0000 </r>
       <r>   -7.3138    1.0000 </r>
       <r>   -6.7891    1.0000 </r>
       <r>   -2.4253    1.0000 </r>
       <r>   -1.9124    1.0000 </r>
       <r>   -1.3670    1.0000 </r>
       <r>   -1.3286    1.0000 </r>
       <r>   -1.2382    1.0000 </r>
       <r>   -1.0729    1.0000 </r>
       <r>   -0.8897    1.0000 </r>
       <r>   -0.3715    1.0000 </r>
       <r>    0.0067    1.0000 </r>
       <r>    0.6221    1.0000 </r>
       <r>    0.9394    1.0000 </r>
       <r>    1.3509    1.0000 </r>
       <r>    1.6658    1.0000 </r>
       <r>    2.4118    1.0000 </r>
       <r>    2.8745    1.0000 </r>
       <r>    3.2473    1.0000 </r>
       <r>    3.8874    1.0000 </r>
       <r>    5.7100    0.0000 </r>
       <r>    6.3378    0.0000 </r>
       <r>    6.9834    0.0000 </r>
       <r>    8.7749    0.0000 </r>
       <r>    8.8900    0.0000 </r>
       <r>    9.4947    0.0000 </r>
       <r>    9.6337    0.0000 </r>
       <r>   10.5040    0.0000 </r>
       <r>   10.9653    0.0000 </r>
      </set>
      <set comment="kpoint 50">
       <r>  -11.1269    1.0000 </r>
       <r>  -10.8160    1.0000 </r>
       <r>  -10.6473    1.0000 </r>
       <r>  -10.5985    1.0000 </r>
       <r>  -10.5557    1.0000 </r>
       <r>  -10.5134    1.0000 </r>
       <r>  -10.1978    1.0000 </r>
       <r>  -10.1426    1.0000 </r>
       <r>  -10.0602    1.0000 </r>
       <r>  -10.0391    1.0000 </r>
       <r>   -8.3106    1.0000 </r>
       <r>   -8.0583    1.0000 </r>
       <r>   -7.3346    1.0000 </r>
       <r>   -6.8145    1.0000 </r>
       <r>   -2.3385    1.0000 </r>
       <r>   -1.8210    1.0000 </r>
       <r>   -1.3704    1.0000 </r>
       <r>   -1.3341    1.0000 </r>
       <r>   -1.2307    1.0000 </r>
       <r>   -1.0787    1.0000 </r>
       <r>   -0.9729    1.0000 </r>
       <r>   -0.2466    1.0000 </r>
       <r>    0.1130    1.0000 </r>
       <r>    0.6367    1.0000 </r>
       <r>    0.9832    1.0000 </r>
       <r>    1.4256    1.0000 </r>
       <r>    1.6287    1.0000 </r>
       <r>    2.4548    1.0000 </r>
       <r>    2.8715    1.0000 </r>
       <r>    3.2841    1.0000 </r>
       <r>    3.9293    1.0000 </r>
       <r>    5.8103    0.0000 </r>
       <r>    6.3008    0.0000 </r>
       <r>    7.0106    0.0000 </r>
       <r>    8.7987    0.0000 </r>
       <r>    8.9754    0.0000 </r>
       <r>    9.5170    0.0000 </r>
       <r>    9.6775    0.0000 </r>
       <r>   10.5223    0.0000 </r>
       <r>   10.9857    0.0000 </r>
      </set>
      <set comment="kpoint 51">
       <r>  -11.0999    1.0000 </r>
       <r>  -10.8076    1.0000 </r>
       <r>  -10.6521    1.0000 </r>
       <r>  -10.5894    1.0000 </r>
       <r>  -10.5365    1.0000 </r>
       <r>  -10.5197    1.0000 </r>
       <r>  -10.2000    1.0000 </r>
       <r>  -10.1379    1.0000 </r>
       <r>  -10.0738    1.0000 </r>
       <r>  -10.0465    1.0000 </r>
       <r>   -8.5316    1.0000 </r>
       <r>   -8.2145    1.0000 </r>
       <r>   -7.4082    1.0000 </r>
       <r>   -6.8868    1.0000 </r>
       <r>   -2.1388    1.0000 </r>
       <r>   -1.5882    1.0000 </r>
       <r>   -1.3776    1.0000 </r>
       <r>   -1.3501    1.0000 </r>
       <r>   -1.2034    1.0000 </r>
       <r>   -1.0882    1.0000 </r>
       <r>   -1.0466    1.0000 </r>
       <r>   -0.0293    1.0000 </r>
       <r>    0.3571    1.0000 </r>
       <r>    0.7523    1.0000 </r>
       <r>    1.1086    1.0000 </r>
       <r>    1.5240    1.0000 </r>
       <r>    1.7087    1.0000 </r>
       <r>    2.5432    1.0000 </r>
       <r>    2.8951    1.0000 </r>
       <r>    3.3961    1.0000 </r>
       <r>    3.9818    1.0000 </r>
       <r>    5.9847    0.0000 </r>
       <r>    6.3139    0.0000 </r>
       <r>    7.1726    0.0000 </r>
       <r>    8.8264    0.0000 </r>
       <r>    9.1041    0.0000 </r>
       <r>    9.5933    0.0000 </r>
       <r>    9.7798    0.0000 </r>
       <r>   10.5642    0.0000 </r>
       <r>   10.9745    0.0000 </r>
      </set>
      <set comment="kpoint 52">
       <r>  -11.0586    1.0000 </r>
       <r>  -10.7990    1.0000 </r>
       <r>  -10.6611    1.0000 </r>
       <r>  -10.5802    1.0000 </r>
       <r>  -10.5299    1.0000 </r>
       <r>  -10.4925    1.0000 </r>
       <r>  -10.2047    1.0000 </r>
       <r>  -10.1321    1.0000 </r>
       <r>  -10.0911    1.0000 </r>
       <r>  -10.0583    1.0000 </r>
       <r>   -8.8051    1.0000 </r>
       <r>   -8.4327    1.0000 </r>
       <r>   -7.5393    1.0000 </r>
       <r>   -6.9930    1.0000 </r>
       <r>   -1.9658    1.0000 </r>
       <r>   -1.4880    1.0000 </r>
       <r>   -1.3967    1.0000 </r>
       <r>   -1.2923    1.0000 </r>
       <r>   -1.1687    1.0000 </r>
       <r>   -1.0895    1.0000 </r>
       <r>   -0.8525    1.0000 </r>
       <r>    0.2280    1.0000 </r>
       <r>    0.5915    1.0000 </r>
       <r>    1.0875    1.0000 </r>
       <r>    1.3119    1.0000 </r>
       <r>    1.6178    1.0000 </r>
       <r>    1.9358    1.0000 </r>
       <r>    2.6703    1.0000 </r>
       <r>    2.9451    1.0000 </r>
       <r>    3.5798    1.0000 </r>
       <r>    4.0333    1.0000 </r>
       <r>    6.1105    0.0000 </r>
       <r>    6.4453    0.0000 </r>
       <r>    7.4448    0.0000 </r>
       <r>    8.7988    0.0000 </r>
       <r>    9.2097    0.0000 </r>
       <r>    9.5902    0.0000 </r>
       <r>    9.9324    0.0000 </r>
       <r>   10.4320    0.0000 </r>
       <r>   10.8087    0.0000 </r>
      </set>
      <set comment="kpoint 53">
       <r>  -11.0097    1.0000 </r>
       <r>  -10.7904    1.0000 </r>
       <r>  -10.6741    1.0000 </r>
       <r>  -10.5713    1.0000 </r>
       <r>  -10.5364    1.0000 </r>
       <r>  -10.4306    1.0000 </r>
       <r>  -10.2122    1.0000 </r>
       <r>  -10.1330    1.0000 </r>
       <r>  -10.1044    1.0000 </r>
       <r>  -10.0704    1.0000 </r>
       <r>   -9.0791    1.0000 </r>
       <r>   -8.6587    1.0000 </r>
       <r>   -7.7073    1.0000 </r>
       <r>   -7.1142    1.0000 </r>
       <r>   -1.9066    1.0000 </r>
       <r>   -1.5136    1.0000 </r>
       <r>   -1.4402    1.0000 </r>
       <r>   -1.2409    1.0000 </r>
       <r>   -1.1425    1.0000 </r>
       <r>   -1.0957    1.0000 </r>
       <r>   -0.3921    1.0000 </r>
       <r>    0.5782    1.0000 </r>
       <r>    0.8878    1.0000 </r>
       <r>    1.4323    1.0000 </r>
       <r>    1.6151    1.0000 </r>
       <r>    1.7519    1.0000 </r>
       <r>    2.2768    1.0000 </r>
       <r>    2.8574    1.0000 </r>
       <r>    3.0197    1.0000 </r>
       <r>    3.8176    1.0000 </r>
       <r>    4.0741    1.0000 </r>
       <r>    6.0767    0.0000 </r>
       <r>    6.6829    0.0000 </r>
       <r>    7.7805    0.0000 </r>
       <r>    8.6307    0.0000 </r>
       <r>    9.0799    0.0000 </r>
       <r>    9.4598    0.0000 </r>
       <r>    9.8772    0.0000 </r>
       <r>   10.1781    0.0000 </r>
       <r>   10.7259    0.0000 </r>
      </set>
      <set comment="kpoint 54">
       <r>  -10.9652    1.0000 </r>
       <r>  -10.7755    1.0000 </r>
       <r>  -10.6889    1.0000 </r>
       <r>  -10.5623    1.0000 </r>
       <r>  -10.5404    1.0000 </r>
       <r>  -10.3598    1.0000 </r>
       <r>  -10.2204    1.0000 </r>
       <r>  -10.1533    1.0000 </r>
       <r>  -10.1021    1.0000 </r>
       <r>  -10.0785    1.0000 </r>
       <r>   -9.3205    1.0000 </r>
       <r>   -8.8522    1.0000 </r>
       <r>   -7.8784    1.0000 </r>
       <r>   -7.2287    1.0000 </r>
       <r>   -1.9285    1.0000 </r>
       <r>   -1.5340    1.0000 </r>
       <r>   -1.4831    1.0000 </r>
       <r>   -1.2303    1.0000 </r>
       <r>   -1.1242    1.0000 </r>
       <r>   -1.0982    1.0000 </r>
       <r>   -0.0018    1.0000 </r>
       <r>    0.9994    1.0000 </r>
       <r>    1.2991    1.0000 </r>
       <r>    1.7587    1.0000 </r>
       <r>    1.8937    1.0000 </r>
       <r>    1.9713    1.0000 </r>
       <r>    2.6304    1.0000 </r>
       <r>    2.9694    1.0000 </r>
       <r>    3.3141    1.0000 </r>
       <r>    4.0238    1.0000 </r>
       <r>    4.1342    1.0000 </r>
       <r>    5.8869    0.0000 </r>
       <r>    6.8120    0.0000 </r>
       <r>    8.0301    0.0000 </r>
       <r>    8.4418    0.0000 </r>
       <r>    8.7016    0.0000 </r>
       <r>    9.1635    0.0000 </r>
       <r>    9.6283    0.0000 </r>
       <r>    9.9635    0.0000 </r>
       <r>   10.4631    0.0000 </r>
      </set>
      <set comment="kpoint 55">
       <r>  -11.0015    1.0000 </r>
       <r>  -10.7887    1.0000 </r>
       <r>  -10.6772    1.0000 </r>
       <r>  -10.5686    1.0000 </r>
       <r>  -10.5386    1.0000 </r>
       <r>  -10.4123    1.0000 </r>
       <r>  -10.2287    1.0000 </r>
       <r>  -10.1284    1.0000 </r>
       <r>  -10.1082    1.0000 </r>
       <r>  -10.0714    1.0000 </r>
       <r>   -9.1149    1.0000 </r>
       <r>   -8.6854    1.0000 </r>
       <r>   -7.7353    1.0000 </r>
       <r>   -7.1308    1.0000 </r>
       <r>   -1.9049    1.0000 </r>
       <r>   -1.5167    1.0000 </r>
       <r>   -1.4465    1.0000 </r>
       <r>   -1.2276    1.0000 </r>
       <r>   -1.1385    1.0000 </r>
       <r>   -1.0967    1.0000 </r>
       <r>   -0.3091    1.0000 </r>
       <r>    0.6051    1.0000 </r>
       <r>    1.0599    1.0000 </r>
       <r>    1.4126    1.0000 </r>
       <r>    1.5455    1.0000 </r>
       <r>    1.7595    1.0000 </r>
       <r>    2.5782    1.0000 </r>
       <r>    2.6558    1.0000 </r>
       <r>    3.0483    1.0000 </r>
       <r>    3.7625    1.0000 </r>
       <r>    4.1043    1.0000 </r>
       <r>    6.1298    0.0000 </r>
       <r>    6.8188    0.0000 </r>
       <r>    8.0438    0.0000 </r>
       <r>    8.7058    0.0000 </r>
       <r>    8.8404    0.0000 </r>
       <r>    9.3069    0.0000 </r>
       <r>    9.8383    0.0000 </r>
       <r>   10.1574    0.0000 </r>
       <r>   10.6950    0.0000 </r>
      </set>
      <set comment="kpoint 56">
       <r>  -11.0452    1.0000 </r>
       <r>  -10.7960    1.0000 </r>
       <r>  -10.6662    1.0000 </r>
       <r>  -10.5746    1.0000 </r>
       <r>  -10.5354    1.0000 </r>
       <r>  -10.4659    1.0000 </r>
       <r>  -10.2335    1.0000 </r>
       <r>  -10.1193    1.0000 </r>
       <r>  -10.1050    1.0000 </r>
       <r>  -10.0597    1.0000 </r>
       <r>   -8.8610    1.0000 </r>
       <r>   -8.4729    1.0000 </r>
       <r>   -7.5818    1.0000 </r>
       <r>   -7.0172    1.0000 </r>
       <r>   -1.9313    1.0000 </r>
       <r>   -1.4833    1.0000 </r>
       <r>   -1.4051    1.0000 </r>
       <r>   -1.2533    1.0000 </r>
       <r>   -1.1578    1.0000 </r>
       <r>   -1.0903    1.0000 </r>
       <r>   -0.7157    1.0000 </r>
       <r>    0.2560    1.0000 </r>
       <r>    0.7430    1.0000 </r>
       <r>    1.1065    1.0000 </r>
       <r>    1.2253    1.0000 </r>
       <r>    1.5699    1.0000 </r>
       <r>    2.2520    1.0000 </r>
       <r>    2.4992    1.0000 </r>
       <r>    2.9145    1.0000 </r>
       <r>    3.4384    1.0000 </r>
       <r>    4.0725    1.0000 </r>
       <r>    6.2603    0.0000 </r>
       <r>    6.7108    0.0000 </r>
       <r>    7.9000    0.0000 </r>
       <r>    8.8628    0.0000 </r>
       <r>    9.1562    0.0000 </r>
       <r>    9.4917    0.0000 </r>
       <r>    9.9087    0.0000 </r>
       <r>   10.4225    0.0000 </r>
       <r>   10.6778    0.0000 </r>
      </set>
      <set comment="kpoint 57">
       <r>  -11.0861    1.0000 </r>
       <r>  -10.8013    1.0000 </r>
       <r>  -10.6582    1.0000 </r>
       <r>  -10.5804    1.0000 </r>
       <r>  -10.5320    1.0000 </r>
       <r>  -10.5083    1.0000 </r>
       <r>  -10.2358    1.0000 </r>
       <r>  -10.1253    1.0000 </r>
       <r>  -10.0891    1.0000 </r>
       <r>  -10.0490    1.0000 </r>
       <r>   -8.5861    1.0000 </r>
       <r>   -8.2479    1.0000 </r>
       <r>   -7.4499    1.0000 </r>
       <r>   -6.9085    1.0000 </r>
       <r>   -2.0469    1.0000 </r>
       <r>   -1.4572    1.0000 </r>
       <r>   -1.3849    1.0000 </r>
       <r>   -1.3576    1.0000 </r>
       <r>   -1.1766    1.0000 </r>
       <r>   -1.0828    1.0000 </r>
       <r>   -1.0100    1.0000 </r>
       <r>    0.0128    1.0000 </r>
       <r>    0.4437    1.0000 </r>
       <r>    0.8036    1.0000 </r>
       <r>    0.9893    1.0000 </r>
       <r>    1.3332    1.0000 </r>
       <r>    2.0595    1.0000 </r>
       <r>    2.3209    1.0000 </r>
       <r>    2.8715    1.0000 </r>
       <r>    3.1728    1.0000 </r>
       <r>    4.0077    1.0000 </r>
       <r>    6.1995    0.0000 </r>
       <r>    6.6235    0.0000 </r>
       <r>    7.7006    0.0000 </r>
       <r>    8.9156    0.0000 </r>
       <r>    9.2621    0.0000 </r>
       <r>    9.5683    0.0000 </r>
       <r>   10.0029    0.0000 </r>
       <r>   10.5921    0.0000 </r>
       <r>   10.6895    0.0000 </r>
      </set>
      <set comment="kpoint 58">
       <r>  -11.1168    1.0000 </r>
       <r>  -10.8070    1.0000 </r>
       <r>  -10.6535    1.0000 </r>
       <r>  -10.5865    1.0000 </r>
       <r>  -10.5420    1.0000 </r>
       <r>  -10.5204    1.0000 </r>
       <r>  -10.2372    1.0000 </r>
       <r>  -10.1309    1.0000 </r>
       <r>  -10.0727    1.0000 </r>
       <r>  -10.0439    1.0000 </r>
       <r>   -8.3302    1.0000 </r>
       <r>   -8.0599    1.0000 </r>
       <r>   -7.3655    1.0000 </r>
       <r>   -6.8244    1.0000 </r>
       <r>   -2.2244    1.0000 </r>
       <r>   -1.6898    1.0000 </r>
       <r>   -1.3747    1.0000 </r>
       <r>   -1.3409    1.0000 </r>
       <r>   -1.2061    1.0000 </r>
       <r>   -1.0971    1.0000 </r>
       <r>   -0.9895    1.0000 </r>
       <r>   -0.1527    1.0000 </r>
       <r>    0.1835    1.0000 </r>
       <r>    0.5555    1.0000 </r>
       <r>    0.8366    1.0000 </r>
       <r>    1.1756    1.0000 </r>
       <r>    1.9130    1.0000 </r>
       <r>    2.2125    1.0000 </r>
       <r>    2.8615    1.0000 </r>
       <r>    2.9963    1.0000 </r>
       <r>    3.9451    1.0000 </r>
       <r>    6.0612    0.0000 </r>
       <r>    6.5819    0.0000 </r>
       <r>    7.5070    0.0000 </r>
       <r>    8.9129    0.0000 </r>
       <r>    9.3125    0.0000 </r>
       <r>    9.4484    0.0000 </r>
       <r>    9.9301    0.0000 </r>
       <r>   10.6192    0.0000 </r>
       <r>   10.9091    0.0000 </r>
      </set>
      <set comment="kpoint 59">
       <r>  -11.1331    1.0000 </r>
       <r>  -10.8111    1.0000 </r>
       <r>  -10.6514    1.0000 </r>
       <r>  -10.5915    1.0000 </r>
       <r>  -10.5519    1.0000 </r>
       <r>  -10.5182    1.0000 </r>
       <r>  -10.2379    1.0000 </r>
       <r>  -10.1341    1.0000 </r>
       <r>  -10.0592    1.0000 </r>
       <r>  -10.0455    1.0000 </r>
       <r>   -8.1574    1.0000 </r>
       <r>   -7.9614    1.0000 </r>
       <r>   -7.3319    1.0000 </r>
       <r>   -6.7787    1.0000 </r>
       <r>   -2.3571    1.0000 </r>
       <r>   -1.8705    1.0000 </r>
       <r>   -1.3559    1.0000 </r>
       <r>   -1.3276    1.0000 </r>
       <r>   -1.2248    1.0000 </r>
       <r>   -1.0876    1.0000 </r>
       <r>   -0.8853    1.0000 </r>
       <r>   -0.3014    1.0000 </r>
       <r>    0.0281    1.0000 </r>
       <r>    0.4283    1.0000 </r>
       <r>    0.7273    1.0000 </r>
       <r>    1.1993    1.0000 </r>
       <r>    1.7599    1.0000 </r>
       <r>    2.1700    1.0000 </r>
       <r>    2.8466    1.0000 </r>
       <r>    2.9267    1.0000 </r>
       <r>    3.9193    1.0000 </r>
       <r>    5.9894    0.0000 </r>
       <r>    6.5388    0.0000 </r>
       <r>    7.3755    0.0000 </r>
       <r>    8.9374    0.0000 </r>
       <r>    9.2848    0.0000 </r>
       <r>    9.4089    0.0000 </r>
       <r>    9.8293    0.0000 </r>
       <r>   10.5342    0.0000 </r>
       <r>   11.0408    0.0000 </r>
      </set>
      <set comment="kpoint 60">
       <r>  -11.1331    1.0000 </r>
       <r>  -10.8111    1.0000 </r>
       <r>  -10.6514    1.0000 </r>
       <r>  -10.5915    1.0000 </r>
       <r>  -10.5518    1.0000 </r>
       <r>  -10.5182    1.0000 </r>
       <r>  -10.2379    1.0000 </r>
       <r>  -10.1341    1.0000 </r>
       <r>  -10.0592    1.0000 </r>
       <r>  -10.0455    1.0000 </r>
       <r>   -8.1561    1.0000 </r>
       <r>   -7.9632    1.0000 </r>
       <r>   -7.3313    1.0000 </r>
       <r>   -6.7787    1.0000 </r>
       <r>   -2.3556    1.0000 </r>
       <r>   -1.8753    1.0000 </r>
       <r>   -1.3559    1.0000 </r>
       <r>   -1.3225    1.0000 </r>
       <r>   -1.2265    1.0000 </r>
       <r>   -1.0883    1.0000 </r>
       <r>   -0.8905    1.0000 </r>
       <r>   -0.2979    1.0000 </r>
       <r>    0.0618    1.0000 </r>
       <r>    0.3974    1.0000 </r>
       <r>    0.6869    1.0000 </r>
       <r>    1.3281    1.0000 </r>
       <r>    1.6300    1.0000 </r>
       <r>    2.2137    1.0000 </r>
       <r>    2.8172    1.0000 </r>
       <r>    2.9389    1.0000 </r>
       <r>    3.9406    1.0000 </r>
       <r>    6.0250    0.0000 </r>
       <r>    6.4943    0.0000 </r>
       <r>    7.3518    0.0000 </r>
       <r>    8.9643    0.0000 </r>
       <r>    9.2536    0.0000 </r>
       <r>    9.4808    0.0000 </r>
       <r>    9.7984    0.0000 </r>
       <r>   10.5086    0.0000 </r>
       <r>   11.0642    0.0000 </r>
      </set>
      <set comment="kpoint 61">
       <r>  -11.1168    1.0000 </r>
       <r>  -10.8070    1.0000 </r>
       <r>  -10.6535    1.0000 </r>
       <r>  -10.5866    1.0000 </r>
       <r>  -10.5419    1.0000 </r>
       <r>  -10.5204    1.0000 </r>
       <r>  -10.2372    1.0000 </r>
       <r>  -10.1309    1.0000 </r>
       <r>  -10.0727    1.0000 </r>
       <r>  -10.0439    1.0000 </r>
       <r>   -8.3278    1.0000 </r>
       <r>   -8.0639    1.0000 </r>
       <r>   -7.3630    1.0000 </r>
       <r>   -6.8251    1.0000 </r>
       <r>   -2.2205    1.0000 </r>
       <r>   -1.7078    1.0000 </r>
       <r>   -1.3673    1.0000 </r>
       <r>   -1.3270    1.0000 </r>
       <r>   -1.2112    1.0000 </r>
       <r>   -1.1021    1.0000 </r>
       <r>   -0.9992    1.0000 </r>
       <r>   -0.1246    1.0000 </r>
       <r>    0.2692    1.0000 </r>
       <r>    0.4448    1.0000 </r>
       <r>    0.7507    1.0000 </r>
       <r>    1.4424    1.0000 </r>
       <r>    1.6352    1.0000 </r>
       <r>    2.3422    1.0000 </r>
       <r>    2.7888    1.0000 </r>
       <r>    3.0171    1.0000 </r>
       <r>    3.9894    1.0000 </r>
       <r>    6.1467    0.0000 </r>
       <r>    6.4746    0.0000 </r>
       <r>    7.4475    0.0000 </r>
       <r>    8.9576    0.0000 </r>
       <r>    9.3309    0.0000 </r>
       <r>    9.5623    0.0000 </r>
       <r>    9.8394    0.0000 </r>
       <r>   10.5478    0.0000 </r>
       <r>   11.0377    0.0000 </r>
      </set>
      <set comment="kpoint 62">
       <r>  -11.0861    1.0000 </r>
       <r>  -10.8014    1.0000 </r>
       <r>  -10.6582    1.0000 </r>
       <r>  -10.5804    1.0000 </r>
       <r>  -10.5320    1.0000 </r>
       <r>  -10.5083    1.0000 </r>
       <r>  -10.2358    1.0000 </r>
       <r>  -10.1253    1.0000 </r>
       <r>  -10.0891    1.0000 </r>
       <r>  -10.0490    1.0000 </r>
       <r>   -8.5841    1.0000 </r>
       <r>   -8.2516    1.0000 </r>
       <r>   -7.4467    1.0000 </r>
       <r>   -6.9099    1.0000 </r>
       <r>   -2.0422    1.0000 </r>
       <r>   -1.4953    1.0000 </r>
       <r>   -1.3800    1.0000 </r>
       <r>   -1.3296    1.0000 </r>
       <r>   -1.1802    1.0000 </r>
       <r>   -1.0860    1.0000 </r>
       <r>   -1.0146    1.0000 </r>
       <r>    0.0851    1.0000 </r>
       <r>    0.4471    1.0000 </r>
       <r>    0.7052    1.0000 </r>
       <r>    0.9456    1.0000 </r>
       <r>    1.4860    1.0000 </r>
       <r>    1.8695    1.0000 </r>
       <r>    2.4976    1.0000 </r>
       <r>    2.7848    1.0000 </r>
       <r>    3.1793    1.0000 </r>
       <r>    4.0421    1.0000 </r>
       <r>    6.2656    0.0000 </r>
       <r>    6.5316    0.0000 </r>
       <r>    7.6449    0.0000 </r>
       <r>    8.9332    0.0000 </r>
       <r>    9.3548    0.0000 </r>
       <r>    9.6367    0.0000 </r>
       <r>    9.9375    0.0000 </r>
       <r>   10.4573    0.0000 </r>
       <r>   10.8437    0.0000 </r>
      </set>
      <set comment="kpoint 63">
       <r>  -11.0452    1.0000 </r>
       <r>  -10.7960    1.0000 </r>
       <r>  -10.6662    1.0000 </r>
       <r>  -10.5747    1.0000 </r>
       <r>  -10.5354    1.0000 </r>
       <r>  -10.4659    1.0000 </r>
       <r>  -10.2335    1.0000 </r>
       <r>  -10.1193    1.0000 </r>
       <r>  -10.1050    1.0000 </r>
       <r>  -10.0597    1.0000 </r>
       <r>   -8.8600    1.0000 </r>
       <r>   -8.4749    1.0000 </r>
       <r>   -7.5798    1.0000 </r>
       <r>   -7.0182    1.0000 </r>
       <r>   -1.9286    1.0000 </r>
       <r>   -1.4861    1.0000 </r>
       <r>   -1.4053    1.0000 </r>
       <r>   -1.2625    1.0000 </r>
       <r>   -1.1577    1.0000 </r>
       <r>   -1.0910    1.0000 </r>
       <r>   -0.7092    1.0000 </r>
       <r>    0.3297    1.0000 </r>
       <r>    0.6658    1.0000 </r>
       <r>    1.0709    1.0000 </r>
       <r>    1.2458    1.0000 </r>
       <r>    1.5765    1.0000 </r>
       <r>    2.2208    1.0000 </r>
       <r>    2.5952    1.0000 </r>
       <r>    2.8666    1.0000 </r>
       <r>    3.4334    1.0000 </r>
       <r>    4.0843    1.0000 </r>
       <r>    6.2604    0.0000 </r>
       <r>    6.6925    0.0000 </r>
       <r>    7.8953    0.0000 </r>
       <r>    8.8056    0.0000 </r>
       <r>    9.2009    0.0000 </r>
       <r>    9.5786    0.0000 </r>
       <r>    9.9759    0.0000 </r>
       <r>   10.2335    0.0000 </r>
       <r>   10.6854    0.0000 </r>
      </set>
      <set comment="kpoint 64">
       <r>  -11.0804    1.0000 </r>
       <r>  -10.7990    1.0000 </r>
       <r>  -10.6609    1.0000 </r>
       <r>  -10.5761    1.0000 </r>
       <r>  -10.5355    1.0000 </r>
       <r>  -10.4949    1.0000 </r>
       <r>  -10.2561    1.0000 </r>
       <r>  -10.1140    1.0000 </r>
       <r>  -10.1014    1.0000 </r>
       <r>  -10.0495    1.0000 </r>
       <r>   -8.6018    1.0000 </r>
       <r>   -8.2614    1.0000 </r>
       <r>   -7.4633    1.0000 </r>
       <r>   -6.9176    1.0000 </r>
       <r>   -2.0076    1.0000 </r>
       <r>   -1.4602    1.0000 </r>
       <r>   -1.3778    1.0000 </r>
       <r>   -1.3235    1.0000 </r>
       <r>   -1.1709    1.0000 </r>
       <r>   -1.0797    1.0000 </r>
       <r>   -0.9806    1.0000 </r>
       <r>    0.1141    1.0000 </r>
       <r>    0.4213    1.0000 </r>
       <r>    0.7333    1.0000 </r>
       <r>    0.9048    1.0000 </r>
       <r>    1.4193    1.0000 </r>
       <r>    2.0602    1.0000 </r>
       <r>    2.3172    1.0000 </r>
       <r>    2.8142    1.0000 </r>
       <r>    3.0515    1.0000 </r>
       <r>    4.0531    1.0000 </r>
       <r>    6.3716    0.0000 </r>
       <r>    6.6832    0.0000 </r>
       <r>    7.9931    0.0000 </r>
       <r>    8.7925    0.0000 </r>
       <r>    9.4253    0.0000 </r>
       <r>    9.7396    0.0000 </r>
       <r>   10.0726    0.0000 </r>
       <r>   10.5001    0.0000 </r>
       <r>   10.8072    0.0000 </r>
      </set>
      <set comment="kpoint 65">
       <r>  -11.1094    1.0000 </r>
       <r>  -10.8007    1.0000 </r>
       <r>  -10.6582    1.0000 </r>
       <r>  -10.5767    1.0000 </r>
       <r>  -10.5370    1.0000 </r>
       <r>  -10.5151    1.0000 </r>
       <r>  -10.2745    1.0000 </r>
       <r>  -10.1162    1.0000 </r>
       <r>  -10.0889    1.0000 </r>
       <r>  -10.0455    1.0000 </r>
       <r>   -8.3364    1.0000 </r>
       <r>   -8.0583    1.0000 </r>
       <r>   -7.3857    1.0000 </r>
       <r>   -6.8305    1.0000 </r>
       <r>   -2.1364    1.0000 </r>
       <r>   -1.5984    1.0000 </r>
       <r>   -1.3679    1.0000 </r>
       <r>   -1.3351    1.0000 </r>
       <r>   -1.1845    1.0000 </r>
       <r>   -1.1134    1.0000 </r>
       <r>   -1.0040    1.0000 </r>
       <r>   -0.0397    1.0000 </r>
       <r>    0.1360    1.0000 </r>
       <r>    0.4497    1.0000 </r>
       <r>    0.7393    1.0000 </r>
       <r>    1.2274    1.0000 </r>
       <r>    1.8728    1.0000 </r>
       <r>    2.1170    1.0000 </r>
       <r>    2.7071    1.0000 </r>
       <r>    2.8791    1.0000 </r>
       <r>    3.9942    1.0000 </r>
       <r>    6.3553    0.0000 </r>
       <r>    6.6751    0.0000 </r>
       <r>    7.9441    0.0000 </r>
       <r>    8.7749    0.0000 </r>
       <r>    9.5299    0.0000 </r>
       <r>    9.9160    0.0000 </r>
       <r>   10.1640    0.0000 </r>
       <r>   10.5568    0.0000 </r>
       <r>   10.9545    0.0000 </r>
      </set>
      <set comment="kpoint 66">
       <r>  -11.1284    1.0000 </r>
       <r>  -10.8020    1.0000 </r>
       <r>  -10.6572    1.0000 </r>
       <r>  -10.5779    1.0000 </r>
       <r>  -10.5390    1.0000 </r>
       <r>  -10.5250    1.0000 </r>
       <r>  -10.2860    1.0000 </r>
       <r>  -10.1189    1.0000 </r>
       <r>  -10.0736    1.0000 </r>
       <r>  -10.0491    1.0000 </r>
       <r>   -8.1122    1.0000 </r>
       <r>   -7.9179    1.0000 </r>
       <r>   -7.3584    1.0000 </r>
       <r>   -6.7718    1.0000 </r>
       <r>   -2.2594    1.0000 </r>
       <r>   -1.8020    1.0000 </r>
       <r>   -1.3459    1.0000 </r>
       <r>   -1.3256    1.0000 </r>
       <r>   -1.2039    1.0000 </r>
       <r>   -1.1090    1.0000 </r>
       <r>   -0.8998    1.0000 </r>
       <r>   -0.1736    1.0000 </r>
       <r>   -0.0497    1.0000 </r>
       <r>    0.1998    1.0000 </r>
       <r>    0.6686    1.0000 </r>
       <r>    1.1305    1.0000 </r>
       <r>    1.7462    1.0000 </r>
       <r>    1.9544    1.0000 </r>
       <r>    2.5539    1.0000 </r>
       <r>    2.8998    1.0000 </r>
       <r>    3.9423    1.0000 </r>
       <r>    6.2934    0.0000 </r>
       <r>    6.6705    0.0000 </r>
       <r>    7.8445    0.0000 </r>
       <r>    8.7585    0.0000 </r>
       <r>    9.6355    0.0000 </r>
       <r>    9.8108    0.0000 </r>
       <r>   10.2240    0.0000 </r>
       <r>   10.5356    0.0000 </r>
       <r>   11.0790    0.0000 </r>
      </set>
      <set comment="kpoint 67">
       <r>  -11.1349    1.0000 </r>
       <r>  -10.8025    1.0000 </r>
       <r>  -10.6570    1.0000 </r>
       <r>  -10.5787    1.0000 </r>
       <r>  -10.5397    1.0000 </r>
       <r>  -10.5278    1.0000 </r>
       <r>  -10.2899    1.0000 </r>
       <r>  -10.1200    1.0000 </r>
       <r>  -10.0600    1.0000 </r>
       <r>  -10.0585    1.0000 </r>
       <r>   -8.0113    1.0000 </r>
       <r>   -7.8764    1.0000 </r>
       <r>   -7.3576    1.0000 </r>
       <r>   -6.7509    1.0000 </r>
       <r>   -2.3091    1.0000 </r>
       <r>   -1.8858    1.0000 </r>
       <r>   -1.3427    1.0000 </r>
       <r>   -1.3172    1.0000 </r>
       <r>   -1.2112    1.0000 </r>
       <r>   -1.1017    1.0000 </r>
       <r>   -0.8223    1.0000 </r>
       <r>   -0.2957    1.0000 </r>
       <r>   -0.0266    1.0000 </r>
       <r>    0.0875    1.0000 </r>
       <r>    0.5608    1.0000 </r>
       <r>    1.2184    1.0000 </r>
       <r>    1.6450    1.0000 </r>
       <r>    1.8881    1.0000 </r>
       <r>    2.5031    1.0000 </r>
       <r>    2.9134    1.0000 </r>
       <r>    3.9306    1.0000 </r>
       <r>    6.2798    0.0000 </r>
       <r>    6.6495    0.0000 </r>
       <r>    7.7944    0.0000 </r>
       <r>    8.7574    0.0000 </r>
       <r>    9.6686    0.0000 </r>
       <r>    9.7560    0.0000 </r>
       <r>   10.2080    0.0000 </r>
       <r>   10.5339    0.0000 </r>
       <r>   11.1582    0.0000 </r>
      </set>
      <set comment="kpoint 68">
       <r>  -11.1284    1.0000 </r>
       <r>  -10.8020    1.0000 </r>
       <r>  -10.6572    1.0000 </r>
       <r>  -10.5779    1.0000 </r>
       <r>  -10.5390    1.0000 </r>
       <r>  -10.5250    1.0000 </r>
       <r>  -10.2860    1.0000 </r>
       <r>  -10.1189    1.0000 </r>
       <r>  -10.0736    1.0000 </r>
       <r>  -10.0491    1.0000 </r>
       <r>   -8.1109    1.0000 </r>
       <r>   -7.9199    1.0000 </r>
       <r>   -7.3577    1.0000 </r>
       <r>   -6.7718    1.0000 </r>
       <r>   -2.2569    1.0000 </r>
       <r>   -1.8097    1.0000 </r>
       <r>   -1.3485    1.0000 </r>
       <r>   -1.3153    1.0000 </r>
       <r>   -1.2042    1.0000 </r>
       <r>   -1.1118    1.0000 </r>
       <r>   -0.9063    1.0000 </r>
       <r>   -0.2026    1.0000 </r>
       <r>    0.0853    1.0000 </r>
       <r>    0.1545    1.0000 </r>
       <r>    0.5214    1.0000 </r>
       <r>    1.4147    1.0000 </r>
       <r>    1.5008    1.0000 </r>
       <r>    2.0017    1.0000 </r>
       <r>    2.5556    1.0000 </r>
       <r>    2.8916    1.0000 </r>
       <r>    3.9625    1.0000 </r>
       <r>    6.3322    0.0000 </r>
       <r>    6.6227    0.0000 </r>
       <r>    7.8258    0.0000 </r>
       <r>    8.7692    0.0000 </r>
       <r>    9.6193    0.0000 </r>
       <r>    9.8128    0.0000 </r>
       <r>   10.2189    0.0000 </r>
       <r>   10.6281    0.0000 </r>
       <r>   11.1566    0.0000 </r>
      </set>
      <set comment="kpoint 69">
       <r>  -11.1094    1.0000 </r>
       <r>  -10.8008    1.0000 </r>
       <r>  -10.6582    1.0000 </r>
       <r>  -10.5767    1.0000 </r>
       <r>  -10.5370    1.0000 </r>
       <r>  -10.5151    1.0000 </r>
       <r>  -10.2745    1.0000 </r>
       <r>  -10.1162    1.0000 </r>
       <r>  -10.0889    1.0000 </r>
       <r>  -10.0455    1.0000 </r>
       <r>   -8.3355    1.0000 </r>
       <r>   -8.0600    1.0000 </r>
       <r>   -7.3846    1.0000 </r>
       <r>   -6.8308    1.0000 </r>
       <r>   -2.1340    1.0000 </r>
       <r>   -1.6109    1.0000 </r>
       <r>   -1.3664    1.0000 </r>
       <r>   -1.3231    1.0000 </r>
       <r>   -1.1844    1.0000 </r>
       <r>   -1.1191    1.0000 </r>
       <r>   -1.0073    1.0000 </r>
       <r>   -0.0486    1.0000 </r>
       <r>    0.2468    1.0000 </r>
       <r>    0.3853    1.0000 </r>
       <r>    0.6358    1.0000 </r>
       <r>    1.3904    1.0000 </r>
       <r>    1.7215    1.0000 </r>
       <r>    2.1849    1.0000 </r>
       <r>    2.6822    1.0000 </r>
       <r>    2.8844    1.0000 </r>
       <r>    4.0119    1.0000 </r>
       <r>    6.3958    0.0000 </r>
       <r>    6.6248    0.0000 </r>
       <r>    7.9199    0.0000 </r>
       <r>    8.7875    0.0000 </r>
       <r>    9.5669    0.0000 </r>
       <r>    9.8176    0.0000 </r>
       <r>   10.2805    0.0000 </r>
       <r>   10.6418    0.0000 </r>
       <r>   10.9018    0.0000 </r>
      </set>
      <set comment="kpoint 70">
       <r>  -11.1261    1.0000 </r>
       <r>  -10.7982    1.0000 </r>
       <r>  -10.6596    1.0000 </r>
       <r>  -10.5707    1.0000 </r>
       <r>  -10.5399    1.0000 </r>
       <r>  -10.5197    1.0000 </r>
       <r>  -10.3096    1.0000 </r>
       <r>  -10.1070    1.0000 </r>
       <r>  -10.0859    1.0000 </r>
       <r>  -10.0496    1.0000 </r>
       <r>   -8.0964    1.0000 </r>
       <r>   -7.8981    1.0000 </r>
       <r>   -7.3714    1.0000 </r>
       <r>   -6.7694    1.0000 </r>
       <r>   -2.2100    1.0000 </r>
       <r>   -1.7701    1.0000 </r>
       <r>   -1.3435    1.0000 </r>
       <r>   -1.3197    1.0000 </r>
       <r>   -1.1856    1.0000 </r>
       <r>   -1.1268    1.0000 </r>
       <r>   -0.9117    1.0000 </r>
       <r>   -0.1578    1.0000 </r>
       <r>   -0.0317    1.0000 </r>
       <r>    0.0915    1.0000 </r>
       <r>    0.6006    1.0000 </r>
       <r>    1.2583    1.0000 </r>
       <r>    1.5816    1.0000 </r>
       <r>    1.9171    1.0000 </r>
       <r>    2.4260    1.0000 </r>
       <r>    2.9002    1.0000 </r>
       <r>    3.9581    1.0000 </r>
       <r>    6.4440    0.0000 </r>
       <r>    6.6899    0.0000 </r>
       <r>    8.0589    0.0000 </r>
       <r>    8.6704    0.0000 </r>
       <r>    9.7548    0.0000 </r>
       <r>    9.9629    0.0000 </r>
       <r>   10.5492    0.0000 </r>
       <r>   10.7033    0.0000 </r>
       <r>   11.1892    0.0000 </r>
      </set>
      <set comment="kpoint 71">
       <r>  -11.1348    1.0000 </r>
       <r>  -10.7959    1.0000 </r>
       <r>  -10.6609    1.0000 </r>
       <r>  -10.5658    1.0000 </r>
       <r>  -10.5408    1.0000 </r>
       <r>  -10.5225    1.0000 </r>
       <r>  -10.3309    1.0000 </r>
       <r>  -10.1031    1.0000 </r>
       <r>  -10.0764    1.0000 </r>
       <r>  -10.0590    1.0000 </r>
       <r>   -7.9275    1.0000 </r>
       <r>   -7.8089    1.0000 </r>
       <r>   -7.3941    1.0000 </r>
       <r>   -6.7357    1.0000 </r>
       <r>   -2.2483    1.0000 </r>
       <r>   -1.8793    1.0000 </r>
       <r>   -1.3345    1.0000 </r>
       <r>   -1.3191    1.0000 </r>
       <r>   -1.1908    1.0000 </r>
       <r>   -1.1156    1.0000 </r>
       <r>   -0.7977    1.0000 </r>
       <r>   -0.2795    1.0000 </r>
       <r>   -0.1372    1.0000 </r>
       <r>   -0.1098    1.0000 </r>
       <r>    0.6247    1.0000 </r>
       <r>    1.1134    1.0000 </r>
       <r>    1.5856    1.0000 </r>
       <r>    1.7247    1.0000 </r>
       <r>    2.2780    1.0000 </r>
       <r>    2.9392    1.0000 </r>
       <r>    3.9188    1.0000 </r>
       <r>    6.4498    0.0000 </r>
       <r>    6.7169    0.0000 </r>
       <r>    8.0804    0.0000 </r>
       <r>    8.6206    0.0000 </r>
       <r>    9.8611    0.0000 </r>
       <r>   10.0116    0.0000 </r>
       <r>   10.4758    0.0000 </r>
       <r>   10.8644    0.0000 </r>
       <r>   11.4981    0.0000 </r>
      </set>
      <set comment="kpoint 72">
       <r>  -11.1348    1.0000 </r>
       <r>  -10.7959    1.0000 </r>
       <r>  -10.6609    1.0000 </r>
       <r>  -10.5658    1.0000 </r>
       <r>  -10.5408    1.0000 </r>
       <r>  -10.5225    1.0000 </r>
       <r>  -10.3309    1.0000 </r>
       <r>  -10.1031    1.0000 </r>
       <r>  -10.0764    1.0000 </r>
       <r>  -10.0590    1.0000 </r>
       <r>   -7.9272    1.0000 </r>
       <r>   -7.8093    1.0000 </r>
       <r>   -7.3940    1.0000 </r>
       <r>   -6.7357    1.0000 </r>
       <r>   -2.2476    1.0000 </r>
       <r>   -1.8809    1.0000 </r>
       <r>   -1.3356    1.0000 </r>
       <r>   -1.3171    1.0000 </r>
       <r>   -1.1901    1.0000 </r>
       <r>   -1.1163    1.0000 </r>
       <r>   -0.7996    1.0000 </r>
       <r>   -0.2842    1.0000 </r>
       <r>   -0.1426    1.0000 </r>
       <r>   -0.0852    1.0000 </r>
       <r>    0.5819    1.0000 </r>
       <r>    1.1786    1.0000 </r>
       <r>    1.5468    1.0000 </r>
       <r>    1.7224    1.0000 </r>
       <r>    2.2834    1.0000 </r>
       <r>    2.9374    1.0000 </r>
       <r>    3.9222    1.0000 </r>
       <r>    6.4558    0.0000 </r>
       <r>    6.7097    0.0000 </r>
       <r>    8.0793    0.0000 </r>
       <r>    8.6216    0.0000 </r>
       <r>    9.8385    0.0000 </r>
       <r>   10.0071    0.0000 </r>
       <r>   10.5019    0.0000 </r>
       <r>   10.9285    0.0000 </r>
       <r>   11.4549    0.0000 </r>
      </set>
      <set comment="kpoint 73">
       <r>  -11.1368    1.0000 </r>
       <r>  -10.7931    1.0000 </r>
       <r>  -10.6624    1.0000 </r>
       <r>  -10.5527    1.0000 </r>
       <r>  -10.5527    1.0000 </r>
       <r>  -10.5161    1.0000 </r>
       <r>  -10.3505    1.0000 </r>
       <r>  -10.0891    1.0000 </r>
       <r>  -10.0841    1.0000 </r>
       <r>  -10.0644    1.0000 </r>
       <r>   -7.8525    1.0000 </r>
       <r>   -7.7582    1.0000 </r>
       <r>   -7.4268    1.0000 </r>
       <r>   -6.7229    1.0000 </r>
       <r>   -2.2326    1.0000 </r>
       <r>   -1.9099    1.0000 </r>
       <r>   -1.3319    1.0000 </r>
       <r>   -1.3196    1.0000 </r>
       <r>   -1.1838    1.0000 </r>
       <r>   -1.1163    1.0000 </r>
       <r>   -0.7506    1.0000 </r>
       <r>   -0.3001    1.0000 </r>
       <r>   -0.2870    1.0000 </r>
       <r>   -0.1402    1.0000 </r>
       <r>    0.6790    1.0000 </r>
       <r>    1.0166    1.0000 </r>
       <r>    1.5705    1.0000 </r>
       <r>    1.6258    1.0000 </r>
       <r>    2.1813    1.0000 </r>
       <r>    2.9583    1.0000 </r>
       <r>    3.9042    1.0000 </r>
       <r>    6.4992    0.0000 </r>
       <r>    6.7328    0.0000 </r>
       <r>    8.1563    0.0000 </r>
       <r>    8.5708    0.0000 </r>
       <r>    9.8866    0.0000 </r>
       <r>   10.1183    0.0000 </r>
       <r>   10.5334    0.0000 </r>
       <r>   11.1852    0.0000 </r>
       <r>   11.7131    0.0000 </r>
      </set>
      <set comment="kpoint 74">
       <r>  -10.9226    1.0000 </r>
       <r>  -10.7135    1.0000 </r>
       <r>  -10.7135    1.0000 </r>
       <r>  -10.5432    1.0000 </r>
       <r>  -10.5432    1.0000 </r>
       <r>  -10.2307    1.0000 </r>
       <r>  -10.2307    1.0000 </r>
       <r>  -10.2168    1.0000 </r>
       <r>  -10.0840    1.0000 </r>
       <r>  -10.0840    1.0000 </r>
       <r>   -9.6550    1.0000 </r>
       <r>   -9.1123    1.0000 </r>
       <r>   -8.1083    1.0000 </r>
       <r>   -7.4118    1.0000 </r>
       <r>   -2.0481    1.0000 </r>
       <r>   -1.5440    1.0000 </r>
       <r>   -1.5440    1.0000 </r>
       <r>   -1.0981    1.0000 </r>
       <r>   -1.0981    1.0000 </r>
       <r>   -1.0860    1.0000 </r>
       <r>   -0.0661    1.0000 </r>
       <r>    2.1245    1.0000 </r>
       <r>    2.1606    1.0000 </r>
       <r>    2.1606    1.0000 </r>
       <r>    2.7576    1.0000 </r>
       <r>    2.7576    1.0000 </r>
       <r>    3.0312    1.0000 </r>
       <r>    3.0312    1.0000 </r>
       <r>    3.2692    1.0000 </r>
       <r>    4.5325    1.0000 </r>
       <r>    4.5325    1.0000 </r>
       <r>    5.4461    0.0000 </r>
       <r>    6.1936    0.0000 </r>
       <r>    7.3022    0.0000 </r>
       <r>    7.7974    0.0000 </r>
       <r>    9.0891    0.0000 </r>
       <r>    9.0919    0.0000 </r>
       <r>    9.0919    0.0000 </r>
       <r>    9.6824    0.0000 </r>
       <r>    9.6824    0.0000 </r>
      </set>
      <set comment="kpoint 75">
       <r>  -10.9268    1.0000 </r>
       <r>  -10.7280    1.0000 </r>
       <r>  -10.7094    1.0000 </r>
       <r>  -10.5473    1.0000 </r>
       <r>  -10.5429    1.0000 </r>
       <r>  -10.2587    1.0000 </r>
       <r>  -10.2271    1.0000 </r>
       <r>  -10.2009    1.0000 </r>
       <r>  -10.0882    1.0000 </r>
       <r>  -10.0835    1.0000 </r>
       <r>   -9.6001    1.0000 </r>
       <r>   -9.0771    1.0000 </r>
       <r>   -8.0663    1.0000 </r>
       <r>   -7.3868    1.0000 </r>
       <r>   -2.0334    1.0000 </r>
       <r>   -1.5439    1.0000 </r>
       <r>   -1.5346    1.0000 </r>
       <r>   -1.1122    1.0000 </r>
       <r>   -1.0983    1.0000 </r>
       <r>   -1.0731    1.0000 </r>
       <r>   -0.0637    1.0000 </r>
       <r>    1.8466    1.0000 </r>
       <r>    2.1022    1.0000 </r>
       <r>    2.1286    1.0000 </r>
       <r>    2.4186    1.0000 </r>
       <r>    2.6440    1.0000 </r>
       <r>    2.8697    1.0000 </r>
       <r>    3.0772    1.0000 </r>
       <r>    3.5216    1.0000 </r>
       <r>    4.2804    1.0000 </r>
       <r>    4.4705    1.0000 </r>
       <r>    5.5774    0.0000 </r>
       <r>    6.3423    0.0000 </r>
       <r>    7.5220    0.0000 </r>
       <r>    7.9899    0.0000 </r>
       <r>    8.7700    0.0000 </r>
       <r>    9.1635    0.0000 </r>
       <r>    9.2097    0.0000 </r>
       <r>    9.6996    0.0000 </r>
       <r>    9.7935    0.0000 </r>
      </set>
      <set comment="kpoint 76">
       <r>  -10.9440    1.0000 </r>
       <r>  -10.7586    1.0000 </r>
       <r>  -10.6982    1.0000 </r>
       <r>  -10.5564    1.0000 </r>
       <r>  -10.5416    1.0000 </r>
       <r>  -10.3175    1.0000 </r>
       <r>  -10.2173    1.0000 </r>
       <r>  -10.1759    1.0000 </r>
       <r>  -10.0968    1.0000 </r>
       <r>  -10.0813    1.0000 </r>
       <r>   -9.4499    1.0000 </r>
       <r>   -8.9722    1.0000 </r>
       <r>   -7.9513    1.0000 </r>
       <r>   -7.3150    1.0000 </r>
       <r>   -1.9964    1.0000 </r>
       <r>   -1.5412    1.0000 </r>
       <r>   -1.5078    1.0000 </r>
       <r>   -1.1346    1.0000 </r>
       <r>   -1.0983    1.0000 </r>
       <r>   -1.0562    1.0000 </r>
       <r>   -0.0883    1.0000 </r>
       <r>    1.2546    1.0000 </r>
       <r>    1.8074    1.0000 </r>
       <r>    1.9461    1.0000 </r>
       <r>    2.0815    1.0000 </r>
       <r>    2.4106    1.0000 </r>
       <r>    2.4685    1.0000 </r>
       <r>    3.1235    1.0000 </r>
       <r>    3.6580    1.0000 </r>
       <r>    3.8989    1.0000 </r>
       <r>    4.3012    1.0000 </r>
       <r>    5.8038    0.0000 </r>
       <r>    6.6280    0.0000 </r>
       <r>    7.9335    0.0000 </r>
       <r>    8.1996    0.0000 </r>
       <r>    8.6952    0.0000 </r>
       <r>    9.1160    0.0000 </r>
       <r>    9.3463    0.0000 </r>
       <r>    9.9437    0.0000 </r>
       <r>   10.1055    0.0000 </r>
      </set>
      <set comment="kpoint 77">
       <r>  -10.9811    1.0000 </r>
       <r>  -10.7823    1.0000 </r>
       <r>  -10.6828    1.0000 </r>
       <r>  -10.5665    1.0000 </r>
       <r>  -10.5383    1.0000 </r>
       <r>  -10.3921    1.0000 </r>
       <r>  -10.2048    1.0000 </r>
       <r>  -10.1498    1.0000 </r>
       <r>  -10.1034    1.0000 </r>
       <r>  -10.0761    1.0000 </r>
       <r>   -9.2314    1.0000 </r>
       <r>   -8.8029    1.0000 </r>
       <r>   -7.7902    1.0000 </r>
       <r>   -7.2063    1.0000 </r>
       <r>   -1.9593    1.0000 </r>
       <r>   -1.5302    1.0000 </r>
       <r>   -1.4680    1.0000 </r>
       <r>   -1.1618    1.0000 </r>
       <r>   -1.0971    1.0000 </r>
       <r>   -1.0528    1.0000 </r>
       <r>   -0.2517    1.0000 </r>
       <r>    0.6629    1.0000 </r>
       <r>    1.2781    1.0000 </r>
       <r>    1.7326    1.0000 </r>
       <r>    1.8269    1.0000 </r>
       <r>    2.0499    1.0000 </r>
       <r>    2.1454    1.0000 </r>
       <r>    3.1246    1.0000 </r>
       <r>    3.2010    1.0000 </r>
       <r>    3.9866    1.0000 </r>
       <r>    4.0685    1.0000 </r>
       <r>    5.9754    0.0000 </r>
       <r>    6.6987    0.0000 </r>
       <r>    7.7487    0.0000 </r>
       <r>    8.5291    0.0000 </r>
       <r>    8.9298    0.0000 </r>
       <r>    9.4038    0.0000 </r>
       <r>    9.5632    0.0000 </r>
       <r>   10.2678    0.0000 </r>
       <r>   10.5344    0.0000 </r>
      </set>
      <set comment="kpoint 78">
       <r>  -11.0311    1.0000 </r>
       <r>  -10.7946    1.0000 </r>
       <r>  -10.6672    1.0000 </r>
       <r>  -10.5764    1.0000 </r>
       <r>  -10.5323    1.0000 </r>
       <r>  -10.4645    1.0000 </r>
       <r>  -10.1937    1.0000 </r>
       <r>  -10.1367    1.0000 </r>
       <r>  -10.0975    1.0000 </r>
       <r>  -10.0666    1.0000 </r>
       <r>   -8.9695    1.0000 </r>
       <r>   -8.5851    1.0000 </r>
       <r>   -7.6167    1.0000 </r>
       <r>   -7.0779    1.0000 </r>
       <r>   -1.9639    1.0000 </r>
       <r>   -1.5046    1.0000 </r>
       <r>   -1.4223    1.0000 </r>
       <r>   -1.2019    1.0000 </r>
       <r>   -1.0943    1.0000 </r>
       <r>   -1.0934    1.0000 </r>
       <r>   -0.6448    1.0000 </r>
       <r>    0.2487    1.0000 </r>
       <r>    0.8872    1.0000 </r>
       <r>    1.3930    1.0000 </r>
       <r>    1.5066    1.0000 </r>
       <r>    1.7811    1.0000 </r>
       <r>    1.8894    1.0000 </r>
       <r>    2.8484    1.0000 </r>
       <r>    3.0904    1.0000 </r>
       <r>    3.8230    1.0000 </r>
       <r>    4.0011    1.0000 </r>
       <r>    6.0166    0.0000 </r>
       <r>    6.5413    0.0000 </r>
       <r>    7.4630    0.0000 </r>
       <r>    8.7053    0.0000 </r>
       <r>    8.9526    0.0000 </r>
       <r>    9.7271    0.0000 </r>
       <r>    9.9664    0.0000 </r>
       <r>   10.2601    0.0000 </r>
       <r>   10.9453    0.0000 </r>
      </set>
      <set comment="kpoint 79">
       <r>  -11.0791    1.0000 </r>
       <r>  -10.8040    1.0000 </r>
       <r>  -10.6550    1.0000 </r>
       <r>  -10.5864    1.0000 </r>
       <r>  -10.5236    1.0000 </r>
       <r>  -10.5198    1.0000 </r>
       <r>  -10.1865    1.0000 </r>
       <r>  -10.1393    1.0000 </r>
       <r>  -10.0795    1.0000 </r>
       <r>  -10.0538    1.0000 </r>
       <r>   -8.6918    1.0000 </r>
       <r>   -8.3512    1.0000 </r>
       <r>   -7.4644    1.0000 </r>
       <r>   -6.9528    1.0000 </r>
       <r>   -2.0664    1.0000 </r>
       <r>   -1.4812    1.0000 </r>
       <r>   -1.3796    1.0000 </r>
       <r>   -1.3397    1.0000 </r>
       <r>   -1.1668    1.0000 </r>
       <r>   -1.0859    1.0000 </r>
       <r>   -0.9938    1.0000 </r>
       <r>   -0.0179    1.0000 </r>
       <r>    0.5855    1.0000 </r>
       <r>    0.9752    1.0000 </r>
       <r>    1.3060    1.0000 </r>
       <r>    1.6720    1.0000 </r>
       <r>    1.6760    1.0000 </r>
       <r>    2.6271    1.0000 </r>
       <r>    3.0378    1.0000 </r>
       <r>    3.6087    1.0000 </r>
       <r>    3.9257    1.0000 </r>
       <r>    5.9109    0.0000 </r>
       <r>    6.4106    0.0000 </r>
       <r>    7.2425    0.0000 </r>
       <r>    8.6506    0.0000 </r>
       <r>    8.8051    0.0000 </r>
       <r>    9.8025    0.0000 </r>
       <r>    9.9914    0.0000 </r>
       <r>   10.3310    0.0000 </r>
       <r>   11.2297    0.0000 </r>
      </set>
      <set comment="kpoint 80">
       <r>  -11.1152    1.0000 </r>
       <r>  -10.8142    1.0000 </r>
       <r>  -10.6474    1.0000 </r>
       <r>  -10.5970    1.0000 </r>
       <r>  -10.5508    1.0000 </r>
       <r>  -10.5147    1.0000 </r>
       <r>  -10.1831    1.0000 </r>
       <r>  -10.1444    1.0000 </r>
       <r>  -10.0638    1.0000 </r>
       <r>  -10.0414    1.0000 </r>
       <r>   -8.4385    1.0000 </r>
       <r>   -8.1515    1.0000 </r>
       <r>   -7.3601    1.0000 </r>
       <r>   -6.8555    1.0000 </r>
       <r>   -2.2586    1.0000 </r>
       <r>   -1.7064    1.0000 </r>
       <r>   -1.3764    1.0000 </r>
       <r>   -1.3479    1.0000 </r>
       <r>   -1.2247    1.0000 </r>
       <r>   -1.0761    1.0000 </r>
       <r>   -1.0269    1.0000 </r>
       <r>   -0.2255    1.0000 </r>
       <r>    0.2260    1.0000 </r>
       <r>    0.8306    1.0000 </r>
       <r>    1.1582    1.0000 </r>
       <r>    1.5147    1.0000 </r>
       <r>    1.6595    1.0000 </r>
       <r>    2.4862    1.0000 </r>
       <r>    2.9845    1.0000 </r>
       <r>    3.4564    1.0000 </r>
       <r>    3.8130    1.0000 </r>
       <r>    5.7685    0.0000 </r>
       <r>    6.3493    0.0000 </r>
       <r>    7.0947    0.0000 </r>
       <r>    8.5382    0.0000 </r>
       <r>    8.6226    0.0000 </r>
       <r>    9.7839    0.0000 </r>
       <r>    9.8169    0.0000 </r>
       <r>   10.3457    0.0000 </r>
       <r>   11.1503    0.0000 </r>
      </set>
      <set comment="kpoint 81">
       <r>  -11.1343    1.0000 </r>
       <r>  -10.8217    1.0000 </r>
       <r>  -10.6440    1.0000 </r>
       <r>  -10.6049    1.0000 </r>
       <r>  -10.5621    1.0000 </r>
       <r>  -10.5089    1.0000 </r>
       <r>  -10.1819    1.0000 </r>
       <r>  -10.1475    1.0000 </r>
       <r>  -10.0554    1.0000 </r>
       <r>  -10.0339    1.0000 </r>
       <r>   -8.2735    1.0000 </r>
       <r>   -8.0411    1.0000 </r>
       <r>   -7.3117    1.0000 </r>
       <r>   -6.8036    1.0000 </r>
       <r>   -2.4118    1.0000 </r>
       <r>   -1.8996    1.0000 </r>
       <r>   -1.3541    1.0000 </r>
       <r>   -1.3317    1.0000 </r>
       <r>   -1.2523    1.0000 </r>
       <r>   -1.0688    1.0000 </r>
       <r>   -0.9229    1.0000 </r>
       <r>   -0.4059    1.0000 </r>
       <r>   -0.0393    1.0000 </r>
       <r>    0.8749    1.0000 </r>
       <r>    1.0804    1.0000 </r>
       <r>    1.4319    1.0000 </r>
       <r>    1.6208    1.0000 </r>
       <r>    2.4243    1.0000 </r>
       <r>    2.9507    1.0000 </r>
       <r>    3.3790    1.0000 </r>
       <r>    3.7377    1.0000 </r>
       <r>    5.6961    0.0000 </r>
       <r>    6.3159    0.0000 </r>
       <r>    6.9964    0.0000 </r>
       <r>    8.4716    0.0000 </r>
       <r>    8.5335    0.0000 </r>
       <r>    9.6497    0.0000 </r>
       <r>    9.8135    0.0000 </r>
       <r>   10.3245    0.0000 </r>
       <r>   11.0797    0.0000 </r>
      </set>
      <set comment="kpoint 82">
       <r>  -11.1343    1.0000 </r>
       <r>  -10.8217    1.0000 </r>
       <r>  -10.6440    1.0000 </r>
       <r>  -10.6049    1.0000 </r>
       <r>  -10.5621    1.0000 </r>
       <r>  -10.5089    1.0000 </r>
       <r>  -10.1819    1.0000 </r>
       <r>  -10.1475    1.0000 </r>
       <r>  -10.0554    1.0000 </r>
       <r>  -10.0339    1.0000 </r>
       <r>   -8.2726    1.0000 </r>
       <r>   -8.0425    1.0000 </r>
       <r>   -7.3111    1.0000 </r>
       <r>   -6.8037    1.0000 </r>
       <r>   -2.4113    1.0000 </r>
       <r>   -1.9023    1.0000 </r>
       <r>   -1.3514    1.0000 </r>
       <r>   -1.3317    1.0000 </r>
       <r>   -1.2534    1.0000 </r>
       <r>   -1.0688    1.0000 </r>
       <r>   -0.9256    1.0000 </r>
       <r>   -0.3975    1.0000 </r>
       <r>   -0.0498    1.0000 </r>
       <r>    0.9085    1.0000 </r>
       <r>    1.0811    1.0000 </r>
       <r>    1.4307    1.0000 </r>
       <r>    1.5781    1.0000 </r>
       <r>    2.4265    1.0000 </r>
       <r>    2.9530    1.0000 </r>
       <r>    3.3770    1.0000 </r>
       <r>    3.7558    1.0000 </r>
       <r>    5.7233    0.0000 </r>
       <r>    6.2946    0.0000 </r>
       <r>    6.9506    0.0000 </r>
       <r>    8.4706    0.0000 </r>
       <r>    8.5889    0.0000 </r>
       <r>    9.6257    0.0000 </r>
       <r>    9.8172    0.0000 </r>
       <r>   10.3384    0.0000 </r>
       <r>   11.0713    0.0000 </r>
      </set>
      <set comment="kpoint 83">
       <r>  -11.1152    1.0000 </r>
       <r>  -10.8142    1.0000 </r>
       <r>  -10.6474    1.0000 </r>
       <r>  -10.5971    1.0000 </r>
       <r>  -10.5508    1.0000 </r>
       <r>  -10.5147    1.0000 </r>
       <r>  -10.1831    1.0000 </r>
       <r>  -10.1444    1.0000 </r>
       <r>  -10.0638    1.0000 </r>
       <r>  -10.0414    1.0000 </r>
       <r>   -8.4364    1.0000 </r>
       <r>   -8.1550    1.0000 </r>
       <r>   -7.3577    1.0000 </r>
       <r>   -6.8564    1.0000 </r>
       <r>   -2.2565    1.0000 </r>
       <r>   -1.7184    1.0000 </r>
       <r>   -1.3613    1.0000 </r>
       <r>   -1.3479    1.0000 </r>
       <r>   -1.2301    1.0000 </r>
       <r>   -1.0761    1.0000 </r>
       <r>   -1.0366    1.0000 </r>
       <r>   -0.1880    1.0000 </r>
       <r>    0.1832    1.0000 </r>
       <r>    0.8960    1.0000 </r>
       <r>    1.1602    1.0000 </r>
       <r>    1.5113    1.0000 </r>
       <r>    1.5761    1.0000 </r>
       <r>    2.4972    1.0000 </r>
       <r>    2.9908    1.0000 </r>
       <r>    3.4511    1.0000 </r>
       <r>    3.8508    1.0000 </r>
       <r>    5.8356    0.0000 </r>
       <r>    6.2851    0.0000 </r>
       <r>    6.9980    0.0000 </r>
       <r>    8.5465    0.0000 </r>
       <r>    8.7477    0.0000 </r>
       <r>    9.7200    0.0000 </r>
       <r>    9.8277    0.0000 </r>
       <r>   10.3923    0.0000 </r>
       <r>   11.1073    0.0000 </r>
      </set>
      <set comment="kpoint 84">
       <r>  -11.0791    1.0000 </r>
       <r>  -10.8040    1.0000 </r>
       <r>  -10.6550    1.0000 </r>
       <r>  -10.5865    1.0000 </r>
       <r>  -10.5236    1.0000 </r>
       <r>  -10.5198    1.0000 </r>
       <r>  -10.1865    1.0000 </r>
       <r>  -10.1393    1.0000 </r>
       <r>  -10.0795    1.0000 </r>
       <r>  -10.0538    1.0000 </r>
       <r>   -8.6895    1.0000 </r>
       <r>   -8.3553    1.0000 </r>
       <r>   -7.4607    1.0000 </r>
       <r>   -6.9546    1.0000 </r>
       <r>   -2.0628    1.0000 </r>
       <r>   -1.5031    1.0000 </r>
       <r>   -1.3796    1.0000 </r>
       <r>   -1.3229    1.0000 </r>
       <r>   -1.1731    1.0000 </r>
       <r>   -1.0859    1.0000 </r>
       <r>   -0.9992    1.0000 </r>
       <r>    0.0609    1.0000 </r>
       <r>    0.5028    1.0000 </r>
       <r>    1.0032    1.0000 </r>
       <r>    1.3092    1.0000 </r>
       <r>    1.6359    1.0000 </r>
       <r>    1.6665    1.0000 </r>
       <r>    2.6464    1.0000 </r>
       <r>    3.0465    1.0000 </r>
       <r>    3.6018    1.0000 </r>
       <r>    3.9543    1.0000 </r>
       <r>    5.9630    0.0000 </r>
       <r>    6.3428    0.0000 </r>
       <r>    7.1646    0.0000 </r>
       <r>    8.6596    0.0000 </r>
       <r>    8.9331    0.0000 </r>
       <r>    9.8185    0.0000 </r>
       <r>    9.9148    0.0000 </r>
       <r>   10.4075    0.0000 </r>
       <r>   11.1087    0.0000 </r>
      </set>
      <set comment="kpoint 85">
       <r>  -11.0310    1.0000 </r>
       <r>  -10.7946    1.0000 </r>
       <r>  -10.6672    1.0000 </r>
       <r>  -10.5765    1.0000 </r>
       <r>  -10.5323    1.0000 </r>
       <r>  -10.4645    1.0000 </r>
       <r>  -10.1937    1.0000 </r>
       <r>  -10.1367    1.0000 </r>
       <r>  -10.0975    1.0000 </r>
       <r>  -10.0666    1.0000 </r>
       <r>   -8.9677    1.0000 </r>
       <r>   -8.5883    1.0000 </r>
       <r>   -7.6134    1.0000 </r>
       <r>   -7.0797    1.0000 </r>
       <r>   -1.9610    1.0000 </r>
       <r>   -1.5064    1.0000 </r>
       <r>   -1.4223    1.0000 </r>
       <r>   -1.2105    1.0000 </r>
       <r>   -1.1065    1.0000 </r>
       <r>   -1.0934    1.0000 </r>
       <r>   -0.6305    1.0000 </r>
       <r>    0.3563    1.0000 </r>
       <r>    0.7567    1.0000 </r>
       <r>    1.3442    1.0000 </r>
       <r>    1.5106    1.0000 </r>
       <r>    1.8496    1.0000 </r>
       <r>    1.8821    1.0000 </r>
       <r>    2.8677    1.0000 </r>
       <r>    3.0997    1.0000 </r>
       <r>    3.8163    1.0000 </r>
       <r>    4.0042    1.0000 </r>
       <r>    6.0049    0.0000 </r>
       <r>    6.5288    0.0000 </r>
       <r>    7.4415    0.0000 </r>
       <r>    8.6780    0.0000 </r>
       <r>    9.0438    0.0000 </r>
       <r>    9.7436    0.0000 </r>
       <r>    9.9121    0.0000 </r>
       <r>   10.3309    0.0000 </r>
       <r>   10.9182    0.0000 </r>
      </set>
      <set comment="kpoint 86">
       <r>  -10.9811    1.0000 </r>
       <r>  -10.7823    1.0000 </r>
       <r>  -10.6828    1.0000 </r>
       <r>  -10.5665    1.0000 </r>
       <r>  -10.5383    1.0000 </r>
       <r>  -10.3921    1.0000 </r>
       <r>  -10.2048    1.0000 </r>
       <r>  -10.1498    1.0000 </r>
       <r>  -10.1034    1.0000 </r>
       <r>  -10.0761    1.0000 </r>
       <r>   -9.2303    1.0000 </r>
       <r>   -8.8048    1.0000 </r>
       <r>   -7.7883    1.0000 </r>
       <r>   -7.2074    1.0000 </r>
       <r>   -1.9580    1.0000 </r>
       <r>   -1.5302    1.0000 </r>
       <r>   -1.4680    1.0000 </r>
       <r>   -1.1663    1.0000 </r>
       <r>   -1.0972    1.0000 </r>
       <r>   -1.0610    1.0000 </r>
       <r>   -0.2316    1.0000 </r>
       <r>    0.7340    1.0000 </r>
       <r>    1.1406    1.0000 </r>
       <r>    1.7368    1.0000 </r>
       <r>    1.7719    1.0000 </r>
       <r>    2.1367    1.0000 </r>
       <r>    2.1732    1.0000 </r>
       <r>    3.1336    1.0000 </r>
       <r>    3.2186    1.0000 </r>
       <r>    3.9629    1.0000 </r>
       <r>    4.0632    1.0000 </r>
       <r>    5.9482    0.0000 </r>
       <r>    6.7132    0.0000 </r>
       <r>    7.7815    0.0000 </r>
       <r>    8.4739    0.0000 </r>
       <r>    8.9600    0.0000 </r>
       <r>    9.3681    0.0000 </r>
       <r>    9.5739    0.0000 </r>
       <r>   10.3597    0.0000 </r>
       <r>   10.5243    0.0000 </r>
      </set>
      <set comment="kpoint 87">
       <r>  -10.9440    1.0000 </r>
       <r>  -10.7586    1.0000 </r>
       <r>  -10.6982    1.0000 </r>
       <r>  -10.5564    1.0000 </r>
       <r>  -10.5416    1.0000 </r>
       <r>  -10.3175    1.0000 </r>
       <r>  -10.2173    1.0000 </r>
       <r>  -10.1759    1.0000 </r>
       <r>  -10.0968    1.0000 </r>
       <r>  -10.0813    1.0000 </r>
       <r>   -9.4495    1.0000 </r>
       <r>   -8.9730    1.0000 </r>
       <r>   -7.9506    1.0000 </r>
       <r>   -7.3154    1.0000 </r>
       <r>   -1.9960    1.0000 </r>
       <r>   -1.5411    1.0000 </r>
       <r>   -1.5078    1.0000 </r>
       <r>   -1.1363    1.0000 </r>
       <r>   -1.0983    1.0000 </r>
       <r>   -1.0584    1.0000 </r>
       <r>   -0.0787    1.0000 </r>
       <r>    1.2856    1.0000 </r>
       <r>    1.6945    1.0000 </r>
       <r>    1.9498    1.0000 </r>
       <r>    2.1148    1.0000 </r>
       <r>    2.4015    1.0000 </r>
       <r>    2.5254    1.0000 </r>
       <r>    3.1319    1.0000 </r>
       <r>    3.7060    1.0000 </r>
       <r>    3.8355    1.0000 </r>
       <r>    4.2977    1.0000 </r>
       <r>    5.7921    0.0000 </r>
       <r>    6.6413    0.0000 </r>
       <r>    7.9235    0.0000 </r>
       <r>    8.2700    0.0000 </r>
       <r>    8.6122    0.0000 </r>
       <r>    9.1046    0.0000 </r>
       <r>    9.3490    0.0000 </r>
       <r>   10.0006    0.0000 </r>
       <r>   10.1075    0.0000 </r>
      </set>
      <set comment="kpoint 88">
       <r>  -10.9268    1.0000 </r>
       <r>  -10.7280    1.0000 </r>
       <r>  -10.7094    1.0000 </r>
       <r>  -10.5473    1.0000 </r>
       <r>  -10.5429    1.0000 </r>
       <r>  -10.2587    1.0000 </r>
       <r>  -10.2271    1.0000 </r>
       <r>  -10.2009    1.0000 </r>
       <r>  -10.0882    1.0000 </r>
       <r>  -10.0835    1.0000 </r>
       <r>   -9.6000    1.0000 </r>
       <r>   -9.0772    1.0000 </r>
       <r>   -8.0662    1.0000 </r>
       <r>   -7.3868    1.0000 </r>
       <r>   -2.0334    1.0000 </r>
       <r>   -1.5439    1.0000 </r>
       <r>   -1.5346    1.0000 </r>
       <r>   -1.1125    1.0000 </r>
       <r>   -1.0983    1.0000 </r>
       <r>   -1.0732    1.0000 </r>
       <r>   -0.0624    1.0000 </r>
       <r>    1.8574    1.0000 </r>
       <r>    2.0976    1.0000 </r>
       <r>    2.1043    1.0000 </r>
       <r>    2.4295    1.0000 </r>
       <r>    2.6362    1.0000 </r>
       <r>    2.8866    1.0000 </r>
       <r>    3.0842    1.0000 </r>
       <r>    3.5154    1.0000 </r>
       <r>    4.2768    1.0000 </r>
       <r>    4.4688    1.0000 </r>
       <r>    5.5763    0.0000 </r>
       <r>    6.3450    0.0000 </r>
       <r>    7.5189    0.0000 </r>
       <r>    7.9997    0.0000 </r>
       <r>    8.7562    0.0000 </r>
       <r>    9.1621    0.0000 </r>
       <r>    9.2115    0.0000 </r>
       <r>    9.7055    0.0000 </r>
       <r>    9.7980    0.0000 </r>
      </set>
      <set comment="kpoint 89">
       <r>  -10.9375    1.0000 </r>
       <r>  -10.7503    1.0000 </r>
       <r>  -10.7019    1.0000 </r>
       <r>  -10.5536    1.0000 </r>
       <r>  -10.5422    1.0000 </r>
       <r>  -10.2972    1.0000 </r>
       <r>  -10.2252    1.0000 </r>
       <r>  -10.1806    1.0000 </r>
       <r>  -10.0944    1.0000 </r>
       <r>  -10.0822    1.0000 </r>
       <r>   -9.4977    1.0000 </r>
       <r>   -9.0071    1.0000 </r>
       <r>   -7.9877    1.0000 </r>
       <r>   -7.3385    1.0000 </r>
       <r>   -2.0074    1.0000 </r>
       <r>   -1.5424    1.0000 </r>
       <r>   -1.5165    1.0000 </r>
       <r>   -1.1286    1.0000 </r>
       <r>   -1.0985    1.0000 </r>
       <r>   -1.0609    1.0000 </r>
       <r>   -0.0709    1.0000 </r>
       <r>    1.4568    1.0000 </r>
       <r>    1.8427    1.0000 </r>
       <r>    2.0525    1.0000 </r>
       <r>    2.1878    1.0000 </r>
       <r>    2.2809    1.0000 </r>
       <r>    2.8893    1.0000 </r>
       <r>    2.9571    1.0000 </r>
       <r>    3.7207    1.0000 </r>
       <r>    3.9386    1.0000 </r>
       <r>    4.3389    1.0000 </r>
       <r>    5.7440    0.0000 </r>
       <r>    6.5722    0.0000 </r>
       <r>    7.8721    0.0000 </r>
       <r>    8.2160    0.0000 </r>
       <r>    8.6103    0.0000 </r>
       <r>    8.9965    0.0000 </r>
       <r>    9.3861    0.0000 </r>
       <r>    9.8456    0.0000 </r>
       <r>   10.0343    0.0000 </r>
      </set>
      <set comment="kpoint 90">
       <r>  -10.9653    1.0000 </r>
       <r>  -10.7755    1.0000 </r>
       <r>  -10.6889    1.0000 </r>
       <r>  -10.5623    1.0000 </r>
       <r>  -10.5404    1.0000 </r>
       <r>  -10.3599    1.0000 </r>
       <r>  -10.2204    1.0000 </r>
       <r>  -10.1533    1.0000 </r>
       <r>  -10.1021    1.0000 </r>
       <r>  -10.0785    1.0000 </r>
       <r>   -9.3138    1.0000 </r>
       <r>   -8.8689    1.0000 </r>
       <r>   -7.8505    1.0000 </r>
       <r>   -7.2482    1.0000 </r>
       <r>   -1.9695    1.0000 </r>
       <r>   -1.5354    1.0000 </r>
       <r>   -1.4831    1.0000 </r>
       <r>   -1.1519    1.0000 </r>
       <r>   -1.0983    1.0000 </r>
       <r>   -1.0512    1.0000 </r>
       <r>   -0.1592    1.0000 </r>
       <r>    0.9060    1.0000 </r>
       <r>    1.4531    1.0000 </r>
       <r>    1.7282    1.0000 </r>
       <r>    1.8966    1.0000 </r>
       <r>    2.0220    1.0000 </r>
       <r>    2.5721    1.0000 </r>
       <r>    2.9785    1.0000 </r>
       <r>    3.3999    1.0000 </r>
       <r>    3.9647    1.0000 </r>
       <r>    4.1132    1.0000 </r>
       <r>    5.9392    0.0000 </r>
       <r>    6.7677    0.0000 </r>
       <r>    8.0128    0.0000 </r>
       <r>    8.4141    0.0000 </r>
       <r>    8.8065    0.0000 </r>
       <r>    8.9990    0.0000 </r>
       <r>    9.6243    0.0000 </r>
       <r>   10.1153    0.0000 </r>
       <r>   10.4526    0.0000 </r>
      </set>
      <set comment="kpoint 91">
       <r>  -11.0097    1.0000 </r>
       <r>  -10.7904    1.0000 </r>
       <r>  -10.6741    1.0000 </r>
       <r>  -10.5713    1.0000 </r>
       <r>  -10.5364    1.0000 </r>
       <r>  -10.4306    1.0000 </r>
       <r>  -10.2122    1.0000 </r>
       <r>  -10.1330    1.0000 </r>
       <r>  -10.1044    1.0000 </r>
       <r>  -10.0704    1.0000 </r>
       <r>   -9.0732    1.0000 </r>
       <r>   -8.6727    1.0000 </r>
       <r>   -7.6849    1.0000 </r>
       <r>   -7.1294    1.0000 </r>
       <r>   -1.9503    1.0000 </r>
       <r>   -1.5162    1.0000 </r>
       <r>   -1.4402    1.0000 </r>
       <r>   -1.1823    1.0000 </r>
       <r>   -1.0966    1.0000 </r>
       <r>   -1.0681    1.0000 </r>
       <r>   -0.4508    1.0000 </r>
       <r>    0.4346    1.0000 </r>
       <r>    1.0464    1.0000 </r>
       <r>    1.3761    1.0000 </r>
       <r>    1.6384    1.0000 </r>
       <r>    1.7276    1.0000 </r>
       <r>    2.2256    1.0000 </r>
       <r>    2.9110    1.0000 </r>
       <r>    3.0556    1.0000 </r>
       <r>    3.8376    1.0000 </r>
       <r>    4.0460    1.0000 </r>
       <r>    6.0622    0.0000 </r>
       <r>    6.7049    0.0000 </r>
       <r>    7.7246    0.0000 </r>
       <r>    8.7220    0.0000 </r>
       <r>    9.0965    0.0000 </r>
       <r>    9.2442    0.0000 </r>
       <r>    9.9201    0.0000 </r>
       <r>   10.3077    0.0000 </r>
       <r>   10.7584    0.0000 </r>
      </set>
      <set comment="kpoint 92">
       <r>  -11.0586    1.0000 </r>
       <r>  -10.7990    1.0000 </r>
       <r>  -10.6611    1.0000 </r>
       <r>  -10.5802    1.0000 </r>
       <r>  -10.5299    1.0000 </r>
       <r>  -10.4925    1.0000 </r>
       <r>  -10.2047    1.0000 </r>
       <r>  -10.1321    1.0000 </r>
       <r>  -10.0911    1.0000 </r>
       <r>  -10.0583    1.0000 </r>
       <r>   -8.8007    1.0000 </r>
       <r>   -8.4427    1.0000 </r>
       <r>   -7.5249    1.0000 </r>
       <r>   -7.0022    1.0000 </r>
       <r>   -1.9994    1.0000 </r>
       <r>   -1.4826    1.0000 </r>
       <r>   -1.3961    1.0000 </r>
       <r>   -1.2533    1.0000 </r>
       <r>   -1.1332    1.0000 </r>
       <r>   -1.0882    1.0000 </r>
       <r>   -0.8650    1.0000 </r>
       <r>    0.1138    1.0000 </r>
       <r>    0.7143    1.0000 </r>
       <r>    1.0949    1.0000 </r>
       <r>    1.3223    1.0000 </r>
       <r>    1.4978    1.0000 </r>
       <r>    1.9606    1.0000 </r>
       <r>    2.6845    1.0000 </r>
       <r>    2.9662    1.0000 </r>
       <r>    3.5922    1.0000 </r>
       <r>    4.0171    1.0000 </r>
       <r>    6.0560    0.0000 </r>
       <r>    6.5410    0.0000 </r>
       <r>    7.4662    0.0000 </r>
       <r>    8.8002    0.0000 </r>
       <r>    9.0450    0.0000 </r>
       <r>    9.5330    0.0000 </r>
       <r>   10.0983    0.0000 </r>
       <r>   10.3466    0.0000 </r>
       <r>   10.8772    0.0000 </r>
      </set>
      <set comment="kpoint 93">
       <r>  -11.0999    1.0000 </r>
       <r>  -10.8076    1.0000 </r>
       <r>  -10.6521    1.0000 </r>
       <r>  -10.5894    1.0000 </r>
       <r>  -10.5365    1.0000 </r>
       <r>  -10.5197    1.0000 </r>
       <r>  -10.2000    1.0000 </r>
       <r>  -10.1379    1.0000 </r>
       <r>  -10.0738    1.0000 </r>
       <r>  -10.0465    1.0000 </r>
       <r>   -8.5289    1.0000 </r>
       <r>   -8.2204    1.0000 </r>
       <r>   -7.4012    1.0000 </r>
       <r>   -6.8907    1.0000 </r>
       <r>   -2.1519    1.0000 </r>
       <r>   -1.5636    1.0000 </r>
       <r>   -1.3854    1.0000 </r>
       <r>   -1.3575    1.0000 </r>
       <r>   -1.1940    1.0000 </r>
       <r>   -1.0855    1.0000 </r>
       <r>   -1.0353    1.0000 </r>
       <r>   -0.1118    1.0000 </r>
       <r>    0.3921    1.0000 </r>
       <r>    0.8416    1.0000 </r>
       <r>    1.1083    1.0000 </r>
       <r>    1.3912    1.0000 </r>
       <r>    1.8129    1.0000 </r>
       <r>    2.5104    1.0000 </r>
       <r>    2.9061    1.0000 </r>
       <r>    3.3974    1.0000 </r>
       <r>    3.9243    1.0000 </r>
       <r>    5.9383    0.0000 </r>
       <r>    6.4543    0.0000 </r>
       <r>    7.2743    0.0000 </r>
       <r>    8.7183    0.0000 </r>
       <r>    8.8704    0.0000 </r>
       <r>    9.6021    0.0000 </r>
       <r>    9.9501    0.0000 </r>
       <r>   10.4163    0.0000 </r>
       <r>   11.0556    0.0000 </r>
      </set>
      <set comment="kpoint 94">
       <r>  -11.1269    1.0000 </r>
       <r>  -10.8161    1.0000 </r>
       <r>  -10.6473    1.0000 </r>
       <r>  -10.5984    1.0000 </r>
       <r>  -10.5558    1.0000 </r>
       <r>  -10.5134    1.0000 </r>
       <r>  -10.1978    1.0000 </r>
       <r>  -10.1426    1.0000 </r>
       <r>  -10.0602    1.0000 </r>
       <r>  -10.0391    1.0000 </r>
       <r>   -8.3086    1.0000 </r>
       <r>   -8.0619    1.0000 </r>
       <r>   -7.3313    1.0000 </r>
       <r>   -6.8164    1.0000 </r>
       <r>   -2.3355    1.0000 </r>
       <r>   -1.8192    1.0000 </r>
       <r>   -1.3593    1.0000 </r>
       <r>   -1.3355    1.0000 </r>
       <r>   -1.2365    1.0000 </r>
       <r>   -1.0787    1.0000 </r>
       <r>   -0.9688    1.0000 </r>
       <r>   -0.3061    1.0000 </r>
       <r>    0.0729    1.0000 </r>
       <r>    0.7730    1.0000 </r>
       <r>    0.9829    1.0000 </r>
       <r>    1.3571    1.0000 </r>
       <r>    1.7281    1.0000 </r>
       <r>    2.4092    1.0000 </r>
       <r>    2.8633    1.0000 </r>
       <r>    3.2732    1.0000 </r>
       <r>    3.8277    1.0000 </r>
       <r>    5.8302    0.0000 </r>
       <r>    6.4224    0.0000 </r>
       <r>    7.1420    0.0000 </r>
       <r>    8.6300    0.0000 </r>
       <r>    8.7304    0.0000 </r>
       <r>    9.5560    0.0000 </r>
       <r>    9.8517    0.0000 </r>
       <r>   10.3933    0.0000 </r>
       <r>   11.1201    0.0000 </r>
      </set>
      <set comment="kpoint 95">
       <r>  -11.1362    1.0000 </r>
       <r>  -10.8197    1.0000 </r>
       <r>  -10.6458    1.0000 </r>
       <r>  -10.6023    1.0000 </r>
       <r>  -10.5608    1.0000 </r>
       <r>  -10.5107    1.0000 </r>
       <r>  -10.1973    1.0000 </r>
       <r>  -10.1443    1.0000 </r>
       <r>  -10.0548    1.0000 </r>
       <r>  -10.0369    1.0000 </r>
       <r>   -8.2167    1.0000 </r>
       <r>   -8.0089    1.0000 </r>
       <r>   -7.3104    1.0000 </r>
       <r>   -6.7907    1.0000 </r>
       <r>   -2.4160    1.0000 </r>
       <r>   -1.9195    1.0000 </r>
       <r>   -1.3489    1.0000 </r>
       <r>   -1.3271    1.0000 </r>
       <r>   -1.2495    1.0000 </r>
       <r>   -1.0734    1.0000 </r>
       <r>   -0.8846    1.0000 </r>
       <r>   -0.4256    1.0000 </r>
       <r>   -0.0562    1.0000 </r>
       <r>    0.7757    1.0000 </r>
       <r>    0.9398    1.0000 </r>
       <r>    1.4009    1.0000 </r>
       <r>    1.6297    1.0000 </r>
       <r>    2.3893    1.0000 </r>
       <r>    2.8454    1.0000 </r>
       <r>    3.2296    1.0000 </r>
       <r>    3.7973    1.0000 </r>
       <r>    5.8076    0.0000 </r>
       <r>    6.4004    0.0000 </r>
       <r>    7.0672    0.0000 </r>
       <r>    8.6158    0.0000 </r>
       <r>    8.6926    0.0000 </r>
       <r>    9.5111    0.0000 </r>
       <r>    9.8304    0.0000 </r>
       <r>   10.3826    0.0000 </r>
       <r>   11.0825    0.0000 </r>
      </set>
      <set comment="kpoint 96">
       <r>  -11.1269    1.0000 </r>
       <r>  -10.8161    1.0000 </r>
       <r>  -10.6473    1.0000 </r>
       <r>  -10.5984    1.0000 </r>
       <r>  -10.5557    1.0000 </r>
       <r>  -10.5134    1.0000 </r>
       <r>  -10.1978    1.0000 </r>
       <r>  -10.1426    1.0000 </r>
       <r>  -10.0602    1.0000 </r>
       <r>  -10.0391    1.0000 </r>
       <r>   -8.3071    1.0000 </r>
       <r>   -8.0644    1.0000 </r>
       <r>   -7.3300    1.0000 </r>
       <r>   -6.8167    1.0000 </r>
       <r>   -2.3341    1.0000 </r>
       <r>   -1.8256    1.0000 </r>
       <r>   -1.3554    1.0000 </r>
       <r>   -1.3314    1.0000 </r>
       <r>   -1.2399    1.0000 </r>
       <r>   -1.0792    1.0000 </r>
       <r>   -0.9746    1.0000 </r>
       <r>   -0.2882    1.0000 </r>
       <r>    0.0603    1.0000 </r>
       <r>    0.7825    1.0000 </r>
       <r>    0.9817    1.0000 </r>
       <r>    1.4510    1.0000 </r>
       <r>    1.5900    1.0000 </r>
       <r>    2.4430    1.0000 </r>
       <r>    2.8493    1.0000 </r>
       <r>    3.2708    1.0000 </r>
       <r>    3.8575    1.0000 </r>
       <r>    5.8799    0.0000 </r>
       <r>    6.3734    0.0000 </r>
       <r>    7.0772    0.0000 </r>
       <r>    8.6647    0.0000 </r>
       <r>    8.7863    0.0000 </r>
       <r>    9.5401    0.0000 </r>
       <r>    9.8402    0.0000 </r>
       <r>   10.4007    0.0000 </r>
       <r>   11.0784    0.0000 </r>
      </set>
      <set comment="kpoint 97">
       <r>  -11.0999    1.0000 </r>
       <r>  -10.8077    1.0000 </r>
       <r>  -10.6521    1.0000 </r>
       <r>  -10.5894    1.0000 </r>
       <r>  -10.5365    1.0000 </r>
       <r>  -10.5197    1.0000 </r>
       <r>  -10.2000    1.0000 </r>
       <r>  -10.1379    1.0000 </r>
       <r>  -10.0738    1.0000 </r>
       <r>  -10.0465    1.0000 </r>
       <r>   -8.5268    1.0000 </r>
       <r>   -8.2240    1.0000 </r>
       <r>   -7.3984    1.0000 </r>
       <r>   -6.8919    1.0000 </r>
       <r>   -2.1489    1.0000 </r>
       <r>   -1.5857    1.0000 </r>
       <r>   -1.3712    1.0000 </r>
       <r>   -1.3471    1.0000 </r>
       <r>   -1.2003    1.0000 </r>
       <r>   -1.0874    1.0000 </r>
       <r>   -1.0441    1.0000 </r>
       <r>   -0.0608    1.0000 </r>
       <r>    0.3540    1.0000 </r>
       <r>    0.8388    1.0000 </r>
       <r>    1.1085    1.0000 </r>
       <r>    1.4575    1.0000 </r>
       <r>    1.6999    1.0000 </r>
       <r>    2.5687    1.0000 </r>
       <r>    2.8807    1.0000 </r>
       <r>    3.3918    1.0000 </r>
       <r>    3.9604    1.0000 </r>
       <r>    6.0048    0.0000 </r>
       <r>    6.3761    0.0000 </r>
       <r>    7.1971    0.0000 </r>
       <r>    8.7536    0.0000 </r>
       <r>    8.9662    0.0000 </r>
       <r>    9.6061    0.0000 </r>
       <r>    9.9077    0.0000 </r>
       <r>   10.4213    0.0000 </r>
       <r>   11.0433    0.0000 </r>
      </set>
      <set comment="kpoint 98">
       <r>  -11.0586    1.0000 </r>
       <r>  -10.7990    1.0000 </r>
       <r>  -10.6611    1.0000 </r>
       <r>  -10.5802    1.0000 </r>
       <r>  -10.5299    1.0000 </r>
       <r>  -10.4925    1.0000 </r>
       <r>  -10.2047    1.0000 </r>
       <r>  -10.1321    1.0000 </r>
       <r>  -10.0911    1.0000 </r>
       <r>  -10.0583    1.0000 </r>
       <r>   -8.7989    1.0000 </r>
       <r>   -8.4459    1.0000 </r>
       <r>   -7.5217    1.0000 </r>
       <r>   -7.0038    1.0000 </r>
       <r>   -1.9963    1.0000 </r>
       <r>   -1.4894    1.0000 </r>
       <r>   -1.3963    1.0000 </r>
       <r>   -1.2576    1.0000 </r>
       <r>   -1.1400    1.0000 </r>
       <r>   -1.0891    1.0000 </r>
       <r>   -0.8588    1.0000 </r>
       <r>    0.2013    1.0000 </r>
       <r>    0.6260    1.0000 </r>
       <r>    1.0633    1.0000 </r>
       <r>    1.3357    1.0000 </r>
       <r>    1.5204    1.0000 </r>
       <r>    1.9368    1.0000 </r>
       <r>    2.7519    1.0000 </r>
       <r>    2.9298    1.0000 </r>
       <r>    3.5841    1.0000 </r>
       <r>    4.0384    1.0000 </r>
       <r>    6.0721    0.0000 </r>
       <r>    6.5027    0.0000 </r>
       <r>    7.4248    0.0000 </r>
       <r>    8.8051    0.0000 </r>
       <r>    9.1234    0.0000 </r>
       <r>    9.5721    0.0000 </r>
       <r>   10.0540    0.0000 </r>
       <r>   10.3322    0.0000 </r>
       <r>   10.8871    0.0000 </r>
      </set>
      <set comment="kpoint 99">
       <r>  -11.0097    1.0000 </r>
       <r>  -10.7904    1.0000 </r>
       <r>  -10.6741    1.0000 </r>
       <r>  -10.5713    1.0000 </r>
       <r>  -10.5364    1.0000 </r>
       <r>  -10.4306    1.0000 </r>
       <r>  -10.2122    1.0000 </r>
       <r>  -10.1330    1.0000 </r>
       <r>  -10.1044    1.0000 </r>
       <r>  -10.0704    1.0000 </r>
       <r>   -9.0721    1.0000 </r>
       <r>   -8.6748    1.0000 </r>
       <r>   -7.6828    1.0000 </r>
       <r>   -7.1306    1.0000 </r>
       <r>   -1.9486    1.0000 </r>
       <r>   -1.5166    1.0000 </r>
       <r>   -1.4402    1.0000 </r>
       <r>   -1.1876    1.0000 </r>
       <r>   -1.0965    1.0000 </r>
       <r>   -1.0773    1.0000 </r>
       <r>   -0.4362    1.0000 </r>
       <r>    0.5179    1.0000 </r>
       <r>    0.9109    1.0000 </r>
       <r>    1.3793    1.0000 </r>
       <r>    1.6792    1.0000 </r>
       <r>    1.6948    1.0000 </r>
       <r>    2.2646    1.0000 </r>
       <r>    2.9694    1.0000 </r>
       <r>    3.0131    1.0000 </r>
       <r>    3.8269    1.0000 </r>
       <r>    4.0486    1.0000 </r>
       <r>    6.0418    0.0000 </r>
       <r>    6.7076    0.0000 </r>
       <r>    7.7380    0.0000 </r>
       <r>    8.6677    0.0000 </r>
       <r>    9.0849    0.0000 </r>
       <r>    9.3456    0.0000 </r>
       <r>    9.8860    0.0000 </r>
       <r>   10.3140    0.0000 </r>
       <r>   10.7674    0.0000 </r>
      </set>
      <set comment="kpoint 100">
       <r>  -10.9652    1.0000 </r>
       <r>  -10.7755    1.0000 </r>
       <r>  -10.6889    1.0000 </r>
       <r>  -10.5623    1.0000 </r>
       <r>  -10.5404    1.0000 </r>
       <r>  -10.3599    1.0000 </r>
       <r>  -10.2204    1.0000 </r>
       <r>  -10.1533    1.0000 </r>
       <r>  -10.1021    1.0000 </r>
       <r>  -10.0785    1.0000 </r>
       <r>   -9.3134    1.0000 </r>
       <r>   -8.8697    1.0000 </r>
       <r>   -7.8497    1.0000 </r>
       <r>   -7.2487    1.0000 </r>
       <r>   -1.9690    1.0000 </r>
       <r>   -1.5353    1.0000 </r>
       <r>   -1.4831    1.0000 </r>
       <r>   -1.1537    1.0000 </r>
       <r>   -1.0983    1.0000 </r>
       <r>   -1.0542    1.0000 </r>
       <r>   -0.1495    1.0000 </r>
       <r>    0.9397    1.0000 </r>
       <r>    1.3622    1.0000 </r>
       <r>    1.7417    1.0000 </r>
       <r>    1.9341    1.0000 </r>
       <r>    1.9990    1.0000 </r>
       <r>    2.6099    1.0000 </r>
       <r>    2.9755    1.0000 </r>
       <r>    3.4088    1.0000 </r>
       <r>    3.9445    1.0000 </r>
       <r>    4.1142    1.0000 </r>
       <r>    5.9268    0.0000 </r>
       <r>    6.7767    0.0000 </r>
       <r>    8.0462    0.0000 </r>
       <r>    8.4050    0.0000 </r>
       <r>    8.7176    0.0000 </r>
       <r>    9.0639    0.0000 </r>
       <r>    9.6147    0.0000 </r>
       <r>   10.1271    0.0000 </r>
       <r>   10.4752    0.0000 </r>
      </set>
      <set comment="kpoint 101">
       <r>  -11.0015    1.0000 </r>
       <r>  -10.7887    1.0000 </r>
       <r>  -10.6772    1.0000 </r>
       <r>  -10.5687    1.0000 </r>
       <r>  -10.5386    1.0000 </r>
       <r>  -10.4123    1.0000 </r>
       <r>  -10.2287    1.0000 </r>
       <r>  -10.1284    1.0000 </r>
       <r>  -10.1082    1.0000 </r>
       <r>  -10.0714    1.0000 </r>
       <r>   -9.1075    1.0000 </r>
       <r>   -8.7024    1.0000 </r>
       <r>   -7.7094    1.0000 </r>
       <r>   -7.1481    1.0000 </r>
       <r>   -1.9468    1.0000 </r>
       <r>   -1.5196    1.0000 </r>
       <r>   -1.4465    1.0000 </r>
       <r>   -1.1784    1.0000 </r>
       <r>   -1.0979    1.0000 </r>
       <r>   -1.0635    1.0000 </r>
       <r>   -0.3684    1.0000 </r>
       <r>    0.5845    1.0000 </r>
       <r>    1.0458    1.0000 </r>
       <r>    1.3573    1.0000 </r>
       <r>    1.5217    1.0000 </r>
       <r>    1.7984    1.0000 </r>
       <r>    2.5958    1.0000 </r>
       <r>    2.6778    1.0000 </r>
       <r>    3.0975    1.0000 </r>
       <r>    3.7835    1.0000 </r>
       <r>    4.0784    1.0000 </r>
       <r>    6.0835    0.0000 </r>
       <r>    6.8370    0.0000 </r>
       <r>    8.0567    0.0000 </r>
       <r>    8.5953    0.0000 </r>
       <r>    8.8593    0.0000 </r>
       <r>    9.3245    0.0000 </r>
       <r>    9.8102    0.0000 </r>
       <r>   10.3331    0.0000 </r>
       <r>   10.7377    0.0000 </r>
      </set>
      <set comment="kpoint 102">
       <r>  -11.0452    1.0000 </r>
       <r>  -10.7960    1.0000 </r>
       <r>  -10.6662    1.0000 </r>
       <r>  -10.5747    1.0000 </r>
       <r>  -10.5354    1.0000 </r>
       <r>  -10.4658    1.0000 </r>
       <r>  -10.2335    1.0000 </r>
       <r>  -10.1193    1.0000 </r>
       <r>  -10.1050    1.0000 </r>
       <r>  -10.0597    1.0000 </r>
       <r>   -8.8539    1.0000 </r>
       <r>   -8.4884    1.0000 </r>
       <r>   -7.5610    1.0000 </r>
       <r>   -7.0299    1.0000 </r>
       <r>   -1.9651    1.0000 </r>
       <r>   -1.4891    1.0000 </r>
       <r>   -1.4047    1.0000 </r>
       <r>   -1.2220    1.0000 </r>
       <r>   -1.1133    1.0000 </r>
       <r>   -1.0844    1.0000 </r>
       <r>   -0.7319    1.0000 </r>
       <r>    0.2684    1.0000 </r>
       <r>    0.7521    1.0000 </r>
       <r>    1.0426    1.0000 </r>
       <r>    1.2460    1.0000 </r>
       <r>    1.4833    1.0000 </r>
       <r>    2.2718    1.0000 </r>
       <r>    2.5578    1.0000 </r>
       <r>    2.8906    1.0000 </r>
       <r>    3.4744    1.0000 </r>
       <r>    4.1024    1.0000 </r>
       <r>    6.1928    0.0000 </r>
       <r>    6.7453    0.0000 </r>
       <r>    7.8838    0.0000 </r>
       <r>    8.7630    0.0000 </r>
       <r>    9.2790    0.0000 </r>
       <r>    9.4375    0.0000 </r>
       <r>    9.9589    0.0000 </r>
       <r>   10.4240    0.0000 </r>
       <r>   10.8522    0.0000 </r>
      </set>
      <set comment="kpoint 103">
       <r>  -11.0861    1.0000 </r>
       <r>  -10.8014    1.0000 </r>
       <r>  -10.6582    1.0000 </r>
       <r>  -10.5804    1.0000 </r>
       <r>  -10.5320    1.0000 </r>
       <r>  -10.5083    1.0000 </r>
       <r>  -10.2358    1.0000 </r>
       <r>  -10.1253    1.0000 </r>
       <r>  -10.0891    1.0000 </r>
       <r>  -10.0490    1.0000 </r>
       <r>   -8.5798    1.0000 </r>
       <r>   -8.2607    1.0000 </r>
       <r>   -7.4363    1.0000 </r>
       <r>   -6.9155    1.0000 </r>
       <r>   -2.0633    1.0000 </r>
       <r>   -1.4746    1.0000 </r>
       <r>   -1.3699    1.0000 </r>
       <r>   -1.3460    1.0000 </r>
       <r>   -1.1612    1.0000 </r>
       <r>   -1.0819    1.0000 </r>
       <r>   -1.0110    1.0000 </r>
       <r>    0.0214    1.0000 </r>
       <r>    0.4523    1.0000 </r>
       <r>    0.8005    1.0000 </r>
       <r>    1.0447    1.0000 </r>
       <r>    1.2345    1.0000 </r>
       <r>    2.0173    1.0000 </r>
       <r>    2.4004    1.0000 </r>
       <r>    2.7793    1.0000 </r>
       <r>    3.2237    1.0000 </r>
       <r>    4.0517    1.0000 </r>
       <r>    6.2036    0.0000 </r>
       <r>    6.6182    0.0000 </r>
       <r>    7.6876    0.0000 </r>
       <r>    8.8739    0.0000 </r>
       <r>    9.3504    0.0000 </r>
       <r>    9.4509    0.0000 </r>
       <r>   10.0325    0.0000 </r>
       <r>   10.5131    0.0000 </r>
       <r>   10.7716    0.0000 </r>
      </set>
      <set comment="kpoint 104">
       <r>  -11.1168    1.0000 </r>
       <r>  -10.8070    1.0000 </r>
       <r>  -10.6535    1.0000 </r>
       <r>  -10.5865    1.0000 </r>
       <r>  -10.5420    1.0000 </r>
       <r>  -10.5203    1.0000 </r>
       <r>  -10.2372    1.0000 </r>
       <r>  -10.1309    1.0000 </r>
       <r>  -10.0727    1.0000 </r>
       <r>  -10.0439    1.0000 </r>
       <r>   -8.3251    1.0000 </r>
       <r>   -8.0689    1.0000 </r>
       <r>   -7.3587    1.0000 </r>
       <r>   -6.8270    1.0000 </r>
       <r>   -2.2247    1.0000 </r>
       <r>   -1.7001    1.0000 </r>
       <r>   -1.3643    1.0000 </r>
       <r>   -1.3358    1.0000 </r>
       <r>   -1.2058    1.0000 </r>
       <r>   -1.0991    1.0000 </r>
       <r>   -0.9921    1.0000 </r>
       <r>   -0.1700    1.0000 </r>
       <r>    0.1746    1.0000 </r>
       <r>    0.6082    1.0000 </r>
       <r>    0.8041    1.0000 </r>
       <r>    1.2243    1.0000 </r>
       <r>    1.8662    1.0000 </r>
       <r>    2.2684    1.0000 </r>
       <r>    2.7222    1.0000 </r>
       <r>    3.0499    1.0000 </r>
       <r>    3.9606    1.0000 </r>
       <r>    6.1215    0.0000 </r>
       <r>    6.5734    0.0000 </r>
       <r>    7.5255    0.0000 </r>
       <r>    8.8720    0.0000 </r>
       <r>    9.2318    0.0000 </r>
       <r>    9.3897    0.0000 </r>
       <r>   10.0025    0.0000 </r>
       <r>   10.4938    0.0000 </r>
       <r>   10.9689    0.0000 </r>
      </set>
      <set comment="kpoint 105">
       <r>  -11.1331    1.0000 </r>
       <r>  -10.8112    1.0000 </r>
       <r>  -10.6514    1.0000 </r>
       <r>  -10.5915    1.0000 </r>
       <r>  -10.5519    1.0000 </r>
       <r>  -10.5182    1.0000 </r>
       <r>  -10.2379    1.0000 </r>
       <r>  -10.1341    1.0000 </r>
       <r>  -10.0592    1.0000 </r>
       <r>  -10.0455    1.0000 </r>
       <r>   -8.1536    1.0000 </r>
       <r>   -7.9672    1.0000 </r>
       <r>   -7.3289    1.0000 </r>
       <r>   -6.7797    1.0000 </r>
       <r>   -2.3497    1.0000 </r>
       <r>   -1.8796    1.0000 </r>
       <r>   -1.3475    1.0000 </r>
       <r>   -1.3214    1.0000 </r>
       <r>   -1.2298    1.0000 </r>
       <r>   -1.0890    1.0000 </r>
       <r>   -0.8833    1.0000 </r>
       <r>   -0.3445    1.0000 </r>
       <r>    0.0102    1.0000 </r>
       <r>    0.4921    1.0000 </r>
       <r>    0.6732    1.0000 </r>
       <r>    1.3092    1.0000 </r>
       <r>    1.7451    1.0000 </r>
       <r>    2.2058    1.0000 </r>
       <r>    2.7033    1.0000 </r>
       <r>    2.9597    1.0000 </r>
       <r>    3.8932    1.0000 </r>
       <r>    6.0586    0.0000 </r>
       <r>    6.5650    0.0000 </r>
       <r>    7.4188    0.0000 </r>
       <r>    8.8560    0.0000 </r>
       <r>    9.1537    0.0000 </r>
       <r>    9.3381    0.0000 </r>
       <r>    9.9601    0.0000 </r>
       <r>   10.4825    0.0000 </r>
       <r>   11.0309    0.0000 </r>
      </set>
      <set comment="kpoint 106">
       <r>  -11.1331    1.0000 </r>
       <r>  -10.8112    1.0000 </r>
       <r>  -10.6514    1.0000 </r>
       <r>  -10.5915    1.0000 </r>
       <r>  -10.5519    1.0000 </r>
       <r>  -10.5182    1.0000 </r>
       <r>  -10.2379    1.0000 </r>
       <r>  -10.1341    1.0000 </r>
       <r>  -10.0592    1.0000 </r>
       <r>  -10.0455    1.0000 </r>
       <r>   -8.1527    1.0000 </r>
       <r>   -7.9684    1.0000 </r>
       <r>   -7.3285    1.0000 </r>
       <r>   -6.7797    1.0000 </r>
       <r>   -2.3487    1.0000 </r>
       <r>   -1.8826    1.0000 </r>
       <r>   -1.3483    1.0000 </r>
       <r>   -1.3170    1.0000 </r>
       <r>   -1.2314    1.0000 </r>
       <r>   -1.0894    1.0000 </r>
       <r>   -0.8866    1.0000 </r>
       <r>   -0.3416    1.0000 </r>
       <r>    0.0267    1.0000 </r>
       <r>    0.4771    1.0000 </r>
       <r>    0.6519    1.0000 </r>
       <r>    1.4128    1.0000 </r>
       <r>    1.6304    1.0000 </r>
       <r>    2.2450    1.0000 </r>
       <r>    2.6840    1.0000 </r>
       <r>    2.9628    1.0000 </r>
       <r>    3.9060    1.0000 </r>
       <r>    6.0811    0.0000 </r>
       <r>    6.5385    0.0000 </r>
       <r>    7.3996    0.0000 </r>
       <r>    8.8795    0.0000 </r>
       <r>    9.1488    0.0000 </r>
       <r>    9.3552    0.0000 </r>
       <r>    9.9360    0.0000 </r>
       <r>   10.4995    0.0000 </r>
       <r>   11.0171    0.0000 </r>
      </set>
      <set comment="kpoint 107">
       <r>  -11.1168    1.0000 </r>
       <r>  -10.8070    1.0000 </r>
       <r>  -10.6535    1.0000 </r>
       <r>  -10.5865    1.0000 </r>
       <r>  -10.5420    1.0000 </r>
       <r>  -10.5203    1.0000 </r>
       <r>  -10.2372    1.0000 </r>
       <r>  -10.1309    1.0000 </r>
       <r>  -10.0727    1.0000 </r>
       <r>  -10.0439    1.0000 </r>
       <r>   -8.3236    1.0000 </r>
       <r>   -8.0714    1.0000 </r>
       <r>   -7.3573    1.0000 </r>
       <r>   -6.8274    1.0000 </r>
       <r>   -2.2223    1.0000 </r>
       <r>   -1.7108    1.0000 </r>
       <r>   -1.3621    1.0000 </r>
       <r>   -1.3248    1.0000 </r>
       <r>   -1.2100    1.0000 </r>
       <r>   -1.1020    1.0000 </r>
       <r>   -0.9980    1.0000 </r>
       <r>   -0.1538    1.0000 </r>
       <r>    0.2154    1.0000 </r>
       <r>    0.5499    1.0000 </r>
       <r>    0.7521    1.0000 </r>
       <r>    1.3972    1.0000 </r>
       <r>    1.6837    1.0000 </r>
       <r>    2.3755    1.0000 </r>
       <r>    2.6635    1.0000 </r>
       <r>    3.0549    1.0000 </r>
       <r>    3.9878    1.0000 </r>
       <r>    6.1771    0.0000 </r>
       <r>    6.5062    0.0000 </r>
       <r>    7.4818    0.0000 </r>
       <r>    8.9156    0.0000 </r>
       <r>    9.2432    0.0000 </r>
       <r>    9.4282    0.0000 </r>
       <r>    9.9521    0.0000 </r>
       <r>   10.4946    0.0000 </r>
       <r>   11.0011    0.0000 </r>
      </set>
      <set comment="kpoint 108">
       <r>  -11.0861    1.0000 </r>
       <r>  -10.8014    1.0000 </r>
       <r>  -10.6582    1.0000 </r>
       <r>  -10.5804    1.0000 </r>
       <r>  -10.5320    1.0000 </r>
       <r>  -10.5082    1.0000 </r>
       <r>  -10.2358    1.0000 </r>
       <r>  -10.1253    1.0000 </r>
       <r>  -10.0891    1.0000 </r>
       <r>  -10.0490    1.0000 </r>
       <r>   -8.5785    1.0000 </r>
       <r>   -8.2630    1.0000 </r>
       <r>   -7.4344    1.0000 </r>
       <r>   -6.9164    1.0000 </r>
       <r>   -2.0607    1.0000 </r>
       <r>   -1.4925    1.0000 </r>
       <r>   -1.3734    1.0000 </r>
       <r>   -1.3274    1.0000 </r>
       <r>   -1.1636    1.0000 </r>
       <r>   -1.0842    1.0000 </r>
       <r>   -1.0135    1.0000 </r>
       <r>    0.0630    1.0000 </r>
       <r>    0.4725    1.0000 </r>
       <r>    0.7125    1.0000 </r>
       <r>    1.0007    1.0000 </r>
       <r>    1.3486    1.0000 </r>
       <r>    1.9161    1.0000 </r>
       <r>    2.5395    1.0000 </r>
       <r>    2.6913    1.0000 </r>
       <r>    3.2253    1.0000 </r>
       <r>    4.0740    1.0000 </r>
       <r>    6.2369    0.0000 </r>
       <r>    6.5691    0.0000 </r>
       <r>    7.6511    0.0000 </r>
       <r>    8.8986    0.0000 </r>
       <r>    9.3568    0.0000 </r>
       <r>    9.5249    0.0000 </r>
       <r>   10.0120    0.0000 </r>
       <r>   10.4174    0.0000 </r>
       <r>   10.8531    0.0000 </r>
      </set>
      <set comment="kpoint 109">
       <r>  -11.0452    1.0000 </r>
       <r>  -10.7960    1.0000 </r>
       <r>  -10.6662    1.0000 </r>
       <r>  -10.5747    1.0000 </r>
       <r>  -10.5354    1.0000 </r>
       <r>  -10.4658    1.0000 </r>
       <r>  -10.2335    1.0000 </r>
       <r>  -10.1193    1.0000 </r>
       <r>  -10.1050    1.0000 </r>
       <r>  -10.0597    1.0000 </r>
       <r>   -8.8532    1.0000 </r>
       <r>   -8.4897    1.0000 </r>
       <r>   -7.5598    1.0000 </r>
       <r>   -7.0305    1.0000 </r>
       <r>   -1.9638    1.0000 </r>
       <r>   -1.4905    1.0000 </r>
       <r>   -1.4048    1.0000 </r>
       <r>   -1.2254    1.0000 </r>
       <r>   -1.1155    1.0000 </r>
       <r>   -1.0867    1.0000 </r>
       <r>   -0.7264    1.0000 </r>
       <r>    0.3151    1.0000 </r>
       <r>    0.7050    1.0000 </r>
       <r>    1.0075    1.0000 </r>
       <r>    1.2786    1.0000 </r>
       <r>    1.4791    1.0000 </r>
       <r>    2.2540    1.0000 </r>
       <r>    2.6253    1.0000 </r>
       <r>    2.8498    1.0000 </r>
       <r>    3.4720    1.0000 </r>
       <r>    4.1109    1.0000 </r>
       <r>    6.1895    0.0000 </r>
       <r>    6.7370    0.0000 </r>
       <r>    7.8805    0.0000 </r>
       <r>    8.7456    0.0000 </r>
       <r>    9.2504    0.0000 </r>
       <r>    9.5452    0.0000 </r>
       <r>    9.9528    0.0000 </r>
       <r>   10.3653    0.0000 </r>
       <r>   10.7396    0.0000 </r>
      </set>
      <set comment="kpoint 110">
       <r>  -11.0804    1.0000 </r>
       <r>  -10.7990    1.0000 </r>
       <r>  -10.6609    1.0000 </r>
       <r>  -10.5761    1.0000 </r>
       <r>  -10.5355    1.0000 </r>
       <r>  -10.4949    1.0000 </r>
       <r>  -10.2561    1.0000 </r>
       <r>  -10.1140    1.0000 </r>
       <r>  -10.1014    1.0000 </r>
       <r>  -10.0495    1.0000 </r>
       <r>   -8.5956    1.0000 </r>
       <r>   -8.2741    1.0000 </r>
       <r>   -7.4494    1.0000 </r>
       <r>   -6.9248    1.0000 </r>
       <r>   -2.0288    1.0000 </r>
       <r>   -1.4659    1.0000 </r>
       <r>   -1.3694    1.0000 </r>
       <r>   -1.3151    1.0000 </r>
       <r>   -1.1490    1.0000 </r>
       <r>   -1.0751    1.0000 </r>
       <r>   -0.9849    1.0000 </r>
       <r>    0.1140    1.0000 </r>
       <r>    0.4544    1.0000 </r>
       <r>    0.6768    1.0000 </r>
       <r>    1.0096    1.0000 </r>
       <r>    1.2711    1.0000 </r>
       <r>    2.1527    1.0000 </r>
       <r>    2.2719    1.0000 </r>
       <r>    2.7109    1.0000 </r>
       <r>    3.1395    1.0000 </r>
       <r>    4.1090    1.0000 </r>
       <r>    6.3222    0.0000 </r>
       <r>    6.7032    0.0000 </r>
       <r>    8.0020    0.0000 </r>
       <r>    8.7276    0.0000 </r>
       <r>    9.5212    0.0000 </r>
       <r>    9.6865    0.0000 </r>
       <r>   10.0493    0.0000 </r>
       <r>   10.5045    0.0000 </r>
       <r>   10.7490    0.0000 </r>
      </set>
      <set comment="kpoint 111">
       <r>  -11.1094    1.0000 </r>
       <r>  -10.8008    1.0000 </r>
       <r>  -10.6582    1.0000 </r>
       <r>  -10.5767    1.0000 </r>
       <r>  -10.5370    1.0000 </r>
       <r>  -10.5151    1.0000 </r>
       <r>  -10.2745    1.0000 </r>
       <r>  -10.1162    1.0000 </r>
       <r>  -10.0889    1.0000 </r>
       <r>  -10.0455    1.0000 </r>
       <r>   -8.3313    1.0000 </r>
       <r>   -8.0679    1.0000 </r>
       <r>   -7.3784    1.0000 </r>
       <r>   -6.8332    1.0000 </r>
       <r>   -2.1426    1.0000 </r>
       <r>   -1.6056    1.0000 </r>
       <r>   -1.3619    1.0000 </r>
       <r>   -1.3371    1.0000 </r>
       <r>   -1.1734    1.0000 </r>
       <r>   -1.1141    1.0000 </r>
       <r>   -1.0022    1.0000 </r>
       <r>   -0.0454    1.0000 </r>
       <r>    0.1604    1.0000 </r>
       <r>    0.4209    1.0000 </r>
       <r>    0.7748    1.0000 </r>
       <r>    1.1867    1.0000 </r>
       <r>    1.9581    1.0000 </r>
       <r>    2.0676    1.0000 </r>
       <r>    2.6060    1.0000 </r>
       <r>    2.9186    1.0000 </r>
       <r>    4.0484    1.0000 </r>
       <r>    6.3646    0.0000 </r>
       <r>    6.6422    0.0000 </r>
       <r>    7.9697    0.0000 </r>
       <r>    8.7962    0.0000 </r>
       <r>    9.5197    0.0000 </r>
       <r>    9.7393    0.0000 </r>
       <r>   10.1585    0.0000 </r>
       <r>   10.6242    0.0000 </r>
       <r>   10.9863    0.0000 </r>
      </set>
      <set comment="kpoint 112">
       <r>  -11.1283    1.0000 </r>
       <r>  -10.8020    1.0000 </r>
       <r>  -10.6572    1.0000 </r>
       <r>  -10.5778    1.0000 </r>
       <r>  -10.5390    1.0000 </r>
       <r>  -10.5250    1.0000 </r>
       <r>  -10.2860    1.0000 </r>
       <r>  -10.1189    1.0000 </r>
       <r>  -10.0736    1.0000 </r>
       <r>  -10.0491    1.0000 </r>
       <r>   -8.1082    1.0000 </r>
       <r>   -7.9241    1.0000 </r>
       <r>   -7.3555    1.0000 </r>
       <r>   -6.7724    1.0000 </r>
       <r>   -2.2561    1.0000 </r>
       <r>   -1.8113    1.0000 </r>
       <r>   -1.3461    1.0000 </r>
       <r>   -1.3199    1.0000 </r>
       <r>   -1.1996    1.0000 </r>
       <r>   -1.1111    1.0000 </r>
       <r>   -0.8986    1.0000 </r>
       <r>   -0.2039    1.0000 </r>
       <r>   -0.0059    1.0000 </r>
       <r>    0.2192    1.0000 </r>
       <r>    0.5603    1.0000 </r>
       <r>    1.2008    1.0000 </r>
       <r>    1.8088    1.0000 </r>
       <r>    1.9509    1.0000 </r>
       <r>    2.5599    1.0000 </r>
       <r>    2.8037    1.0000 </r>
       <r>    3.9722    1.0000 </r>
       <r>    6.3107    0.0000 </r>
       <r>    6.6376    0.0000 </r>
       <r>    7.8871    0.0000 </r>
       <r>    8.8495    0.0000 </r>
       <r>    9.4917    0.0000 </r>
       <r>    9.6721    0.0000 </r>
       <r>   10.1676    0.0000 </r>
       <r>   10.6752    0.0000 </r>
       <r>   11.2044    0.0000 </r>
      </set>
      <set comment="kpoint 113">
       <r>  -11.1349    1.0000 </r>
       <r>  -10.8025    1.0000 </r>
       <r>  -10.6570    1.0000 </r>
       <r>  -10.5787    1.0000 </r>
       <r>  -10.5398    1.0000 </r>
       <r>  -10.5278    1.0000 </r>
       <r>  -10.2899    1.0000 </r>
       <r>  -10.1200    1.0000 </r>
       <r>  -10.0600    1.0000 </r>
       <r>  -10.0585    1.0000 </r>
       <r>   -8.0081    1.0000 </r>
       <r>   -7.8807    1.0000 </r>
       <r>   -7.3561    1.0000 </r>
       <r>   -6.7513    1.0000 </r>
       <r>   -2.3032    1.0000 </r>
       <r>   -1.8942    1.0000 </r>
       <r>   -1.3425    1.0000 </r>
       <r>   -1.3126    1.0000 </r>
       <r>   -1.2089    1.0000 </r>
       <r>   -1.1033    1.0000 </r>
       <r>   -0.8181    1.0000 </r>
       <r>   -0.3236    1.0000 </r>
       <r>    0.0033    1.0000 </r>
       <r>    0.1335    1.0000 </r>
       <r>    0.4301    1.0000 </r>
       <r>    1.2672    1.0000 </r>
       <r>    1.7063    1.0000 </r>
       <r>    1.9312    1.0000 </r>
       <r>    2.5385    1.0000 </r>
       <r>    2.7764    1.0000 </r>
       <r>    3.9417    1.0000 </r>
       <r>    6.2842    0.0000 </r>
       <r>    6.6349    0.0000 </r>
       <r>    7.8443    0.0000 </r>
       <r>    8.8760    0.0000 </r>
       <r>    9.4479    0.0000 </r>
       <r>    9.6667    0.0000 </r>
       <r>   10.1489    0.0000 </r>
       <r>   10.7263    0.0000 </r>
       <r>   11.2396    0.0000 </r>
      </set>
      <set comment="kpoint 114">
       <r>  -11.1283    1.0000 </r>
       <r>  -10.8020    1.0000 </r>
       <r>  -10.6572    1.0000 </r>
       <r>  -10.5779    1.0000 </r>
       <r>  -10.5390    1.0000 </r>
       <r>  -10.5250    1.0000 </r>
       <r>  -10.2860    1.0000 </r>
       <r>  -10.1189    1.0000 </r>
       <r>  -10.0736    1.0000 </r>
       <r>  -10.0491    1.0000 </r>
       <r>   -8.1074    1.0000 </r>
       <r>   -7.9253    1.0000 </r>
       <r>   -7.3551    1.0000 </r>
       <r>   -6.7724    1.0000 </r>
       <r>   -2.2545    1.0000 </r>
       <r>   -1.8160    1.0000 </r>
       <r>   -1.3476    1.0000 </r>
       <r>   -1.3138    1.0000 </r>
       <r>   -1.1999    1.0000 </r>
       <r>   -1.1127    1.0000 </r>
       <r>   -0.9027    1.0000 </r>
       <r>   -0.2173    1.0000 </r>
       <r>    0.0750    1.0000 </r>
       <r>    0.1957    1.0000 </r>
       <r>    0.4743    1.0000 </r>
       <r>    1.3302    1.0000 </r>
       <r>    1.6627    1.0000 </r>
       <r>    2.0138    1.0000 </r>
       <r>    2.5529    1.0000 </r>
       <r>    2.8028    1.0000 </r>
       <r>    3.9842    1.0000 </r>
       <r>    6.3352    0.0000 </r>
       <r>    6.6079    0.0000 </r>
       <r>    7.8737    0.0000 </r>
       <r>    8.8653    0.0000 </r>
       <r>    9.4456    0.0000 </r>
       <r>    9.7105    0.0000 </r>
       <r>   10.1646    0.0000 </r>
       <r>   10.7384    0.0000 </r>
       <r>   11.2027    0.0000 </r>
      </set>
      <set comment="kpoint 115">
       <r>  -11.1094    1.0000 </r>
       <r>  -10.8008    1.0000 </r>
       <r>  -10.6582    1.0000 </r>
       <r>  -10.5767    1.0000 </r>
       <r>  -10.5370    1.0000 </r>
       <r>  -10.5151    1.0000 </r>
       <r>  -10.2745    1.0000 </r>
       <r>  -10.1162    1.0000 </r>
       <r>  -10.0889    1.0000 </r>
       <r>  -10.0455    1.0000 </r>
       <r>   -8.3306    1.0000 </r>
       <r>   -8.0690    1.0000 </r>
       <r>   -7.3777    1.0000 </r>
       <r>   -6.8334    1.0000 </r>
       <r>   -2.1412    1.0000 </r>
       <r>   -1.6128    1.0000 </r>
       <r>   -1.3621    1.0000 </r>
       <r>   -1.3292    1.0000 </r>
       <r>   -1.1731    1.0000 </r>
       <r>   -1.1175    1.0000 </r>
       <r>   -1.0044    1.0000 </r>
       <r>   -0.0524    1.0000 </r>
       <r>    0.2469    1.0000 </r>
       <r>    0.3588    1.0000 </r>
       <r>    0.7059    1.0000 </r>
       <r>    1.2871    1.0000 </r>
       <r>    1.8309    1.0000 </r>
       <r>    2.1626    1.0000 </r>
       <r>    2.5832    1.0000 </r>
       <r>    2.9214    1.0000 </r>
       <r>    4.0593    1.0000 </r>
       <r>    6.3899    0.0000 </r>
       <r>    6.6110    0.0000 </r>
       <r>    7.9528    0.0000 </r>
       <r>    8.8108    0.0000 </r>
       <r>    9.5064    0.0000 </r>
       <r>    9.7375    0.0000 </r>
       <r>   10.2212    0.0000 </r>
       <r>   10.5974    0.0000 </r>
       <r>   10.9916    0.0000 </r>
      </set>
      <set comment="kpoint 116">
       <r>  -11.1261    1.0000 </r>
       <r>  -10.7982    1.0000 </r>
       <r>  -10.6596    1.0000 </r>
       <r>  -10.5707    1.0000 </r>
       <r>  -10.5399    1.0000 </r>
       <r>  -10.5197    1.0000 </r>
       <r>  -10.3096    1.0000 </r>
       <r>  -10.1070    1.0000 </r>
       <r>  -10.0859    1.0000 </r>
       <r>  -10.0496    1.0000 </r>
       <r>   -8.0928    1.0000 </r>
       <r>   -7.9040    1.0000 </r>
       <r>   -7.3687    1.0000 </r>
       <r>   -6.7698    1.0000 </r>
       <r>   -2.2099    1.0000 </r>
       <r>   -1.7767    1.0000 </r>
       <r>   -1.3435    1.0000 </r>
       <r>   -1.3214    1.0000 </r>
       <r>   -1.1762    1.0000 </r>
       <r>   -1.1287    1.0000 </r>
       <r>   -0.9084    1.0000 </r>
       <r>   -0.1296    1.0000 </r>
       <r>   -0.0339    1.0000 </r>
       <r>    0.0855    1.0000 </r>
       <r>    0.5537    1.0000 </r>
       <r>    1.1943    1.0000 </r>
       <r>    1.7136    1.0000 </r>
       <r>    1.9110    1.0000 </r>
       <r>    2.4770    1.0000 </r>
       <r>    2.7770    1.0000 </r>
       <r>    4.0073    1.0000 </r>
       <r>    6.4239    0.0000 </r>
       <r>    6.6388    0.0000 </r>
       <r>    8.1129    0.0000 </r>
       <r>    8.8076    0.0000 </r>
       <r>    9.5870    0.0000 </r>
       <r>    9.8261    0.0000 </r>
       <r>   10.6748    0.0000 </r>
       <r>   10.6830    0.0000 </r>
       <r>   11.2922    0.0000 </r>
      </set>
      <set comment="kpoint 117">
       <r>  -11.1348    1.0000 </r>
       <r>  -10.7959    1.0000 </r>
       <r>  -10.6609    1.0000 </r>
       <r>  -10.5658    1.0000 </r>
       <r>  -10.5408    1.0000 </r>
       <r>  -10.5225    1.0000 </r>
       <r>  -10.3309    1.0000 </r>
       <r>  -10.1031    1.0000 </r>
       <r>  -10.0764    1.0000 </r>
       <r>  -10.0590    1.0000 </r>
       <r>   -7.9254    1.0000 </r>
       <r>   -7.8117    1.0000 </r>
       <r>   -7.3934    1.0000 </r>
       <r>   -6.7357    1.0000 </r>
       <r>   -2.2458    1.0000 </r>
       <r>   -1.8857    1.0000 </r>
       <r>   -1.3363    1.0000 </r>
       <r>   -1.3196    1.0000 </r>
       <r>   -1.1832    1.0000 </r>
       <r>   -1.1176    1.0000 </r>
       <r>   -0.7981    1.0000 </r>
       <r>   -0.2629    1.0000 </r>
       <r>   -0.1234    1.0000 </r>
       <r>   -0.0670    1.0000 </r>
       <r>    0.4674    1.0000 </r>
       <r>    1.0960    1.0000 </r>
       <r>    1.5761    1.0000 </r>
       <r>    1.8937    1.0000 </r>
       <r>    2.3833    1.0000 </r>
       <r>    2.7491    1.0000 </r>
       <r>    3.9623    1.0000 </r>
       <r>    6.3906    0.0000 </r>
       <r>    6.6614    0.0000 </r>
       <r>    8.1427    0.0000 </r>
       <r>    8.8433    0.0000 </r>
       <r>    9.6676    0.0000 </r>
       <r>    9.8334    0.0000 </r>
       <r>   10.6640    0.0000 </r>
       <r>   10.9475    0.0000 </r>
       <r>   11.5780    0.0000 </r>
      </set>
      <set comment="kpoint 118">
       <r>  -11.1348    1.0000 </r>
       <r>  -10.7959    1.0000 </r>
       <r>  -10.6609    1.0000 </r>
       <r>  -10.5658    1.0000 </r>
       <r>  -10.5408    1.0000 </r>
       <r>  -10.5225    1.0000 </r>
       <r>  -10.3309    1.0000 </r>
       <r>  -10.1031    1.0000 </r>
       <r>  -10.0764    1.0000 </r>
       <r>  -10.0590    1.0000 </r>
       <r>   -7.9252    1.0000 </r>
       <r>   -7.8120    1.0000 </r>
       <r>   -7.3934    1.0000 </r>
       <r>   -6.7357    1.0000 </r>
       <r>   -2.2454    1.0000 </r>
       <r>   -1.8867    1.0000 </r>
       <r>   -1.3369    1.0000 </r>
       <r>   -1.3184    1.0000 </r>
       <r>   -1.1828    1.0000 </r>
       <r>   -1.1180    1.0000 </r>
       <r>   -0.7992    1.0000 </r>
       <r>   -0.2672    1.0000 </r>
       <r>   -0.1254    1.0000 </r>
       <r>   -0.0477    1.0000 </r>
       <r>    0.4422    1.0000 </r>
       <r>    1.1234    1.0000 </r>
       <r>    1.5630    1.0000 </r>
       <r>    1.8896    1.0000 </r>
       <r>    2.3862    1.0000 </r>
       <r>    2.7479    1.0000 </r>
       <r>    3.9643    1.0000 </r>
       <r>    6.3935    0.0000 </r>
       <r>    6.6577    0.0000 </r>
       <r>    8.1418    0.0000 </r>
       <r>    8.8473    0.0000 </r>
       <r>    9.6310    0.0000 </r>
       <r>    9.8608    0.0000 </r>
       <r>   10.6639    0.0000 </r>
       <r>   11.0178    0.0000 </r>
       <r>   11.4385    0.0000 </r>
      </set>
      <set comment="kpoint 119">
       <r>  -11.1368    1.0000 </r>
       <r>  -10.7931    1.0000 </r>
       <r>  -10.6624    1.0000 </r>
       <r>  -10.5527    1.0000 </r>
       <r>  -10.5527    1.0000 </r>
       <r>  -10.5161    1.0000 </r>
       <r>  -10.3505    1.0000 </r>
       <r>  -10.0891    1.0000 </r>
       <r>  -10.0841    1.0000 </r>
       <r>  -10.0644    1.0000 </r>
       <r>   -7.8523    1.0000 </r>
       <r>   -7.7582    1.0000 </r>
       <r>   -7.4271    1.0000 </r>
       <r>   -6.7229    1.0000 </r>
       <r>   -2.2319    1.0000 </r>
       <r>   -1.9135    1.0000 </r>
       <r>   -1.3307    1.0000 </r>
       <r>   -1.3255    1.0000 </r>
       <r>   -1.1758    1.0000 </r>
       <r>   -1.1183    1.0000 </r>
       <r>   -0.7572    1.0000 </r>
       <r>   -0.2742    1.0000 </r>
       <r>   -0.2473    1.0000 </r>
       <r>   -0.1094    1.0000 </r>
       <r>    0.4880    1.0000 </r>
       <r>    0.9924    1.0000 </r>
       <r>    1.4527    1.0000 </r>
       <r>    1.9435    1.0000 </r>
       <r>    2.2944    1.0000 </r>
       <r>    2.7470    1.0000 </r>
       <r>    3.9544    1.0000 </r>
       <r>    6.3996    0.0000 </r>
       <r>    6.6691    0.0000 </r>
       <r>    8.2205    0.0000 </r>
       <r>    8.8543    0.0000 </r>
       <r>    9.7727    0.0000 </r>
       <r>    9.8553    0.0000 </r>
       <r>   10.9353    0.0000 </r>
       <r>   11.1679    0.0000 </r>
       <r>   11.6129    0.0000 </r>
      </set>
     </set>
    </set>
   </array>
  </eigenvalues>
  <separator name="orbital magnetization" >
   <v name="MAGDIPOLOUT">      0.00000000      0.00000000      0.00000000</v>
  </separator>
  <dos>
   <i name="efermi">      4.53934190 </i>
   <total>
    <array>
     <dimension dim="1">gridpoints</dimension>
     <dimension dim="2">spin</dimension>
     <field>energy</field>
     <field>total</field>
     <field>integrated</field>
     <set>
      <set comment="spin 1">
       <r>   -13.1368     0.0000     0.0000 </r>
       <r>   -13.0473     0.0000     0.0000 </r>
       <r>   -12.9578     0.0000     0.0000 </r>
       <r>   -12.8683     0.0000     0.0000 </r>
       <r>   -12.7788     0.0000     0.0000 </r>
       <r>   -12.6893     0.0000     0.0000 </r>
       <r>   -12.5998     0.0000     0.0000 </r>
       <r>   -12.5103     0.0000     0.0000 </r>
       <r>   -12.4208     0.0000     0.0000 </r>
       <r>   -12.3313     0.0000     0.0000 </r>
       <r>   -12.2418     0.0000     0.0000 </r>
       <r>   -12.1523     0.0000     0.0000 </r>
       <r>   -12.0628     0.0000     0.0000 </r>
       <r>   -11.9733     0.0000     0.0000 </r>
       <r>   -11.8838     0.0000     0.0000 </r>
       <r>   -11.7943     0.0000     0.0000 </r>
       <r>   -11.7049     0.0000     0.0000 </r>
       <r>   -11.6154     0.0000     0.0000 </r>
       <r>   -11.5259     0.0000     0.0000 </r>
       <r>   -11.4364     0.0000     0.0000 </r>
       <r>   -11.3469     0.0000     0.0000 </r>
       <r>   -11.2574     0.0000     0.0000 </r>
       <r>   -11.1679     0.0000     0.0000 </r>
       <r>   -11.0784     7.6991     1.1727 </r>
       <r>   -10.9889     4.3998     1.6807 </r>
       <r>   -10.8994     0.0000     2.0000 </r>
       <r>   -10.8099    38.5372     2.3560 </r>
       <r>   -10.7204     1.7287     3.9941 </r>
       <r>   -10.6309     0.0000     6.0000 </r>
       <r>   -10.5414   107.9207     8.6732 </r>
       <r>   -10.4519     4.1947    11.4919 </r>
       <r>   -10.3624     2.4753    11.7768 </r>
       <r>   -10.2729     9.0758    12.3008 </r>
       <r>   -10.1834    14.9632    14.0745 </r>
       <r>   -10.0939    38.9262    16.6549 </r>
       <r>   -10.0044     0.0000    20.0000 </r>
       <r>    -9.9149     0.0000    20.0000 </r>
       <r>    -9.8254     0.0000    20.0000 </r>
       <r>    -9.7359     0.0000    20.0000 </r>
       <r>    -9.6464     0.2294    20.0016 </r>
       <r>    -9.5569     0.6111    20.0537 </r>
       <r>    -9.4674     0.6710    20.1139 </r>
       <r>    -9.3779     0.7255    20.1754 </r>
       <r>    -9.2884     0.7575    20.2427 </r>
       <r>    -9.1989     0.8001    20.3121 </r>
       <r>    -9.1094     0.8863    20.3864 </r>
       <r>    -9.0199     1.8105    20.5280 </r>
       <r>    -8.9304     1.8527    20.6932 </r>
       <r>    -8.8409     1.9481    20.8661 </r>
       <r>    -8.7514     2.0522    21.0440 </r>
       <r>    -8.6619     2.1678    21.2340 </r>
       <r>    -8.5724     2.3272    21.4342 </r>
       <r>    -8.4829     2.5613    21.6526 </r>
       <r>    -8.3934     2.8618    21.8944 </r>
       <r>    -8.3039     3.5567    22.1709 </r>
       <r>    -8.2144     3.5414    22.5403 </r>
       <r>    -8.1249     3.8780    22.8656 </r>
       <r>    -8.0354     7.2780    23.3007 </r>
       <r>    -7.9459     4.0896    23.7650 </r>
       <r>    -7.8564     2.8185    24.1099 </r>
       <r>    -7.7669     1.5259    24.3330 </r>
       <r>    -7.6774     1.4166    24.4493 </r>
       <r>    -7.5879     1.6498    24.5860 </r>
       <r>    -7.4984     2.2848    24.7641 </r>
       <r>    -7.4089     5.8761    25.0466 </r>
       <r>    -7.3194     8.5628    26.0308 </r>
       <r>    -7.2299     1.5661    26.2258 </r>
       <r>    -7.1404     1.7756    26.3736 </r>
       <r>    -7.0509     2.1021    26.5470 </r>
       <r>    -6.9614     2.7239    26.7609 </r>
       <r>    -6.8719     4.1422    27.0545 </r>
       <r>    -6.7824     8.3791    27.6551 </r>
       <r>    -6.6929     0.0000    28.0000 </r>
       <r>    -6.6034     0.0000    28.0000 </r>
       <r>    -6.5139     0.0000    28.0000 </r>
       <r>    -6.4244     0.0000    28.0000 </r>
       <r>    -6.3349     0.0000    28.0000 </r>
       <r>    -6.2454     0.0000    28.0000 </r>
       <r>    -6.1559     0.0000    28.0000 </r>
       <r>    -6.0664     0.0000    28.0000 </r>
       <r>    -5.9769     0.0000    28.0000 </r>
       <r>    -5.8874     0.0000    28.0000 </r>
       <r>    -5.7979     0.0000    28.0000 </r>
       <r>    -5.7084     0.0000    28.0000 </r>
       <r>    -5.6189     0.0000    28.0000 </r>
       <r>    -5.5294     0.0000    28.0000 </r>
       <r>    -5.4399     0.0000    28.0000 </r>
       <r>    -5.3504     0.0000    28.0000 </r>
       <r>    -5.2609     0.0000    28.0000 </r>
       <r>    -5.1714     0.0000    28.0000 </r>
       <r>    -5.0819     0.0000    28.0000 </r>
       <r>    -4.9924     0.0000    28.0000 </r>
       <r>    -4.9029     0.0000    28.0000 </r>
       <r>    -4.8134     0.0000    28.0000 </r>
       <r>    -4.7239     0.0000    28.0000 </r>
       <r>    -4.6344     0.0000    28.0000 </r>
       <r>    -4.5449     0.0000    28.0000 </r>
       <r>    -4.4554     0.0000    28.0000 </r>
       <r>    -4.3659     0.0000    28.0000 </r>
       <r>    -4.2764     0.0000    28.0000 </r>
       <r>    -4.1869     0.0000    28.0000 </r>
       <r>    -4.0974     0.0000    28.0000 </r>
       <r>    -4.0079     0.0000    28.0000 </r>
       <r>    -3.9184     0.0000    28.0000 </r>
       <r>    -3.8289     0.0000    28.0000 </r>
       <r>    -3.7394     0.0000    28.0000 </r>
       <r>    -3.6499     0.0000    28.0000 </r>
       <r>    -3.5604     0.0000    28.0000 </r>
       <r>    -3.4709     0.0000    28.0000 </r>
       <r>    -3.3814     0.0000    28.0000 </r>
       <r>    -3.2919     0.0000    28.0000 </r>
       <r>    -3.2024     0.0000    28.0000 </r>
       <r>    -3.1129     0.0000    28.0000 </r>
       <r>    -3.0234     0.0000    28.0000 </r>
       <r>    -2.9339     0.0000    28.0000 </r>
       <r>    -2.8444     0.0000    28.0000 </r>
       <r>    -2.7549     0.0000    28.0000 </r>
       <r>    -2.6654     0.0000    28.0000 </r>
       <r>    -2.5759     0.0000    28.0000 </r>
       <r>    -2.4864     0.0000    28.0000 </r>
       <r>    -2.3969     1.8755    28.0645 </r>
       <r>    -2.3074     2.8946    28.2984 </r>
       <r>    -2.2179     3.4891    28.7224 </r>
       <r>    -2.1284     2.2061    28.9606 </r>
       <r>    -2.0389     2.9960    29.1652 </r>
       <r>    -1.9494     8.9943    29.6657 </r>
       <r>    -1.8599     4.6035    30.3127 </r>
       <r>    -1.7704     2.1698    30.5993 </r>
       <r>    -1.6809     1.8133    30.7741 </r>
       <r>    -1.5914     1.7870    30.9331 </r>
       <r>    -1.5019    15.8782    31.7802 </r>
       <r>    -1.4124     5.9949    32.5693 </r>
       <r>    -1.3229    37.4904    34.8362 </r>
       <r>    -1.2334    17.1664    35.7931 </r>
       <r>    -1.1439    10.0422    37.4124 </r>
       <r>    -1.0544     6.1667    39.9914 </r>
       <r>    -0.9649     5.2417    40.5376 </r>
       <r>    -0.8754     3.9480    41.0497 </r>
       <r>    -0.7859     2.4835    41.3290 </r>
       <r>    -0.6964     0.6273    41.4220 </r>
       <r>    -0.6069     0.5918    41.4764 </r>
       <r>    -0.5174     0.5694    41.5284 </r>
       <r>    -0.4279     0.5522    41.5784 </r>
       <r>    -0.3384     3.0167    41.7165 </r>
       <r>    -0.2489     3.9971    42.1158 </r>
       <r>    -0.1594     3.8432    42.4613 </r>
       <r>    -0.0699     6.1916    42.9015 </r>
       <r>     0.0196     6.6688    43.4167 </r>
       <r>     0.1091     4.6542    43.9189 </r>
       <r>     0.1986     3.7988    44.2943 </r>
       <r>     0.2881     3.3877    44.6162 </r>
       <r>     0.3776     3.1507    44.9058 </r>
       <r>     0.4671     4.1412    45.2104 </r>
       <r>     0.5566     4.5977    45.5887 </r>
       <r>     0.6461     5.9405    46.0464 </r>
       <r>     0.7356     4.4310    46.5141 </r>
       <r>     0.8251     4.1137    46.8919 </r>
       <r>     0.9146     3.4437    47.2315 </r>
       <r>     1.0041     3.8380    47.5523 </r>
       <r>     1.0936     3.8969    47.9121 </r>
       <r>     1.1831     5.4924    48.3025 </r>
       <r>     1.2726     5.4560    48.8104 </r>
       <r>     1.3621     5.7196    49.2993 </r>
       <r>     1.4516     5.6226    49.8530 </r>
       <r>     1.5411     4.8209    50.3008 </r>
       <r>     1.6306     8.1434    50.8263 </r>
       <r>     1.7201     6.6563    51.4974 </r>
       <r>     1.8096     5.4049    52.0339 </r>
       <r>     1.8991     6.0442    52.5027 </r>
       <r>     1.9886     4.3452    52.9444 </r>
       <r>     2.0781     3.8701    53.3086 </r>
       <r>     2.1676     3.1805    53.6457 </r>
       <r>     2.2571     3.3372    53.9411 </r>
       <r>     2.3466     3.7327    54.2512 </r>
       <r>     2.4361     5.2303    54.6414 </r>
       <r>     2.5256     4.3775    55.1020 </r>
       <r>     2.6151     3.9090    55.4848 </r>
       <r>     2.7046     3.5918    55.8208 </r>
       <r>     2.7941     4.5448    56.1893 </r>
       <r>     2.8836    10.9746    56.7279 </r>
       <r>     2.9731     9.0239    57.5594 </r>
       <r>     3.0626     5.6878    58.1054 </r>
       <r>     3.1521     1.9248    58.4119 </r>
       <r>     3.2416     1.7953    58.5745 </r>
       <r>     3.3311     2.2591    58.7600 </r>
       <r>     3.4206     2.1047    58.9656 </r>
       <r>     3.5101     1.6249    59.1260 </r>
       <r>     3.5996     1.5778    59.2693 </r>
       <r>     3.6891     1.4758    59.4073 </r>
       <r>     3.7786     1.5364    59.5286 </r>
       <r>     3.8681     3.1140    59.7262 </r>
       <r>     3.9576    12.0408    60.4729 </r>
       <r>     4.0471     7.3205    61.1949 </r>
       <r>     4.1366     1.5675    61.7112 </r>
       <r>     4.2261     0.8884    61.8049 </r>
       <r>     4.3156     0.7417    61.8746 </r>
       <r>     4.4051     0.6088    61.9378 </r>
       <r>     4.4946     0.5364    61.9900 </r>
       <r>     4.5841     0.0000    62.0000 </r>
       <r>     4.6736     0.0000    62.0000 </r>
       <r>     4.7631     0.0000    62.0000 </r>
       <r>     4.8526     0.0001    62.0000 </r>
       <r>     4.9421     0.0054    62.0002 </r>
       <r>     5.0316     0.0186    62.0012 </r>
       <r>     5.1211     0.0412    62.0038 </r>
       <r>     5.2106     0.0785    62.0093 </r>
       <r>     5.3001     0.1085    62.0177 </r>
       <r>     5.3896     0.1515    62.0291 </r>
       <r>     5.4791     0.2215    62.0453 </r>
       <r>     5.5686     0.4127    62.0705 </r>
       <r>     5.6581     0.9555    62.1300 </r>
       <r>     5.7476     1.5118    62.2416 </r>
       <r>     5.8371     1.7848    62.3914 </r>
       <r>     5.9266     2.2405    62.5671 </r>
       <r>     6.0161     3.5060    62.8207 </r>
       <r>     6.1056     2.8522    63.1260 </r>
       <r>     6.1951     2.4057    63.3527 </r>
       <r>     6.2846     3.6812    63.6201 </r>
       <r>     6.3741     5.8993    64.0428 </r>
       <r>     6.4636     3.6729    64.4664 </r>
       <r>     6.5531     3.6375    64.7783 </r>
       <r>     6.6426     7.1902    65.2132 </r>
       <r>     6.7321     4.7520    65.7700 </r>
       <r>     6.8216     0.8292    65.9970 </r>
       <r>     6.9111     0.4373    66.0183 </r>
       <r>     7.0006     1.0161    66.0840 </r>
       <r>     7.0901     1.0382    66.1785 </r>
       <r>     7.1796     1.0639    66.2719 </r>
       <r>     7.2691     1.1055    66.3686 </r>
       <r>     7.3586     1.2742    66.4745 </r>
       <r>     7.4481     1.4197    66.5956 </r>
       <r>     7.5376     1.4670    66.7251 </r>
       <r>     7.6271     1.5975    66.8623 </r>
       <r>     7.7166     1.7580    67.0118 </r>
       <r>     7.8061     2.1440    67.1816 </r>
       <r>     7.8956     3.6729    67.4289 </r>
       <r>     7.9851     2.9121    67.7759 </r>
       <r>     8.0746     1.3608    67.9560 </r>
       <r>     8.1641     0.7592    68.0553 </r>
       <r>     8.2536     0.5137    68.1038 </r>
       <r>     8.3431     0.6587    68.1562 </r>
       <r>     8.4326     0.8433    68.2238 </r>
       <r>     8.5221     1.2439    68.3051 </r>
       <r>     8.6116     2.7968    68.4727 </r>
       <r>     8.7011     6.4636    68.8802 </r>
       <r>     8.7906     8.0864    69.5319 </r>
       <r>     8.8801     6.3724    70.2683 </r>
       <r>     8.9696     2.5106    70.6406 </r>
       <r>     9.0591     3.3411    70.8914 </r>
       <r>     9.1486     4.5018    71.2425 </r>
       <r>     9.2381     2.8641    71.5497 </r>
       <r>     9.3276     2.9350    71.8048 </r>
       <r>     9.4171     3.9904    72.1006 </r>
       <r>     9.5066     6.8367    72.5796 </r>
       <r>     9.5961     6.1195    73.2007 </r>
       <r>     9.6856     6.0209    73.7166 </r>
       <r>     9.7751     6.0656    74.2687 </r>
       <r>     9.8646     6.1655    74.8202 </r>
       <r>     9.9541     5.4067    75.3856 </r>
       <r>    10.0436     3.4351    75.8015 </r>
       <r>    10.1331     2.5142    76.0466 </r>
       <r>    10.2226     2.2316    76.2556 </r>
       <r>    10.3121     3.0062    76.4834 </r>
       <r>    10.4016     4.4637    76.8337 </r>
       <r>    10.4911     4.9247    77.2360 </r>
       <r>    10.5806     5.6033    77.7391 </r>
       <r>    10.6701     4.4126    78.1287 </r>
       <r>    10.7596     3.4077    78.4400 </r>
       <r>    10.8491     3.3749    78.7362 </r>
       <r>    10.9386     3.3538    79.0477 </r>
       <r>    11.0281     4.5610    79.3807 </r>
       <r>    11.1176     1.9569    79.7069 </r>
       <r>    11.2071     0.7094    79.8076 </r>
       <r>    11.2966     0.5471    79.8617 </r>
       <r>    11.3861     0.4562    79.9065 </r>
       <r>    11.4756     0.4475    79.9455 </r>
       <r>    11.5651     0.3453    79.9834 </r>
       <r>    11.6546     0.0420    79.9992 </r>
       <r>    11.7441     0.0000    80.0000 </r>
       <r>    11.8336     0.0000    80.0000 </r>
       <r>    11.9231     0.0000    80.0000 </r>
       <r>    12.0126     0.0000    80.0000 </r>
       <r>    12.1021     0.0000    80.0000 </r>
       <r>    12.1916     0.0000    80.0000 </r>
       <r>    12.2811     0.0000    80.0000 </r>
       <r>    12.3706     0.0000    80.0000 </r>
       <r>    12.4601     0.0000    80.0000 </r>
       <r>    12.5496     0.0000    80.0000 </r>
       <r>    12.6391     0.0000    80.0000 </r>
       <r>    12.7286     0.0000    80.0000 </r>
       <r>    12.8181     0.0000    80.0000 </r>
       <r>    12.9076     0.0000    80.0000 </r>
       <r>    12.9971     0.0000    80.0000 </r>
       <r>    13.0866     0.0000    80.0000 </r>
       <r>    13.1761     0.0000    80.0000 </r>
       <r>    13.2656     0.0000    80.0000 </r>
       <r>    13.3551     0.0000    80.0000 </r>
       <r>    13.4446     0.0000    80.0000 </r>
       <r>    13.5341     0.0000    80.0000 </r>
       <r>    13.6236     0.0000    80.0000 </r>
       <r>    13.7131     0.0000    80.0000 </r>
      </set>
     </set>
    </array>
   </total>
  </dos>
 </calculation>
 <structure name="finalpos" >
  <crystal>
   <varray name="basis" >
    <v>       3.87828429       0.00000000       0.00000000 </v>
    <v>      -1.93914215       3.35869272       0.00000000 </v>
    <v>       0.00000000       0.00000000      12.14843313 </v>
   </varray>
   <i name="volume">    158.24506747 </i>
   <varray name="rec_basis" >
    <v>       0.25784598       0.14886744       0.00000000 </v>
    <v>       0.00000000       0.29773489       0.00000000 </v>
    <v>       0.00000000       0.00000000       0.08231514 </v>
   </varray>
  </crystal>
  <varray name="positions" >
   <v>       0.00000000       0.00000000       0.09678648 </v>
   <v>       0.33333334       0.66666669       0.38799482 </v>
   <v>       0.00000000       0.00000000       0.61769726 </v>
   <v>       0.66666669       0.33333334       0.87218345 </v>
   <v>       0.33333334       0.66666669       0.18624456 </v>
   <v>       0.66666669       0.33333334       0.51353990 </v>
   <v>       0.00000000       0.00000000       0.82655349 </v>
  </varray>
 </structure>
</modeling>
