  56  56   0   0
  0.2137364E+02  0.1061750E-08  0.1061750E-08  0.1061750E-08  0.5000000E-15
  1.000000000000000E-004
  CAR 
 ZnIn2S4 bulk k-point convergence        
     13.37825413    -11.95259846  301      4.19582007      1.00000000
    -11.953  0.0000E+00  0.0000E+00
    -11.868  0.0000E+00  0.0000E+00
    -11.784  0.0000E+00  0.0000E+00
    -11.699  0.0000E+00  0.0000E+00
    -11.615  0.0000E+00  0.0000E+00
    -11.530  0.0000E+00  0.0000E+00
    -11.446  0.0000E+00  0.0000E+00
    -11.362  0.0000E+00  0.0000E+00
    -11.277  0.0000E+00  0.0000E+00
    -11.193  0.0000E+00  0.0000E+00
    -11.108  0.0000E+00  0.0000E+00
    -11.024  0.0000E+00  0.0000E+00
    -10.939  0.0000E+00  0.0000E+00
    -10.855  0.0000E+00  0.0000E+00
    -10.770  0.0000E+00  0.0000E+00
    -10.686  0.0000E+00  0.0000E+00
    -10.602  0.0000E+00  0.0000E+00
    -10.517  0.0000E+00  0.0000E+00
    -10.433  0.0000E+00  0.0000E+00
    -10.348  0.0000E+00  0.0000E+00
    -10.264  0.0000E+00  0.0000E+00
    -10.179  0.0000E+00  0.0000E+00
    -10.095  0.0000E+00  0.0000E+00
    -10.011  0.0000E+00  0.0000E+00
     -9.926  0.1555E+03  0.3466E+01
     -9.842  0.1260E+03  0.1346E+02
     -9.757  0.7863E+02  0.2315E+02
     -9.673  0.6559E+02  0.2760E+02
     -9.588  0.1097E+03  0.3511E+02
     -9.504  0.2121E+03  0.4359E+02
     -9.420  0.4814E+03  0.6526E+02
     -9.335  0.8988E+03  0.9676E+02
     -9.251  0.5253E+03  0.1553E+03
     -9.166  0.0000E+00  0.1600E+03
     -9.082  0.0000E+00  0.1600E+03
     -8.997  0.0000E+00  0.1600E+03
     -8.913  0.0000E+00  0.1600E+03
     -8.828  0.4151E+01  0.1601E+03
     -8.744  0.7662E+01  0.1607E+03
     -8.660  0.1049E+02  0.1614E+03
     -8.575  0.1499E+02  0.1625E+03
     -8.491  0.1810E+02  0.1639E+03
     -8.406  0.1681E+02  0.1655E+03
     -8.322  0.1287E+02  0.1671E+03
     -8.237  0.6133E+01  0.1678E+03
     -8.153  0.1760E+02  0.1684E+03
     -8.069  0.3537E+02  0.1712E+03
     -7.984  0.1632E+02  0.1731E+03
     -7.900  0.1328E+02  0.1744E+03
     -7.815  0.9239E+01  0.1754E+03
     -7.731  0.6029E+01  0.1760E+03
     -7.646  0.4974E+02  0.1786E+03
     -7.562  0.2954E+02  0.1832E+03
     -7.477  0.1272E+02  0.1841E+03
     -7.393  0.4707E+02  0.1869E+03
     -7.309  0.3925E+02  0.1908E+03
     -7.224  0.3001E+02  0.1937E+03
     -7.140  0.2432E+02  0.1963E+03
     -7.055  0.3500E+02  0.2001E+03
     -6.971  0.3891E+02  0.2020E+03
     -6.886  0.3028E+02  0.2057E+03
     -6.802  0.2290E+02  0.2080E+03
     -6.718  0.8749E+02  0.2124E+03
     -6.633  0.8341E+02  0.2195E+03
     -6.549  0.1881E+02  0.2238E+03
     -6.464  0.0000E+00  0.2240E+03
     -6.380  0.0000E+00  0.2240E+03
     -6.295  0.0000E+00  0.2240E+03
     -6.211  0.0000E+00  0.2240E+03
     -6.127  0.0000E+00  0.2240E+03
     -6.042  0.0000E+00  0.2240E+03
     -5.958  0.0000E+00  0.2240E+03
     -5.873  0.0000E+00  0.2240E+03
     -5.789  0.0000E+00  0.2240E+03
     -5.704  0.0000E+00  0.2240E+03
     -5.620  0.0000E+00  0.2240E+03
     -5.535  0.0000E+00  0.2240E+03
     -5.451  0.0000E+00  0.2240E+03
     -5.367  0.0000E+00  0.2240E+03
     -5.282  0.0000E+00  0.2240E+03
     -5.198  0.0000E+00  0.2240E+03
     -5.113  0.0000E+00  0.2240E+03
     -5.029  0.0000E+00  0.2240E+03
     -4.944  0.0000E+00  0.2240E+03
     -4.860  0.0000E+00  0.2240E+03
     -4.776  0.0000E+00  0.2240E+03
     -4.691  0.0000E+00  0.2240E+03
     -4.607  0.0000E+00  0.2240E+03
     -4.522  0.0000E+00  0.2240E+03
     -4.438  0.0000E+00  0.2240E+03
     -4.353  0.0000E+00  0.2240E+03
     -4.269  0.0000E+00  0.2240E+03
     -4.184  0.0000E+00  0.2240E+03
     -4.100  0.0000E+00  0.2240E+03
     -4.016  0.0000E+00  0.2240E+03
     -3.931  0.0000E+00  0.2240E+03
     -3.847  0.0000E+00  0.2240E+03
     -3.762  0.0000E+00  0.2240E+03
     -3.678  0.0000E+00  0.2240E+03
     -3.593  0.0000E+00  0.2240E+03
     -3.509  0.0000E+00  0.2240E+03
     -3.425  0.0000E+00  0.2240E+03
     -3.340  0.0000E+00  0.2240E+03
     -3.256  0.0000E+00  0.2240E+03
     -3.171  0.0000E+00  0.2240E+03
     -3.087  0.0000E+00  0.2240E+03
     -3.002  0.0000E+00  0.2240E+03
     -2.918  0.0000E+00  0.2240E+03
     -2.833  0.0000E+00  0.2240E+03
     -2.749  0.0000E+00  0.2240E+03
     -2.665  0.0000E+00  0.2240E+03
     -2.580  0.0000E+00  0.2240E+03
     -2.496  0.0000E+00  0.2240E+03
     -2.411  0.0000E+00  0.2240E+03
     -2.327  0.0000E+00  0.2240E+03
     -2.242  0.0000E+00  0.2240E+03
     -2.158  0.0000E+00  0.2240E+03
     -2.074  0.7453E+02  0.2360E+03
     -1.989  0.9820E+02  0.2399E+03
     -1.905  0.2449E+03  0.2532E+03
     -1.820  0.6092E+02  0.2720E+03
     -1.736  0.2579E+01  0.3041E+03
     -1.651  0.2717E+01  0.3042E+03
     -1.567  0.5296E+01  0.3046E+03
     -1.483  0.7195E+01  0.3051E+03
     -1.398  0.1414E+02  0.3060E+03
     -1.314  0.2240E+02  0.3073E+03
     -1.229  0.2676E+02  0.3094E+03
     -1.145  0.2111E+02  0.3114E+03
     -1.060  0.2213E+02  0.3131E+03
     -0.976  0.2741E+02  0.3155E+03
     -0.891  0.6308E+02  0.3186E+03
     -0.807  0.4151E+02  0.3232E+03
     -0.723  0.3043E+02  0.3259E+03
     -0.638  0.1881E+02  0.3281E+03
     -0.554  0.3620E+02  0.3309E+03
     -0.469  0.2845E+02  0.3332E+03
     -0.385  0.1458E+02  0.3350E+03
     -0.300  0.3192E+02  0.3362E+03
     -0.216  0.1542E+02  0.3380E+03
     -0.132  0.9954E+01  0.3391E+03
     -0.047  0.5824E+01  0.3397E+03
      0.037  0.7354E+01  0.3403E+03
      0.122  0.8718E+01  0.3410E+03
      0.206  0.1165E+02  0.3418E+03
      0.291  0.1672E+02  0.3430E+03
      0.375  0.1228E+02  0.3442E+03
      0.460  0.1357E+02  0.3452E+03
      0.544  0.2503E+02  0.3467E+03
      0.628  0.3792E+02  0.3498E+03
      0.713  0.5077E+02  0.3531E+03
      0.797  0.2503E+02  0.3557E+03
      0.882  0.3112E+02  0.3581E+03
      0.966  0.3817E+02  0.3614E+03
      1.051  0.3577E+02  0.3650E+03
      1.135  0.2864E+02  0.3675E+03
      1.219  0.2169E+02  0.3700E+03
      1.304  0.3561E+02  0.3725E+03
      1.388  0.1840E+02  0.3752E+03
      1.473  0.3388E+02  0.3773E+03
      1.557  0.4048E+02  0.3808E+03
      1.642  0.4827E+02  0.3842E+03
      1.726  0.4713E+02  0.3881E+03
      1.810  0.3097E+02  0.3916E+03
      1.895  0.1319E+02  0.3932E+03
      1.979  0.3051E+02  0.3955E+03
      2.064  0.3176E+02  0.3981E+03
      2.148  0.5613E+02  0.4012E+03
      2.233  0.3698E+02  0.4047E+03
      2.317  0.5077E+02  0.4082E+03
      2.402  0.4310E+02  0.4132E+03
      2.486  0.5330E+02  0.4181E+03
      2.570  0.2872E+02  0.4216E+03
      2.655  0.1235E+02  0.4245E+03
      2.739  0.2906E+02  0.4256E+03
      2.824  0.3018E+02  0.4283E+03
      2.908  0.6841E+02  0.4331E+03
      2.993  0.4435E+02  0.4373E+03
      3.077  0.5438E+02  0.4419E+03
      3.161  0.4118E+02  0.4468E+03
      3.246  0.4503E+02  0.4512E+03
      3.330  0.6748E+02  0.4552E+03
      3.415  0.5576E+02  0.4589E+03
      3.499  0.5354E+02  0.4638E+03
      3.584  0.4789E+02  0.4684E+03
      3.668  0.5326E+02  0.4730E+03
      3.753  0.4316E+02  0.4763E+03
      3.837  0.3390E+02  0.4798E+03
      3.921  0.4104E+02  0.4834E+03
      4.006  0.2907E+02  0.4866E+03
      4.090  0.7507E+02  0.4912E+03
      4.175  0.1701E+01  0.4960E+03
      4.259  0.0000E+00  0.4960E+03
      4.344  0.0000E+00  0.4960E+03
      4.428  0.0000E+00  0.4960E+03
      4.512  0.0000E+00  0.4960E+03
      4.597  0.0000E+00  0.4960E+03
      4.681  0.0000E+00  0.4960E+03
      4.766  0.0000E+00  0.4960E+03
      4.850  0.0000E+00  0.4960E+03
      4.935  0.0000E+00  0.4960E+03
      5.019  0.0000E+00  0.4960E+03
      5.104  0.0000E+00  0.4960E+03
      5.188  0.0000E+00  0.4960E+03
      5.272  0.0000E+00  0.4960E+03
      5.357  0.0000E+00  0.4960E+03
      5.441  0.0000E+00  0.4960E+03
      5.526  0.2130E-02  0.4960E+03
      5.610  0.3452E-01  0.4960E+03
      5.695  0.1059E+00  0.4960E+03
      5.779  0.2366E+00  0.4960E+03
      5.863  0.4698E+00  0.4961E+03
      5.948  0.1227E+01  0.4961E+03
      6.032  0.2699E+01  0.4963E+03
      6.117  0.3652E+01  0.4965E+03
      6.201  0.4548E+01  0.4969E+03
      6.286  0.6008E+01  0.4973E+03
      6.370  0.8413E+01  0.4979E+03
      6.454  0.9676E+01  0.4987E+03
      6.539  0.1012E+02  0.4995E+03
      6.623  0.1215E+02  0.5005E+03
      6.708  0.1634E+02  0.5017E+03
      6.792  0.1444E+02  0.5030E+03
      6.877  0.1587E+02  0.5045E+03
      6.961  0.2291E+02  0.5058E+03
      7.046  0.1611E+02  0.5073E+03
      7.130  0.3833E+02  0.5094E+03
      7.214  0.2528E+02  0.5119E+03
      7.299  0.2789E+02  0.5141E+03
      7.383  0.3554E+02  0.5169E+03
      7.468  0.3450E+02  0.5199E+03
      7.552  0.3098E+02  0.5224E+03
      7.637  0.3392E+02  0.5249E+03
      7.721  0.1893E+02  0.5271E+03
      7.805  0.2972E+02  0.5291E+03
      7.890  0.8771E+01  0.5310E+03
      7.974  0.7846E+01  0.5317E+03
      8.059  0.5717E+01  0.5323E+03
      8.143  0.4966E+01  0.5328E+03
      8.228  0.4962E+01  0.5332E+03
      8.312  0.4958E+01  0.5336E+03
      8.397  0.5721E+01  0.5341E+03
      8.481  0.1320E+02  0.5347E+03
      8.565  0.1473E+02  0.5358E+03
      8.650  0.2180E+02  0.5374E+03
      8.734  0.2426E+02  0.5394E+03
      8.819  0.1934E+02  0.5412E+03
      8.903  0.2022E+02  0.5428E+03
      8.988  0.9422E+01  0.5441E+03
      9.072  0.2167E+02  0.5457E+03
      9.156  0.3144E+02  0.5483E+03
      9.241  0.3417E+02  0.5511E+03
      9.325  0.2340E+02  0.5539E+03
      9.410  0.1902E+02  0.5558E+03
      9.494  0.1847E+02  0.5571E+03
      9.579  0.2408E+02  0.5589E+03
      9.663  0.2053E+02  0.5609E+03
      9.747  0.2541E+02  0.5636E+03
      9.832  0.2040E+02  0.5652E+03
      9.916  0.1633E+02  0.5669E+03
     10.001  0.3507E+02  0.5689E+03
     10.085  0.3975E+02  0.5721E+03
     10.170  0.4309E+02  0.5757E+03
     10.254  0.3455E+02  0.5790E+03
     10.339  0.3275E+02  0.5822E+03
     10.423  0.2548E+02  0.5847E+03
     10.507  0.3771E+02  0.5874E+03
     10.592  0.5369E+02  0.5911E+03
     10.676  0.4952E+02  0.5954E+03
     10.761  0.3094E+02  0.5987E+03
     10.845  0.4353E+02  0.6023E+03
     10.930  0.2440E+02  0.6058E+03
     11.014  0.1168E+02  0.6074E+03
     11.098  0.2912E+01  0.6078E+03
     11.183  0.8901E+00  0.6080E+03
     11.267  0.2149E+00  0.6080E+03
     11.352  0.8893E-02  0.6080E+03
     11.436  0.0000E+00  0.6080E+03
     11.521  0.0000E+00  0.6080E+03
     11.605  0.0000E+00  0.6080E+03
     11.690  0.0000E+00  0.6080E+03
     11.774  0.0000E+00  0.6080E+03
     11.858  0.0000E+00  0.6080E+03
     11.943  0.0000E+00  0.6080E+03
     12.027  0.0000E+00  0.6080E+03
     12.112  0.0000E+00  0.6080E+03
     12.196  0.0000E+00  0.6080E+03
     12.281  0.0000E+00  0.6080E+03
     12.365  0.0000E+00  0.6080E+03
     12.449  0.0000E+00  0.6080E+03
     12.534  0.0000E+00  0.6080E+03
     12.618  0.0000E+00  0.6080E+03
     12.703  0.0000E+00  0.6080E+03
     12.787  0.0000E+00  0.6080E+03
     12.872  0.0000E+00  0.6080E+03
     12.956  0.0000E+00  0.6080E+03
     13.041  0.0000E+00  0.6080E+03
     13.125  0.0000E+00  0.6080E+03
     13.209  0.0000E+00  0.6080E+03
     13.294  0.0000E+00  0.6080E+03
     13.378  0.0000E+00  0.6080E+03
