       N       E                     dE             d eps       ncg     rms          rms(c)
DAV:   1     0.597160240301E+04    0.59716E+04   -0.19968E+05 12168   0.188E+03
DAV:   2     0.110517567435E+04   -0.48664E+04   -0.47182E+04 12160   0.519E+02
DAV:   3    -0.685871006446E+02   -0.11738E+04   -0.10877E+04 13072   0.234E+02
DAV:   4    -0.222555824818E+03   -0.15397E+03   -0.15069E+03 15792   0.791E+01
DAV:   5    -0.228786717575E+03   -0.62309E+01   -0.61729E+01 14552   0.182E+01    0.408E+01
DAV:   6    -0.215561907105E+03    0.13225E+02   -0.21365E+01 18040   0.489E+01    0.249E+01
DAV:   7    -0.216267663138E+03   -0.70576E+00   -0.37129E+01 17000   0.135E+01    0.886E+00
DAV:   8    -0.215791020007E+03    0.47664E+00   -0.31501E+00 15960   0.625E+00    0.592E+00
DAV:   9    -0.215793428487E+03   -0.24085E-02   -0.73186E-01 17272   0.177E+00    0.150E+00
DAV:  10    -0.215787086456E+03    0.63420E-02   -0.70487E-02 16592   0.117E+00    0.778E-01
DAV:  11    -0.215790715994E+03   -0.36295E-02   -0.14714E-02 17568   0.454E-01    0.265E-01
DAV:  12    -0.215790717629E+03   -0.16351E-05   -0.36376E-03 16064   0.344E-01    0.140E-01
DAV:  13    -0.215790693678E+03    0.23951E-04   -0.52529E-04 16896   0.817E-02    0.898E-02
DAV:  14    -0.215790767489E+03   -0.73811E-04   -0.21192E-04 14520   0.450E-02    0.170E-02
DAV:  15    -0.215790771024E+03   -0.35346E-05   -0.31613E-05 18248   0.246E-02    0.993E-03
DAV:  16    -0.215790773770E+03   -0.27467E-05   -0.10270E-05 13800   0.802E-03    0.675E-03
DAV:  17    -0.215790773280E+03    0.48991E-06   -0.15954E-06 14608   0.296E-03    0.258E-03
DAV:  18    -0.215790773279E+03    0.12733E-08   -0.27994E-07  9408   0.251E-03
   1 F= -.23374250E+03 E0= -.23374250E+03  d E =0.000000E+00
