 vasp.5.4.4.18Apr17-6-g9f103f2a35 (build Feb 10 2022 16:34:21) complex          
  
 executed on         VASP-optcell date 2026.09.03  14:11:17
 running on    8 total cores
 distrk:  each k-point on    8 cores,    1 groups
 distr:  one band on NCORES_PER_BAND=   1 cores,    8 groups


--------------------------------------------------------------------------------------------------------


 INCAR:
 POTCAR:    PAW_PBE S 06Sep2000                   
 POTCAR:    PAW_PBE Zn 06Sep2000                  
 POTCAR:    PAW_PBE In_d 06Sep2000                

 ----------------------------------------------------------------------------- 
|                                                                             |
|           W    W    AA    RRRRR   N    N  II  N    N   GGGG   !!!           |
|           W    W   A  A   R    R  NN   N  II  NN   N  G    G  !!!           |
|           W    W  A    A  R    R  N N  N  II  N N  N  G       !!!           |
|           W WW W  AAAAAA  RRRRR   N  N N  II  N  N N  G  GGG   !            |
|           WW  WW  A    A  R   R   N   NN  II  N   NN  G    G                |
|           W    W  A    A  R    R  N    N  II  N    N   GGGG   !!!           |
|                                                                             |
|      For optimal performance we recommend to set                            |
|        NCORE= 4 - approx SQRT( number of cores)                             |
|      NCORE specifies how many cores store one orbital (NPAR=cpu/NCORE).     |
|      This setting can  greatly improve the performance of VASP for DFT.     |
|      The default,   NCORE=1            might be grossly inefficient         |
|      on modern multi-core architectures or massively parallel machines.     |
|      Do your own testing !!!!                                               |
|      Unfortunately you need to use the default for GW and RPA calculations. |
|      (for HF NCORE is supported but not extensively tested yet)             |
|                                                                             |
 ----------------------------------------------------------------------------- 

 POTCAR:    PAW_PBE S 06Sep2000                   
   VRHFIN =S : s2p4                                                             
   LEXCH  = PE                                                                  
   EATOM  =   276.8230 eV,   20.3459 Ry                                         
                                                                                
   TITEL  = PAW_PBE S 06Sep2000                                                 
   LULTRA =        F    use ultrasoft PP ?                                      
   IUNSCR =        1    unscreen: 0-lin 1-nonlin 2-no                           
   RPACOR =    1.500    partial core radius                                     
   POMASS =   32.066; ZVAL   =    6.000    mass and valenz                      
   RCORE  =    1.900    outmost cutoff radius                                   
   RWIGS  =    2.200; RWIGS  =    1.164    wigner-seitz radius (au A)           
   ENMAX  =  258.689; ENMIN  =  194.016 eV                                      
   ICORE  =        2    local potential                                         
   LCOR   =        T    correct aug charges                                     
   LPAW   =        T    paw PP                                                  
   EAUG   =  335.092                                                            
   DEXC   =    0.000                                                            
   RMAX   =    1.942    core radius for proj-oper                               
   RAUG   =    1.300    factor for augmentation sphere                          
   RDEP   =    1.954    radius for radial grids                                 
   RDEPT  =    1.744    core radius for aug-charge                              
                                                                                
   Atomic configuration                                                         
    6 entries                                                                   
     n  l   j            E        occ.                                          
     1  0  0.50     -2405.8406   2.0000                                         
     2  0  0.50      -211.7007   2.0000                                         
     2  1  1.50      -156.4958   6.0000                                         
     3  0  0.50       -17.2562   2.0000                                         
     3  1  0.50        -7.0085   4.0000                                         
     3  2  1.50        -6.8029   0.0000                                         
   Description                                                                  
     l       E           TYP  RCUT    TYP  RCUT                                 
     0    -17.2561641     23  1.900                                             
     0    -15.8743224     23  1.900                                             
     1     -7.0085400     23  1.900                                             
     1     -2.7779785     23  1.900                                             
     2     -6.8029130     23  1.900                                             
  local pseudopotential read in
  partial core-charges read in
  partial kinetic energy density read in
  atomic valenz-charges read in
  non local Contribution for L=           0  read in
    real space projection operators read in
  non local Contribution for L=           0  read in
    real space projection operators read in
  non local Contribution for L=           1  read in
    real space projection operators read in
  non local Contribution for L=           1  read in
    real space projection operators read in
    PAW grid and wavefunctions read in
 
   number of l-projection  operators is LMAX  =           4
   number of lm-projection operators is LMMAX =           8
 
 POTCAR:    PAW_PBE Zn 06Sep2000                  
   VRHFIN =Zn: d10 p2                                                           
   LEXCH  = PE                                                                  
   EATOM  =  1748.8345 eV,  128.5357 Ry                                         
                                                                                
   TITEL  = PAW_PBE Zn 06Sep2000                                                
   LULTRA =        F    use ultrasoft PP ?                                      
   IUNSCR =        1    unscreen: 0-lin 1-nonlin 2-no                           
   RPACOR =    2.000    partial core radius                                     
   POMASS =   65.390; ZVAL   =   12.000    mass and valenz                      
   RCORE  =    2.300    outmost cutoff radius                                   
   RWIGS  =    2.400; RWIGS  =    1.270    wigner-seitz radius (au A)           
   ENMAX  =  276.723; ENMIN  =  207.542 eV                                      
   RCLOC  =    1.828    cutoff for local pot                                    
   LCOR   =        T    correct aug charges                                     
   LPAW   =        T    paw PP                                                  
   EAUG   =  575.892                                                            
   DEXC   =    0.000                                                            
   RMAX   =    2.347    core radius for proj-oper                               
   RAUG   =    1.300    factor for augmentation sphere                          
   RDEP   =    2.324    radius for radial grids                                 
   RDEPT  =    1.788    core radius for aug-charge                              
                                                                                
   Atomic configuration                                                         
    9 entries                                                                   
     n  l   j            E        occ.                                          
     1  0  0.50     -9524.6913   2.0000                                         
     2  0  0.50     -1158.1882   2.0000                                         
     2  1  1.50     -1003.8506   6.0000                                         
     3  0  0.50      -129.2194   2.0000                                         
     3  1  1.50       -83.3890   6.0000                                         
     3  2  2.50       -10.1410  10.0000                                         
     4  0  0.50        -5.9785   2.0000                                         
     4  1  0.50        -4.0817   0.0000                                         
     4  3  2.50        -1.3606   0.0000                                         
   Description                                                                  
     l       E           TYP  RCUT    TYP  RCUT                                 
     2    -10.1410010     23  2.300                                             
     2    -11.5015836     23  2.300                                             
     0     -5.9785163     23  2.300                                             
     0      1.1858015     23  2.300                                             
     1     -2.7211652     23  2.300                                             
     1     13.2444212     23  2.300                                             
  local pseudopotential read in
  partial core-charges read in
  partial kinetic energy density read in
  atomic valenz-charges read in
  non local Contribution for L=           2  read in
    real space projection operators read in
  non local Contribution for L=           2  read in
    real space projection operators read in
  non local Contribution for L=           0  read in
    real space projection operators read in
  non local Contribution for L=           0  read in
    real space projection operators read in
  non local Contribution for L=           1  read in
    real space projection operators read in
  non local Contribution for L=           1  read in
    real space projection operators read in
    PAW grid and wavefunctions read in
 
   number of l-projection  operators is LMAX  =           6
   number of lm-projection operators is LMMAX =          18
 
 POTCAR:    PAW_PBE In_d 06Sep2000                
   VRHFIN =In: s2p1                                                             
   LEXCH  = PE                                                                  
   EATOM  =  1576.8302 eV,  115.8937 Ry                                         
                                                                                
   TITEL  = PAW_PBE In_d 06Sep2000                                              
   LULTRA =        F    use ultrasoft PP ?                                      
   IUNSCR =        1    unscreen: 0-lin 1-nonlin 2-no                           
   RPACOR =    2.200    partial core radius                                     
   POMASS =  114.820; ZVAL   =   13.000    mass and valenz                      
   RCORE  =    2.500    outmost cutoff radius                                   
   RWIGS  =    3.170; RWIGS  =    1.677    wigner-seitz radius (au A)           
   ENMAX  =  239.211; ENMIN  =  179.409 eV                                      
   ICORE  =        3    local potential                                         
   LCOR   =        T    correct aug charges                                     
   LPAW   =        T    paw PP                                                  
   EAUG   =  449.704                                                            
   DEXC   =    0.000                                                            
   RMAX   =    2.552    core radius for proj-oper                               
   RAUG   =    1.300    factor for augmentation sphere                          
   RDEP   =    2.630    radius for radial grids                                 
   RDEPT  =    2.033    core radius for aug-charge                              
                                                                                
   Atomic configuration                                                         
   12 entries                                                                   
     n  l   j            E        occ.                                          
     1  0  0.50    -27747.9169   2.0000                                         
     2  0  0.50     -4154.4438   2.0000                                         
     2  1  1.50     -3728.4305   6.0000                                         
     3  0  0.50      -788.3680   2.0000                                         
     3  1  1.50      -648.9215   6.0000                                         
     3  2  2.50      -432.5893  10.0000                                         
     4  0  0.50      -119.6363   2.0000                                         
     4  1  1.50       -78.1086   6.0000                                         
     4  2  2.50       -18.6227  10.0000                                         
     5  0  0.50        -8.2107   2.0000                                         
     5  1  0.50        -2.5185   1.0000                                         
     4  3  2.50        -2.7212   0.0000                                         
   Description                                                                  
     l       E           TYP  RCUT    TYP  RCUT                                 
     2    -18.6226981     23  2.500                                             
     2     -1.3605826     23  2.500                                             
     0     -8.2107305     23  2.500                                             
     0     -6.1485975     23  2.500                                             
     1     -2.5184867     23  2.500                                             
     1      3.2427302     23  2.500                                             
     3     -1.3605826      7  2.500                                             
  local pseudopotential read in
  partial core-charges read in
  partial kinetic energy density read in
  atomic valenz-charges read in
  non local Contribution for L=           2  read in
    real space projection operators read in
  non local Contribution for L=           2  read in
    real space projection operators read in
  non local Contribution for L=           0  read in
    real space projection operators read in
  non local Contribution for L=           0  read in
    real space projection operators read in
  non local Contribution for L=           1  read in
    real space projection operators read in
  non local Contribution for L=           1  read in
    real space projection operators read in
    PAW grid and wavefunctions read in
 
   number of l-projection  operators is LMAX  =           6
   number of lm-projection operators is LMMAX =          18
 

 ----------------------------------------------------------------------------- 
|                                                                             |
|  ADVICE TO THIS USER RUNNING 'VASP/VAMP'   (HEAR YOUR MASTER'S VOICE ...):  |
|                                                                             |
|      You have a (more or less) 'large supercell' and for larger cells       |
|      it might be more efficient to use real space projection opertators     |
|      So try LREAL= Auto  in the INCAR   file.                               |
|      Mind:          For very  accurate calculation you might also keep the  |
|      reciprocal projection scheme          (i.e. LREAL=.FALSE.)             |
|                                                                             |
 ----------------------------------------------------------------------------- 

  PAW_PBE S 06Sep2000                   :
 energy of atom  1       EATOM= -276.8230
 kinetic energy error for atom=    0.0020 (will be added to EATOM!!)
  PAW_PBE Zn 06Sep2000                  :
 energy of atom  2       EATOM=-1748.8345
 kinetic energy error for atom=    0.0029 (will be added to EATOM!!)
  PAW_PBE In_d 06Sep2000                :
 energy of atom  3       EATOM=-1576.8302
 kinetic energy error for atom=    0.0036 (will be added to EATOM!!)
 
 
 POSCAR: In2 S4 Zn                               
  positions in direct lattice
  velocities in cartesian coordinates
 exchange correlation table for  LEXCH =        8
   RHO(1)=    0.500       N(1)  =     2000
   RHO(2)=  100.500       N(2)  =     4000
 


--------------------------------------------------------------------------------------------------------


 ion  position               nearest neighbor table
   1  0.371  0.371  0.371-  33 2.37  51 2.61  50 2.61  55 2.61
   2  0.629  0.129  0.871-  34 2.37  47 2.61  53 2.61  52 2.61
   3  0.129  0.871  0.629-  35 2.37  45 2.61  54 2.61  48 2.61
   4  0.871  0.629  0.129-  36 2.37  46 2.61  49 2.61  56 2.61
   5  0.121  0.621  0.379-  37 2.37  46 2.61  48 2.61  55 2.61
   6  0.879  0.879  0.879-  38 2.37  49 2.61  52 2.61  54 2.61
   7  0.621  0.379  0.121-  39 2.37  47 2.61  56 2.61  51 2.61
   8  0.379  0.121  0.621-  40 2.37  45 2.61  53 2.61  50 2.61
   9  0.621  0.121  0.379-  39 2.37  44 2.61  53 2.61  50 2.61
  10  0.121  0.379  0.621-  40 2.37  42 2.61  48 2.61  55 2.61
  11  0.379  0.621  0.121-  37 2.37  43 2.61  56 2.61  51 2.61
  12  0.129  0.629  0.871-  36 2.37  43 2.61  48 2.61  54 2.61
  13  0.629  0.871  0.129-  34 2.37  44 2.61  49 2.61  56 2.61
  14  0.871  0.129  0.629-  35 2.37  42 2.61  52 2.61  53 2.61
  15  0.371  0.871  0.871-  34 2.37  54 2.61  45 2.61  43 2.61
  16  0.629  0.629  0.371-  33 2.37  56 2.61  46 2.61  44 2.61
  17  0.129  0.371  0.129-  36 2.37  55 2.61  51 2.61  41 2.61
  18  0.121  0.121  0.879-  40 2.37  52 2.61  54 2.61  41 2.61
  19  0.879  0.379  0.379-  39 2.37  42 2.61  46 2.61  55 2.61
  20  0.621  0.879  0.621-  38 2.37  44 2.61  45 2.61  53 2.61
  21  0.621  0.621  0.879-  38 2.37  43 2.61  47 2.61  56 2.61
  22  0.121  0.879  0.121-  37 2.37  49 2.61  54 2.61  41 2.61
  23  0.129  0.129  0.371-  35 2.37  41 2.61  50 2.61  55 2.61
  24  0.629  0.371  0.629-  33 2.37  53 2.61  47 2.61  42 2.61
  25  0.871  0.371  0.871-  36 2.37  52 2.61  42 2.61  47 2.61
  26  0.371  0.629  0.629-  33 2.37  48 2.61  43 2.61  45 2.61
  27  0.379  0.879  0.379-  37 2.37  44 2.61  45 2.61  50 2.61
  28  0.879  0.121  0.121-  39 2.37  49 2.61  52 2.61  41 2.61
  29  0.879  0.621  0.621-  38 2.37  42 2.61  46 2.61  48 2.61
  30  0.371  0.129  0.129-  34 2.37  50 2.61  41 2.61  51 2.61
  31  0.871  0.871  0.371-  35 2.37  49 2.61  46 2.61  44 2.61
  32  0.379  0.379  0.879-  40 2.37  43 2.61  47 2.61  51 2.61
  33  0.500  0.500  0.500-  16 2.37  24 2.37  26 2.37   1 2.37
  34  0.500  0.000  0.000-   2 2.37  13 2.37  15 2.37  30 2.37
  35  0.000  0.000  0.500-   3 2.37  14 2.37  31 2.37  23 2.37
  36  0.000  0.500  0.000-   4 2.37  12 2.37  25 2.37  17 2.37
  37  0.250  0.750  0.250-   5 2.37  11 2.37  22 2.37  27 2.37
  38  0.750  0.750  0.750-   6 2.37  20 2.37  21 2.37  29 2.37
  39  0.750  0.250  0.250-   7 2.37   9 2.37  19 2.37  28 2.37
  40  0.250  0.250  0.750-   8 2.37  10 2.37  18 2.37  32 2.37
  41  0.125  0.125  0.125-  23 2.61  17 2.61  30 2.61  18 2.61  28 2.61  22 2.61  49 3.75  50 3.75
                            51 3.75  52 3.75  54 3.75  55 3.75
  42  0.875  0.375  0.625-  14 2.61  10 2.61  19 2.61  29 2.61  25 2.61  24 2.61  46 3.75  47 3.75
                            48 3.75  52 3.75  53 3.75  55 3.75
  43  0.375  0.625  0.875-  12 2.61  11 2.61  32 2.61  21 2.61  26 2.61  15 2.61  45 3.75  47 3.75
                            48 3.75  51 3.75  54 3.75  56 3.75
  44  0.625  0.875  0.375-  13 2.61   9 2.61  27 2.61  20 2.61  16 2.61  31 2.61  45 3.75  46 3.75
                            49 3.75  50 3.75  53 3.75  56 3.75
  45  0.375  0.875  0.625-   3 2.61   8 2.61  27 2.61  20 2.61  15 2.61  26 2.61  43 3.75  44 3.75
                            48 3.75  50 3.75  53 3.75  54 3.75
  46  0.875  0.625  0.375-   4 2.61   5 2.61  19 2.61  29 2.61  16 2.61  31 2.61  42 3.75  44 3.75
                            48 3.75  49 3.75  55 3.75  56 3.75
  47  0.625  0.375  0.875-   2 2.61   7 2.61  32 2.61  21 2.61  24 2.61  25 2.61  42 3.75  43 3.75
                            51 3.75  52 3.75  53 3.75  56 3.75
  48  0.125  0.625  0.625-  26 2.61  10 2.61   5 2.61  29 2.61  12 2.61   3 2.61  42 3.75  43 3.75
                            45 3.75  46 3.75  54 3.75  55 3.75
  49  0.875  0.875  0.125-  31 2.61  28 2.61  22 2.61   6 2.61  13 2.61   4 2.61  41 3.75  44 3.75
                            46 3.75  52 3.75  54 3.75  56 3.75
  50  0.375  0.125  0.375-  30 2.61  23 2.61   1 2.61   8 2.61  27 2.61   9 2.61  41 3.75  44 3.75
                            45 3.75  51 3.75  53 3.75  55 3.75
  51  0.375  0.375  0.125-   1 2.61  17 2.61  30 2.61   7 2.61  11 2.61  32 2.61  41 3.75  43 3.75
                            47 3.75  50 3.75  55 3.75  56 3.75
  52  0.875  0.125  0.875-  25 2.61  18 2.61  28 2.61   6 2.61  14 2.61   2 2.61  41 3.75  42 3.75
                            47 3.75  49 3.75  53 3.75  54 3.75
  53  0.625  0.125  0.625-  24 2.61   9 2.61   8 2.61  20 2.61   2 2.61  14 2.61  42 3.75  44 3.75
                            45 3.75  47 3.75  50 3.75  52 3.75
  54  0.125  0.875  0.875-  15 2.61  18 2.61  22 2.61   6 2.61   3 2.61  12 2.61  41 3.75  43 3.75
                            45 3.75  48 3.75  49 3.75  52 3.75
  55  0.125  0.375  0.375-  17 2.61   1 2.61  23 2.61   5 2.61  19 2.61  10 2.61  41 3.75  42 3.75
                            46 3.75  48 3.75  50 3.75  51 3.75
  56  0.625  0.625  0.125-  16 2.61  11 2.61   7 2.61  21 2.61   4 2.61  13 2.61  43 3.75  44 3.75
                            46 3.75  47 3.75  49 3.75  51 3.75
 
  LATTYP: Found a simple cubic cell.
 ALAT       =    10.6174974480
  
  Lattice vectors:
  
 A1 = (  10.6174974480,   0.0000000000,   0.0000000000)
 A2 = (   0.0000000000,  10.6174974480,   0.0000000000)
 A3 = (   0.0000000000,   0.0000000000,  10.6174974480)


Analysis of symmetry for initial positions (statically):
=====================================================================
 Subroutine PRICEL returns following result:
 
  LATTYP: Found a face centered cubic cell.
 ALAT       =    10.6174974480
  
  Lattice vectors:
  
 A1 = (   5.3087487240,   5.3087487240,   0.0000000000)
 A2 = (   5.3087487240,   0.0000000000,  -5.3087487240)
 A3 = (   0.0000000000,   5.3087487240,  -5.3087487240)
 
   4 primitive cells build up your supercell.
 

 Routine SETGRP: Setting up the symmetry group for a 
 simple cubic supercell.


 Subroutine GETGRP returns: Found 48 space group operations
 (whereof 24 operations were pure point group operations)
 out of a pool of 48 trial point group operations.


The static configuration has the point symmetry T_d .
 The point group associated with its full space group is O_h .


Analysis of symmetry for dynamics (positions and initial velocities):
=====================================================================
 Subroutine PRICEL returns following result:
 
  LATTYP: Found a face centered cubic cell.
 ALAT       =    10.6174974480
  
  Lattice vectors:
  
 A1 = (   5.3087487240,   5.3087487240,   0.0000000000)
 A2 = (   5.3087487240,   0.0000000000,  -5.3087487240)
 A3 = (   0.0000000000,   5.3087487240,  -5.3087487240)
 
   4 primitive cells build up your supercell.
 

 Routine SETGRP: Setting up the symmetry group for a 
 simple cubic supercell.


 Subroutine GETGRP returns: Found 48 space group operations
 (whereof 24 operations were pure point group operations)
 out of a pool of 48 trial point group operations.


The dynamic configuration has the point symmetry T_d .
 The point group associated with its full space group is O_h .


 Subroutine INISYM returns: Found 48 space group operations
 (whereof 24 operations are pure point group operations),
 and found     4 'primitive' translations

 
 
 KPOINTS: K-point convergence                     

Automatic generation of k-mesh.
Space group operators:
 irot       det(A)        alpha          n_x          n_y          n_z        tau_x        tau_y        tau_z
    1     1.000000     0.000000     1.000000     0.000000     0.000000     0.000000     0.000000     0.000000
    2     1.000000   120.000000    -0.577350    -0.577350    -0.577350     0.000000     0.000000     0.000000
    3     1.000000   120.000000     0.577350     0.577350     0.577350     0.000000     0.000000     0.000000
    4    -1.000000    90.000000     0.000000     0.000000    -1.000000     0.000000     0.000000     0.000000
    5    -1.000000   180.000000     0.000000     0.707107     0.707107     0.000000     0.000000     0.000000
    6    -1.000000    90.000000     0.000000     1.000000     0.000000     0.000000     0.000000     0.000000
    7     1.000000   180.000000     0.000000     0.000000     1.000000     0.000000     0.000000     0.000000
    8     1.000000   120.000000    -0.577350     0.577350     0.577350     0.000000     0.000000     0.000000
    9     1.000000   120.000000    -0.577350     0.577350    -0.577350     0.000000     0.000000     0.000000
   10    -1.000000    90.000000     0.000000     0.000000     1.000000     0.000000     0.000000     0.000000
   11    -1.000000    90.000000    -1.000000     0.000000     0.000000     0.000000     0.000000     0.000000
   12    -1.000000   180.000000     0.707107     0.000000     0.707107     0.000000     0.000000     0.000000
   13     1.000000   120.000000     0.577350    -0.577350     0.577350     0.000000     0.000000     0.000000
   14     1.000000   120.000000    -0.577350    -0.577350     0.577350     0.000000     0.000000     0.000000
   15     1.000000   180.000000     1.000000     0.000000     0.000000     0.000000     0.000000     0.000000
   16    -1.000000    90.000000     0.000000    -1.000000     0.000000     0.000000     0.000000     0.000000
   17    -1.000000   180.000000     0.707107     0.707107     0.000000     0.000000     0.000000     0.000000
   18    -1.000000    90.000000     1.000000     0.000000     0.000000     0.000000     0.000000     0.000000
   19     1.000000   120.000000     0.577350    -0.577350    -0.577350     0.000000     0.000000     0.000000
   20     1.000000   180.000000     0.000000     1.000000     0.000000     0.000000     0.000000     0.000000
   21     1.000000   120.000000     0.577350     0.577350    -0.577350     0.000000     0.000000     0.000000
   22    -1.000000   180.000000     0.000000    -0.707107     0.707107     0.000000     0.000000     0.000000
   23    -1.000000   180.000000     0.707107    -0.707107     0.000000     0.000000     0.000000     0.000000
   24    -1.000000   180.000000     0.707107     0.000000    -0.707107     0.000000     0.000000     0.000000
   25    -1.000000     0.000000     1.000000     0.000000     0.000000     0.750000     0.750000    -0.750000
   26    -1.000000   120.000000    -0.577350    -0.577350    -0.577350     0.750000     0.750000    -0.750000
   27    -1.000000   120.000000     0.577350     0.577350     0.577350     0.750000     0.750000    -0.750000
   28     1.000000    90.000000     0.000000     0.000000    -1.000000     0.750000     0.750000    -0.750000
   29     1.000000   180.000000     0.000000     0.707107     0.707107     0.750000     0.750000    -0.750000
   30     1.000000    90.000000     0.000000     1.000000     0.000000     0.750000     0.750000    -0.750000
   31    -1.000000   180.000000     0.000000     0.000000     1.000000     0.750000     0.750000    -0.750000
   32    -1.000000   120.000000    -0.577350     0.577350     0.577350     0.750000     0.750000    -0.750000
   33    -1.000000   120.000000    -0.577350     0.577350    -0.577350     0.750000     0.750000    -0.750000
   34     1.000000    90.000000     0.000000     0.000000     1.000000     0.750000     0.750000    -0.750000
   35     1.000000    90.000000    -1.000000     0.000000     0.000000     0.750000     0.750000    -0.750000
   36     1.000000   180.000000     0.707107     0.000000     0.707107     0.750000     0.750000    -0.750000
   37    -1.000000   120.000000     0.577350    -0.577350     0.577350     0.750000     0.750000    -0.750000
   38    -1.000000   120.000000    -0.577350    -0.577350     0.577350     0.750000     0.750000    -0.750000
   39    -1.000000   180.000000     1.000000     0.000000     0.000000     0.750000     0.750000    -0.750000
   40     1.000000    90.000000     0.000000    -1.000000     0.000000     0.750000     0.750000    -0.750000
   41     1.000000   180.000000     0.707107     0.707107     0.000000     0.750000     0.750000    -0.750000
   42     1.000000    90.000000     1.000000     0.000000     0.000000     0.750000     0.750000    -0.750000
   43    -1.000000   120.000000     0.577350    -0.577350    -0.577350     0.750000     0.750000    -0.750000
   44    -1.000000   180.000000     0.000000     1.000000     0.000000     0.750000     0.750000    -0.750000
   45    -1.000000   120.000000     0.577350     0.577350    -0.577350     0.750000     0.750000    -0.750000
   46     1.000000   180.000000     0.000000    -0.707107     0.707107     0.750000     0.750000    -0.750000
   47     1.000000   180.000000     0.707107    -0.707107     0.000000     0.750000     0.750000    -0.750000
   48     1.000000   180.000000     0.707107     0.000000    -0.707107     0.750000     0.750000    -0.750000
 
 Subroutine IBZKPT returns following result:
 ===========================================
 
 Found     20 irreducible k-points:
 
 Following reciprocal coordinates:
            Coordinates               Weight
  0.000000  0.000000  0.000000      1.000000
  0.166667  0.000000  0.000000      6.000000
  0.333333  0.000000  0.000000      6.000000
  0.500000  0.000000  0.000000      3.000000
  0.166667  0.166667  0.000000     12.000000
  0.333333  0.166667  0.000000     24.000000
  0.500000  0.166667  0.000000     12.000000
  0.333333  0.333333  0.000000     12.000000
  0.500000  0.333333  0.000000     12.000000
  0.500000  0.500000  0.000000      3.000000
  0.166667  0.166667  0.166667      8.000000
  0.333333  0.166667  0.166667     24.000000
  0.500000  0.166667  0.166667     12.000000
  0.333333  0.333333  0.166667     24.000000
  0.500000  0.333333  0.166667     24.000000
  0.500000  0.500000  0.166667      6.000000
  0.333333  0.333333  0.333333      8.000000
  0.500000  0.333333  0.333333     12.000000
  0.500000  0.500000  0.333333      6.000000
  0.500000  0.500000  0.500000      1.000000
 
 Following cartesian coordinates:
            Coordinates               Weight
  0.000000  0.000000  0.000000      1.000000
  0.015697  0.000000  0.000000      6.000000
  0.031395  0.000000  0.000000      6.000000
  0.047092  0.000000  0.000000      3.000000
  0.015697  0.015697  0.000000     12.000000
  0.031395  0.015697  0.000000     24.000000
  0.047092  0.015697  0.000000     12.000000
  0.031395  0.031395  0.000000     12.000000
  0.047092  0.031395  0.000000     12.000000
  0.047092  0.047092  0.000000      3.000000
  0.015697  0.015697  0.015697      8.000000
  0.031395  0.015697  0.015697     24.000000
  0.047092  0.015697  0.015697     12.000000
  0.031395  0.031395  0.015697     24.000000
  0.047092  0.031395  0.015697     24.000000
  0.047092  0.047092  0.015697      6.000000
  0.031395  0.031395  0.031395      8.000000
  0.047092  0.031395  0.031395     12.000000
  0.047092  0.047092  0.031395      6.000000
  0.047092  0.047092  0.047092      1.000000
 
 TETIRR: Found    104 inequivalent tetrahedra from     1296


--------------------------------------------------------------------------------------------------------




 Dimension of arrays:
   k-points           NKPTS =     20   k-points in BZ     NKDIM =     20   number of bands    NBANDS=    304
   number of dos      NEDOS =    301   number of ions     NIONS =     56
   non local maximal  LDIM  =      6   non local SUM 2l+1 LMDIM =     18
   total plane-waves  NPLWV = 512000
   max r-space proj   IRMAX =      1   max aug-charges    IRDMAX= 147998
   dimension x,y,z NGX =    80 NGY =   80 NGZ =   80
   dimension x,y,z NGXF=   160 NGYF=  160 NGZF=  160
   support grid    NGXF=   320 NGYF=  320 NGZF=  320
   ions per type =              32   8  16
   NGX,Y,Z   is equivalent  to a cutoff of  12.53, 12.53, 12.53 a.u.
   NGXF,Y,Z  is equivalent  to a cutoff of  25.05, 25.05, 25.05 a.u.

 SYSTEM =  ZnIn2S4 bulk k-point convergence        
 POSCAR =  In2 S4 Zn                               

 Startparameter for this run:
   NWRITE =      2    write-flag & timer
   PREC   = accura    normal or accurate (medium, high low for compatibility)
   ISTART =      0    job   : 0-new  1-cont  2-samecut
   ICHARG =      2    charge: 1-file 2-atom 10-const
   ISPIN  =      1    spin polarized calculation?
   LNONCOLLINEAR =      F non collinear calculations
   LSORBIT =      F    spin-orbit coupling
   INIWAV =      1    electr: 0-lowe 1-rand  2-diag
   LASPH  =      T    aspherical Exc in radial PAW
   METAGGA=      F    non-selfconsistent MetaGGA calc.

 Electronic Relaxation 1
   ENCUT  =  500.0 eV  36.75 Ry    6.06 a.u.  19.36 19.36 19.36*2*pi/ulx,y,z
   ENINI  =  500.0     initial cutoff
   ENAUG  =  575.9 eV  augmentation charge cutoff
   NELM   =    150;   NELMIN=  2; NELMDL= -5     # of ELM steps 
   EDIFF  = 0.1E-06   stopping-criterion for ELM
   LREAL  =      F    real-space projection
   NLSPLINE    = F    spline interpolate recip. space projectors
   LCOMPAT=      F    compatible to vasp.4.4
   GGA_COMPAT  = T    GGA compatible to vasp.4.4-vasp.4.6
   LMAXPAW     = -100 max onsite density
   LMAXMIX     =    2 max onsite mixed and CHGCAR
   VOSKOWN=      0    Vosko Wilk Nusair interpolation
   ROPT   =    0.00000   0.00000   0.00000
 Ionic relaxation
   EDIFFG = 0.1E-05   stopping-criterion for IOM
   NSW    =      0    number of steps for IOM
   NBLOCK =      1;   KBLOCK =      1    inner block; outer block 
   IBRION =     -1    ionic relax: 0-MD 1-quasi-New 2-CG
   NFREE  =      0    steps in history (QN), initial steepest desc. (CG)
   ISIF   =      2    stress and relaxation
   IWAVPR =     10    prediction:  0-non 1-charg 2-wave 3-comb
   ISYM   =      2    0-nonsym 1-usesym 2-fastsym
   LCORR  =      T    Harris-Foulkes like correction to forces

   POTIM  = 0.5000    time-step for ionic-motion
   TEIN   =    0.0    initial temperature
   TEBEG  =    0.0;   TEEND  =   0.0 temperature during run
   SMASS  =  -3.00    Nose mass-parameter (am)
   estimated Nose-frequenzy (Omega)   =  0.10E-29 period in steps =****** mass=  -0.258E-26a.u.
   SCALEE = 1.0000    scale energy and forces
   NPACO  =    256;   APACO  = 16.0  distance and # of slots for P.C.
   PSTRESS=    0.0 pullay stress

  Mass of Ions in am
   POMASS =  32.07 65.39114.82
  Ionic Valenz
   ZVAL   =   6.00 12.00 13.00
  Atomic Wigner-Seitz radii
   RWIGS  =  -1.00 -1.00 -1.00
  virtual crystal weights 
   VCA    =   1.00  1.00  1.00
   NELECT =     496.0000    total number of electrons
   NUPDOWN=      -1.0000    fix difference up-down

 DOS related values:
   EMIN   =  10.00;   EMAX   =-10.00  energy-range for DOS
   EFERMI =   0.00
   ISMEAR =    -5;   SIGMA  =   0.20  broadening in eV -4-tet -1-fermi 0-gaus

 Electronic relaxation 2 (details)
   IALGO  =     38    algorithm
   LDIAG  =      T    sub-space diagonalisation (order eigenvalues)
   LSUBROT=      F    optimize rotation matrix (better conditioning)
   TURBO    =      0    0=normal 1=particle mesh
   IRESTART =      0    0=no restart 2=restart with 2 vectors
   NREBOOT  =      0    no. of reboots
   NMIN     =      0    reboot dimension
   EREF     =   0.00    reference energy to select bands
   IMIX   =      4    mixing-type and parameters
     AMIX     =   0.40;   BMIX     =  1.00
     AMIX_MAG =   1.60;   BMIX_MAG =  1.00
     AMIN     =   0.10
     WC   =   100.;   INIMIX=   1;  MIXPRE=   1;  MAXMIX= -45

 Intra band minimization:
   WEIMIN = 0.0000     energy-eigenvalue tresh-hold
   EBREAK =  0.82E-10  absolut break condition
   DEPER  =   0.30     relativ break condition  

   TIME   =   0.40     timestep for ELM

  volume/ion in A,a.u.               =      21.37       144.24
  Fermi-wavevector in a.u.,A,eV,Ry     =   1.220525  2.306457 20.268333  1.489680
  Thomas-Fermi vector in A             =   2.355739
 
 Write flags
   LWAVE        =      F    write WAVECAR
   LDOWNSAMPLE  =      F    k-point downsampling of WAVECAR
   LCHARG       =      F    write CHGCAR
   LVTOT        =      F    write LOCPOT, total local potential
   LVHAR        =      F    write LOCPOT, Hartree potential only
   LELF         =      F    write electronic localiz. function (ELF)
   LORBIT       =      0    0 simple, 1 ext, 2 COOP (PROOUT), +10 PAW based schemes


 Dipole corrections
   LMONO  =      F    monopole corrections only (constant potential shift)
   LDIPOL =      F    correct potential (dipole corrections)
   IDIPOL =      0    1-x, 2-y, 3-z, 4-all directions 
   EPSILON=  1.0000000 bulk dielectric constant

 Exchange correlation treatment:
   GGA     =    PE    GGA type
   LEXCH   =     8    internal setting for exchange type
   VOSKOWN=      0    Vosko Wilk Nusair interpolation
   LHFCALC =     F    Hartree Fock is set to
   LHFONE  =     F    Hartree Fock one center treatment
   AEXX    =    0.0000 exact exchange contribution

 Linear response parameters
   LEPSILON=     F    determine dielectric tensor
   LRPA    =     F    only Hartree local field effects (RPA)
   LNABLA  =     F    use nabla operator in PAW spheres
   LVEL    =     F    velocity operator in full k-point grid
   LINTERFAST=   F  fast interpolation
   KINTER  =     0    interpolate to denser k-point grid
   CSHIFT  =0.1000    complex shift for real part using Kramers Kronig
   OMEGAMAX=  -1.0    maximum frequency
   DEG_THRESHOLD= 0.2000000E-02 threshold for treating states as degnerate
   RTIME   =   -0.100 relaxation time in fs
  (WPLASMAI=    0.000 imaginary part of plasma frequency in eV, 0.658/RTIME)
   DFIELD  = 0.0000000 0.0000000 0.0000000 field for delta impulse in time
 
 Orbital magnetization related:
   ORBITALMAG=     F  switch on orbital magnetization
   LCHIMAG   =     F  perturbation theory with respect to B field
   DQ        =  0.001000  dq finite difference perturbation B field
   LLRAUG    =     F  two centre corrections for induced B field



--------------------------------------------------------------------------------------------------------


 Static calculation
 charge density and potential will be updated during run
 non-spin polarized calculation
 Variant of blocked Davidson
 Davidson routine will perform the subspace rotation
 perform sub-space diagonalisation
    after iterative eigenvector-optimisation
 modified Broyden-mixing scheme, WC =      100.0
 initial mixing is a Kerker type mixing with AMIX =  0.4000 and BMIX =      1.0000
 Hartree-type preconditioning will be used
 using additional bands           56
 reciprocal scheme for non local part
 use partial core corrections
 calculate Harris-corrections to forces 
   (improved forces if not selfconsistent)
 use gradient corrections 
 use of overlap-Matrix (Vanderbilt PP)
 Fermi weights with tetrahedron method with Bloechl corrections


--------------------------------------------------------------------------------------------------------


  energy-cutoff  :      500.00
  volume of cell :     1196.92
      direct lattice vectors                 reciprocal lattice vectors
    10.617497448  0.000000000  0.000000000     0.094184153  0.000000000  0.000000000
     0.000000000 10.617497448  0.000000000     0.000000000  0.094184153  0.000000000
     0.000000000  0.000000000 10.617497448     0.000000000  0.000000000  0.094184153

  length of vectors
    10.617497448 10.617497448 10.617497448     0.094184153  0.094184153  0.094184153


 
 k-points in units of 2pi/SCALE and weight: K-point convergence                     
   0.00000000  0.00000000  0.00000000       0.005
   0.01569736  0.00000000  0.00000000       0.028
   0.03139472  0.00000000  0.00000000       0.028
   0.04709208  0.00000000  0.00000000       0.014
   0.01569736  0.01569736  0.00000000       0.056
   0.03139472  0.01569736  0.00000000       0.111
   0.04709208  0.01569736  0.00000000       0.056
   0.03139472  0.03139472  0.00000000       0.056
   0.04709208  0.03139472  0.00000000       0.056
   0.04709208  0.04709208  0.00000000       0.014
   0.01569736  0.01569736  0.01569736       0.037
   0.03139472  0.01569736  0.01569736       0.111
   0.04709208  0.01569736  0.01569736       0.056
   0.03139472  0.03139472  0.01569736       0.111
   0.04709208  0.03139472  0.01569736       0.111
   0.04709208  0.04709208  0.01569736       0.028
   0.03139472  0.03139472  0.03139472       0.037
   0.04709208  0.03139472  0.03139472       0.056
   0.04709208  0.04709208  0.03139472       0.028
   0.04709208  0.04709208  0.04709208       0.005
 
 k-points in reciprocal lattice and weights: K-point convergence                     
   0.00000000  0.00000000  0.00000000       0.005
   0.16666667  0.00000000  0.00000000       0.028
   0.33333333  0.00000000  0.00000000       0.028
   0.50000000  0.00000000  0.00000000       0.014
   0.16666667  0.16666667  0.00000000       0.056
   0.33333333  0.16666667  0.00000000       0.111
   0.50000000  0.16666667  0.00000000       0.056
   0.33333333  0.33333333  0.00000000       0.056
   0.50000000  0.33333333  0.00000000       0.056
   0.50000000  0.50000000  0.00000000       0.014
   0.16666667  0.16666667  0.16666667       0.037
   0.33333333  0.16666667  0.16666667       0.111
   0.50000000  0.16666667  0.16666667       0.056
   0.33333333  0.33333333  0.16666667       0.111
   0.50000000  0.33333333  0.16666667       0.111
   0.50000000  0.50000000  0.16666667       0.028
   0.33333333  0.33333333  0.33333333       0.037
   0.50000000  0.33333333  0.33333333       0.056
   0.50000000  0.50000000  0.33333333       0.028
   0.50000000  0.50000000  0.50000000       0.005
 
 position of ions in fractional coordinates (direct lattice) 
   0.37122289  0.37122289  0.37122289
   0.62877708  0.12877711  0.87122292
   0.12877711  0.87122292  0.62877708
   0.87122292  0.62877708  0.12877711
   0.12122289  0.62122292  0.37877711
   0.87877708  0.87877708  0.87877708
   0.62122292  0.37877711  0.12122289
   0.37877711  0.12122289  0.62122292
   0.62122292  0.12122289  0.37877711
   0.12122289  0.37877711  0.62122292
   0.37877711  0.62122292  0.12122289
   0.12877711  0.62877708  0.87122292
   0.62877708  0.87122292  0.12877711
   0.87122292  0.12877711  0.62877708
   0.37122289  0.87122292  0.87122292
   0.62877708  0.62877708  0.37122289
   0.12877711  0.37122289  0.12877711
   0.12122289  0.12122289  0.87877708
   0.87877708  0.37877711  0.37877711
   0.62122292  0.87877708  0.62122292
   0.62122292  0.62122292  0.87877708
   0.12122289  0.87877708  0.12122289
   0.12877711  0.12877711  0.37122289
   0.62877708  0.37122289  0.62877708
   0.87122292  0.37122289  0.87122292
   0.37122289  0.62877708  0.62877708
   0.37877711  0.87877708  0.37877711
   0.87877708  0.12122289  0.12122289
   0.87877708  0.62122292  0.62122292
   0.37122289  0.12877711  0.12877711
   0.87122292  0.87122292  0.37122289
   0.37877711  0.37877711  0.87877708
   0.50000000  0.50000000  0.50000000
   0.50000000  0.00000000  0.00000000
   0.00000000  0.00000000  0.50000000
   0.00000000  0.50000000  0.00000000
   0.25000000  0.75000000  0.25000000
   0.75000000  0.75000000  0.75000000
   0.75000000  0.25000000  0.25000000
   0.25000000  0.25000000  0.75000000
   0.12500000  0.12500000  0.12500000
   0.87500000  0.37500000  0.62500000
   0.37500000  0.62500000  0.87500000
   0.62500000  0.87500000  0.37500000
   0.37500000  0.87500000  0.62500000
   0.87500000  0.62500000  0.37500000
   0.62500000  0.37500000  0.87500000
   0.12500000  0.62500000  0.62500000
   0.87500000  0.87500000  0.12500000
   0.37500000  0.12500000  0.37500000
   0.37500000  0.37500000  0.12500000
   0.87500000  0.12500000  0.87500000
   0.62500000  0.12500000  0.62500000
   0.12500000  0.87500000  0.87500000
   0.12500000  0.37500000  0.37500000
   0.62500000  0.62500000  0.12500000
 
 position of ions in cartesian coordinates  (Angst):
   3.94145813  3.94145813  3.94145813
   6.67603900  1.36729059  9.25020718
   1.36729059  9.25020718  6.67603900
   9.25020718  6.67603900  1.36729059
   1.28708377  6.59583281  4.02166495
   9.33041336  9.33041336  9.33041336
   6.59583281  4.02166495  1.28708377
   4.02166495  1.28708377  6.59583281
   6.59583281  1.28708377  4.02166495
   1.28708377  4.02166495  6.59583281
   4.02166495  6.59583281  1.28708377
   1.36729059  6.67603900  9.25020718
   6.67603900  9.25020718  1.36729059
   9.25020718  1.36729059  6.67603900
   3.94145813  9.25020718  9.25020718
   6.67603900  6.67603900  3.94145813
   1.36729059  3.94145813  1.36729059
   1.28708377  1.28708377  9.33041336
   9.33041336  4.02166495  4.02166495
   6.59583281  9.33041336  6.59583281
   6.59583281  6.59583281  9.33041336
   1.28708377  9.33041336  1.28708377
   1.36729059  1.36729059  3.94145813
   6.67603900  3.94145813  6.67603900
   9.25020718  3.94145813  9.25020718
   3.94145813  6.67603900  6.67603900
   4.02166495  9.33041336  4.02166495
   9.33041336  1.28708377  1.28708377
   9.33041336  6.59583281  6.59583281
   3.94145813  1.36729059  1.36729059
   9.25020718  9.25020718  3.94145813
   4.02166495  4.02166495  9.33041336
   5.30874872  5.30874872  5.30874872
   5.30874872  0.00000000  0.00000000
   0.00000000  0.00000000  5.30874872
   0.00000000  5.30874872  0.00000000
   2.65437436  7.96312309  2.65437436
   7.96312309  7.96312309  7.96312309
   7.96312309  2.65437436  2.65437436
   2.65437436  2.65437436  7.96312309
   1.32718718  1.32718718  1.32718718
   9.29031027  3.98156154  6.63593590
   3.98156154  6.63593590  9.29031027
   6.63593590  9.29031027  3.98156154
   3.98156154  9.29031027  6.63593590
   9.29031027  6.63593590  3.98156154
   6.63593590  3.98156154  9.29031027
   1.32718718  6.63593590  6.63593590
   9.29031027  9.29031027  1.32718718
   3.98156154  1.32718718  3.98156154
   3.98156154  3.98156154  1.32718718
   9.29031027  1.32718718  9.29031027
   6.63593590  1.32718718  6.63593590
   1.32718718  9.29031027  9.29031027
   1.32718718  3.98156154  3.98156154
   6.63593590  6.63593590  1.32718718
 


--------------------------------------------------------------------------------------------------------


 k-point  1 :   0.0000 0.0000 0.0000  plane waves:   30551
 k-point  2 :   0.1667 0.0000 0.0000  plane waves:   30467
 k-point  3 :   0.3333 0.0000 0.0000  plane waves:   30375
 k-point  4 :   0.5000 0.0000 0.0000  plane waves:   30334
 k-point  5 :   0.1667 0.1667 0.0000  plane waves:   30429
 k-point  6 :   0.3333 0.1667 0.0000  plane waves:   30388
 k-point  7 :   0.5000 0.1667 0.0000  plane waves:   30392
 k-point  8 :   0.3333 0.3333 0.0000  plane waves:   30352
 k-point  9 :   0.5000 0.3333 0.0000  plane waves:   30414
 k-point 10 :   0.5000 0.5000 0.0000  plane waves:   30432
 k-point 11 :   0.1667 0.1667 0.1667  plane waves:   30374
 k-point 12 :   0.3333 0.1667 0.1667  plane waves:   30356
 k-point 13 :   0.5000 0.1667 0.1667  plane waves:   30350
 k-point 14 :   0.3333 0.3333 0.1667  plane waves:   30389
 k-point 15 :   0.5000 0.3333 0.1667  plane waves:   30408
 k-point 16 :   0.5000 0.5000 0.1667  plane waves:   30384
 k-point 17 :   0.3333 0.3333 0.3333  plane waves:   30400
 k-point 18 :   0.5000 0.3333 0.3333  plane waves:   30364
 k-point 19 :   0.5000 0.5000 0.3333  plane waves:   30396
 k-point 20 :   0.5000 0.5000 0.5000  plane waves:   30280

 maximum and minimum number of plane-waves per node :     30551    30280

 maximum number of plane-waves:     30551
 maximum index in each direction: 
   IXMAX=   19   IYMAX=   19   IZMAX=   19
   IXMIN=  -19   IYMIN=  -19   IZMIN=  -19


 serial   3D FFT for wavefunctions
 parallel 3D FFT for charge:
    minimum data exchange during FFTs selected (reduces bandwidth)


 total amount of memory used by VASP MPI-rank0   832869. kBytes
=======================================================================

   base      :      30000. kBytes
   nonl-proj :     291343. kBytes
   fftplans  :      77121. kBytes
   grid      :      53657. kBytes
   one-center:        870. kBytes
   wavefun   :     379878. kBytes
 
     INWAV:  cpu time    0.0001: real time    0.0001
 Broyden mixing: mesh for mixing (old mesh)
   NGX = 39   NGY = 39   NGZ = 39
  (NGX  =160   NGY  =160   NGZ  =160)
  gives a total of  59319 points

 initial charge density was supplied:
 charge density of overlapping atoms calculated
 number of electron     496.0000000 magnetization 
 keeping initial charge density in first step


--------------------------------------------------------------------------------------------------------


 Maximum index for augmentation-charges        17753 (set IRDMAX)


--------------------------------------------------------------------------------------------------------


 First call to EWALD:  gamma=   0.167
 Maximum number of real-space cells 3x 3x 3
 Maximum number of reciprocal cells 3x 3x 3

    FEWALD:  cpu time    0.0161: real time    0.0161


--------------------------------------- Iteration      1(   1)  ---------------------------------------


    POTLOK:  cpu time    0.7910: real time    0.7962
    SETDIJ:  cpu time    2.6779: real time    2.6941
     EDDAV:  cpu time  485.7870: real time  557.5658
 BZINTS: Fermi energy: 32.621652;496.000000 electrons
         Band energy:4540.429362;  BLOECHL correction: -0.191215
       DOS:  cpu time    0.1852: real time    0.1866
    --------------------------------------------
      LOOP:  cpu time  489.4421: real time  561.2427

 eigenvalue-minimisations  : 12168
 total energy-change (2. order) : 0.5971602E+04  (-0.1996811E+05)
 number of electron     496.0000000 magnetization 
 augmentation part      496.0000000 magnetization 

 Free energy of the ion-electron system (eV)
  ---------------------------------------------------
  alpha Z        PSCENC =      1238.99020874
  Ewald energy   TEWEN  =    -33451.33972647
  -Hartree energ DENC   =    -14787.01698095
  -exchange      EXHF   =         0.00000000
  -V(xc)+E(xc)   XCENC  =      1521.90219710
  PAW double counting   =     40696.36900690   -41865.88384259
  entropy T*S    EENTRO =         0.00000000
  eigenvalues    EBANDS =      4540.42936159
  atomic energy  EATOM  =     48078.15217869
  Solvation  Ediel_sol  =         0.00000000
  ---------------------------------------------------
  free energy    TOTEN  =      5971.60240301 eV

  energy without entropy =     5971.60240301  energy(sigma->0) =     5971.60240301


--------------------------------------------------------------------------------------------------------




--------------------------------------- Iteration      1(   2)  ---------------------------------------


     EDDAV:  cpu time  445.0574: real time  499.3063
 BZINTS: Fermi energy: 13.260551;496.000000 electrons
         Band energy:-325.997367;  BLOECHL correction: -0.067537
       DOS:  cpu time    0.1811: real time    0.1815
    --------------------------------------------
      LOOP:  cpu time  445.2375: real time  499.4878

 eigenvalue-minimisations  : 12160
 total energy-change (2. order) :-0.4866427E+04  (-0.4718197E+04)
 number of electron     496.0000000 magnetization 
 augmentation part      496.0000000 magnetization 

 Free energy of the ion-electron system (eV)
  ---------------------------------------------------
  alpha Z        PSCENC =      1238.99020874
  Ewald energy   TEWEN  =    -33451.33972647
  -Hartree energ DENC   =    -14787.01698095
  -exchange      EXHF   =         0.00000000
  -V(xc)+E(xc)   XCENC  =      1521.90219710
  PAW double counting   =     40696.36900690   -41865.88384259
  entropy T*S    EENTRO =         0.00000000
  eigenvalues    EBANDS =      -325.99736708
  atomic energy  EATOM  =     48078.15217869
  Solvation  Ediel_sol  =         0.00000000
  ---------------------------------------------------
  free energy    TOTEN  =      1105.17567435 eV

  energy without entropy =     1105.17567435  energy(sigma->0) =     1105.17567435


--------------------------------------------------------------------------------------------------------




--------------------------------------- Iteration      1(   3)  ---------------------------------------


     EDDAV:  cpu time  360.3168: real time  361.2210
 BZINTS: Fermi energy:  5.484208;496.000000 electrons
         Band energy:***********;  BLOECHL correction:  0.000000
       DOS:  cpu time    0.0327: real time    0.0328
    --------------------------------------------
      LOOP:  cpu time  360.3495: real time  361.2537

 eigenvalue-minimisations  : 13072
 total energy-change (2. order) :-0.1173763E+04  (-0.1087702E+04)
 number of electron     496.0000000 magnetization 
 augmentation part      496.0000000 magnetization 

 Free energy of the ion-electron system (eV)
  ---------------------------------------------------
  alpha Z        PSCENC =      1238.99020874
  Ewald energy   TEWEN  =    -33451.33972647
  -Hartree energ DENC   =    -14787.01698095
  -exchange      EXHF   =         0.00000000
  -V(xc)+E(xc)   XCENC  =      1521.90219710
  PAW double counting   =     40696.36900690   -41865.88384259
  entropy T*S    EENTRO =         0.00000000
  eigenvalues    EBANDS =     -1499.76014207
  atomic energy  EATOM  =     48078.15217869
  Solvation  Ediel_sol  =         0.00000000
  ---------------------------------------------------
  free energy    TOTEN  =       -68.58710064 eV

  energy without entropy =      -68.58710064  energy(sigma->0) =      -68.58710064


--------------------------------------------------------------------------------------------------------




--------------------------------------- Iteration      1(   4)  ---------------------------------------


     EDDAV:  cpu time  416.1800: real time  417.2226
 BZINTS: Fermi energy:  3.521689;496.000000 electrons
         Band energy:***********;  BLOECHL correction:  0.000000
       DOS:  cpu time    0.0320: real time    0.0321
    --------------------------------------------
      LOOP:  cpu time  416.2121: real time  417.2547

 eigenvalue-minimisations  : 15792
 total energy-change (2. order) :-0.1539687E+03  (-0.1506929E+03)
 number of electron     496.0000000 magnetization 
 augmentation part      496.0000000 magnetization 

 Free energy of the ion-electron system (eV)
  ---------------------------------------------------
  alpha Z        PSCENC =      1238.99020874
  Ewald energy   TEWEN  =    -33451.33972647
  -Hartree energ DENC   =    -14787.01698095
  -exchange      EXHF   =         0.00000000
  -V(xc)+E(xc)   XCENC  =      1521.90219710
  PAW double counting   =     40696.36900690   -41865.88384259
  entropy T*S    EENTRO =         0.00000000
  eigenvalues    EBANDS =     -1653.72886625
  atomic energy  EATOM  =     48078.15217869
  Solvation  Ediel_sol  =         0.00000000
  ---------------------------------------------------
  free energy    TOTEN  =      -222.55582482 eV

  energy without entropy =     -222.55582482  energy(sigma->0) =     -222.55582482


--------------------------------------------------------------------------------------------------------




--------------------------------------- Iteration      1(   5)  ---------------------------------------


     EDDAV:  cpu time  391.8580: real time  392.8609
 BZINTS: Fermi energy:  3.452144;496.000000 electrons
         Band energy:***********;  BLOECHL correction:  0.000000
       DOS:  cpu time    0.0325: real time    0.0326
    CHARGE:  cpu time   10.6385: real time   10.6643
    MIXING:  cpu time    0.0256: real time    0.0257
    --------------------------------------------
      LOOP:  cpu time  402.5547: real time  403.5835

 eigenvalue-minimisations  : 14552
 total energy-change (2. order) :-0.6230893E+01  (-0.6172887E+01)
 number of electron     495.9999999 magnetization 
 augmentation part      150.1786320 magnetization 

 Broyden mixing:
  rms(total) = 0.40786E+01    rms(broyden)= 0.40786E+01
  rms(prec ) = 0.44201E+01
  weight for this iteration     100.00

 Free energy of the ion-electron system (eV)
  ---------------------------------------------------
  alpha Z        PSCENC =      1238.99020874
  Ewald energy   TEWEN  =    -33451.33972647
  -Hartree energ DENC   =    -14787.01698095
  -exchange      EXHF   =         0.00000000
  -V(xc)+E(xc)   XCENC  =      1521.90219710
  PAW double counting   =     40696.36900690   -41865.88384259
  entropy T*S    EENTRO =         0.00000000
  eigenvalues    EBANDS =     -1659.95975900
  atomic energy  EATOM  =     48078.15217869
  Solvation  Ediel_sol  =         0.00000000
  ---------------------------------------------------
  free energy    TOTEN  =      -228.78671758 eV

  energy without entropy =     -228.78671758  energy(sigma->0) =     -228.78671758


--------------------------------------------------------------------------------------------------------




--------------------------------------- Iteration      1(   6)  ---------------------------------------


    POTLOK:  cpu time    0.7514: real time    0.9890
    SETDIJ:  cpu time    2.6075: real time    2.6140
     EDDAV:  cpu time  464.5139: real time  469.7620
 BZINTS: Fermi energy:  3.958520;496.000000 electrons
         Band energy:***********;  BLOECHL correction:  0.000000
       DOS:  cpu time    0.0280: real time    0.0281
    CHARGE:  cpu time   10.7336: real time   10.7651
    MIXING:  cpu time    0.0245: real time    1.5785
    --------------------------------------------
      LOOP:  cpu time  478.6589: real time  485.7366

 eigenvalue-minimisations  : 18040
 total energy-change (2. order) : 0.1322481E+02  (-0.2136478E+01)
 number of electron     495.9999999 magnetization 
 augmentation part      151.7459053 magnetization 

 Broyden mixing:
  rms(total) = 0.24874E+01    rms(broyden)= 0.24874E+01
  rms(prec ) = 0.25910E+01
  weight for this iteration     100.00

 eigenvalues of (default mixing * dielectric matrix)
  average eigenvalue GAMMA=   1.8868
  1.8868

 Free energy of the ion-electron system (eV)
  ---------------------------------------------------
  alpha Z        PSCENC =      1238.99020874
  Ewald energy   TEWEN  =    -33451.33972647
  -Hartree energ DENC   =    -14670.71227700
  -exchange      EXHF   =         0.00000000
  -V(xc)+E(xc)   XCENC  =      1525.18760636
  PAW double counting   =     49845.13967560   -50968.06246447
  entropy T*S    EENTRO =         0.00000000
  eigenvalues    EBANDS =     -1812.91710856
  atomic energy  EATOM  =     48078.15217869
  Solvation  Ediel_sol  =         0.00000000
  ---------------------------------------------------
  free energy    TOTEN  =      -215.56190710 eV

  energy without entropy =     -215.56190710  energy(sigma->0) =     -215.56190710


--------------------------------------------------------------------------------------------------------




--------------------------------------- Iteration      1(   7)  ---------------------------------------


    POTLOK:  cpu time    0.7486: real time    0.9677
    SETDIJ:  cpu time    2.6189: real time    2.6268
     EDDAV:  cpu time  442.5885: real time  444.0075
 BZINTS: Fermi energy:  4.377280;496.000000 electrons
         Band energy:***********;  BLOECHL correction:  0.000000
       DOS:  cpu time    0.0325: real time    0.0326
    CHARGE:  cpu time   10.8239: real time   10.8556
    MIXING:  cpu time    0.0268: real time    0.0269
    --------------------------------------------
      LOOP:  cpu time  456.8392: real time  458.5171

 eigenvalue-minimisations  : 17000
 total energy-change (2. order) :-0.7057560E+00  (-0.3712940E+01)
 number of electron     495.9999999 magnetization 
 augmentation part      152.3081111 magnetization 

 Broyden mixing:
  rms(total) = 0.88630E+00    rms(broyden)= 0.88629E+00
  rms(prec ) = 0.96608E+00
  weight for this iteration     100.00

 eigenvalues of (default mixing * dielectric matrix)
  average eigenvalue GAMMA=   1.5771
  1.0037  2.1505

 Free energy of the ion-electron system (eV)
  ---------------------------------------------------
  alpha Z        PSCENC =      1238.99020874
  Ewald energy   TEWEN  =    -33451.33972647
  -Hartree energ DENC   =    -14677.18046195
  -exchange      EXHF   =         0.00000000
  -V(xc)+E(xc)   XCENC  =      1532.63964205
  PAW double counting   =     61191.52157497   -62334.56608663
  entropy T*S    EENTRO =         0.00000000
  eigenvalues    EBANDS =     -1794.48499254
  atomic energy  EATOM  =     48078.15217869
  Solvation  Ediel_sol  =         0.00000000
  ---------------------------------------------------
  free energy    TOTEN  =      -216.26766314 eV

  energy without entropy =     -216.26766314  energy(sigma->0) =     -216.26766314


--------------------------------------------------------------------------------------------------------




--------------------------------------- Iteration      1(   8)  ---------------------------------------


    POTLOK:  cpu time    0.7579: real time    0.9647
    SETDIJ:  cpu time    2.6262: real time    2.6353
     EDDAV:  cpu time  420.9272: real time  422.2172
 BZINTS: Fermi energy:  4.246844;496.000000 electrons
         Band energy:***********;  BLOECHL correction:  0.000000
       DOS:  cpu time    0.0277: real time    0.0277
    CHARGE:  cpu time   10.7100: real time   10.7367
    MIXING:  cpu time    0.0278: real time    0.0279
    --------------------------------------------
      LOOP:  cpu time  435.0769: real time  436.6095

 eigenvalue-minimisations  : 15960
 total energy-change (2. order) : 0.4766431E+00  (-0.3150103E+00)
 number of electron     495.9999999 magnetization 
 augmentation part      152.0865344 magnetization 

 Broyden mixing:
  rms(total) = 0.59169E+00    rms(broyden)= 0.59169E+00
  rms(prec ) = 0.60624E+00
  weight for this iteration     100.00

 eigenvalues of (default mixing * dielectric matrix)
  average eigenvalue GAMMA=   1.5203
  2.4003  0.8712  1.2894

 Free energy of the ion-electron system (eV)
  ---------------------------------------------------
  alpha Z        PSCENC =      1238.99020874
  Ewald energy   TEWEN  =    -33451.33972647
  -Hartree energ DENC   =    -14681.43325565
  -exchange      EXHF   =         0.00000000
  -V(xc)+E(xc)   XCENC  =      1531.71060030
  PAW double counting   =     64286.73938164   -65438.38009118
  entropy T*S    EENTRO =         0.00000000
  eigenvalues    EBANDS =     -1780.23031609
  atomic energy  EATOM  =     48078.15217869
  Solvation  Ediel_sol  =         0.00000000
  ---------------------------------------------------
  free energy    TOTEN  =      -215.79102001 eV

  energy without entropy =     -215.79102001  energy(sigma->0) =     -215.79102001


--------------------------------------------------------------------------------------------------------




--------------------------------------- Iteration      1(   9)  ---------------------------------------


    POTLOK:  cpu time    0.7498: real time    0.7542
    SETDIJ:  cpu time    2.6134: real time    2.6198
     EDDAV:  cpu time  448.1834: real time  449.4709
 BZINTS: Fermi energy:  4.214647;496.000000 electrons
         Band energy:***********;  BLOECHL correction:  0.000000
       DOS:  cpu time    0.0326: real time    0.0327
    CHARGE:  cpu time   10.7725: real time   10.7993
    MIXING:  cpu time    0.0291: real time    0.0292
    --------------------------------------------
      LOOP:  cpu time  462.3809: real time  463.7062

 eigenvalue-minimisations  : 17272
 total energy-change (2. order) :-0.2408480E-02  (-0.7318616E-01)
 number of electron     495.9999999 magnetization 
 augmentation part      152.0003408 magnetization 

 Broyden mixing:
  rms(total) = 0.14966E+00    rms(broyden)= 0.14965E+00
  rms(prec ) = 0.15855E+00
  weight for this iteration     100.00

 eigenvalues of (default mixing * dielectric matrix)
  average eigenvalue GAMMA=   1.3856
  1.8154  1.8154  0.9558  0.9558

 Free energy of the ion-electron system (eV)
  ---------------------------------------------------
  alpha Z        PSCENC =      1238.99020874
  Ewald energy   TEWEN  =    -33451.33972647
  -Hartree energ DENC   =    -14672.58415705
  -exchange      EXHF   =         0.00000000
  -V(xc)+E(xc)   XCENC  =      1531.26191913
  PAW double counting   =     66293.76520576   -67447.01057931
  entropy T*S    EENTRO =         0.00000000
  eigenvalues    EBANDS =     -1787.02847797
  atomic energy  EATOM  =     48078.15217869
  Solvation  Ediel_sol  =         0.00000000
  ---------------------------------------------------
  free energy    TOTEN  =      -215.79342849 eV

  energy without entropy =     -215.79342849  energy(sigma->0) =     -215.79342849


--------------------------------------------------------------------------------------------------------




--------------------------------------- Iteration      1(  10)  ---------------------------------------


    POTLOK:  cpu time    0.7470: real time    0.7513
    SETDIJ:  cpu time    2.6155: real time    2.6219
     EDDAV:  cpu time  433.6440: real time  434.8684
 BZINTS: Fermi energy:  4.198365;496.000000 electrons
         Band energy:***********;  BLOECHL correction:  0.000000
       DOS:  cpu time    0.0325: real time    0.0325
    CHARGE:  cpu time   10.6238: real time   10.6501
    MIXING:  cpu time    0.0285: real time    0.0285
    --------------------------------------------
      LOOP:  cpu time  447.6913: real time  448.9528

 eigenvalue-minimisations  : 16592
 total energy-change (2. order) : 0.6342031E-02  (-0.7048686E-02)
 number of electron     495.9999999 magnetization 
 augmentation part      152.0382934 magnetization 

 Broyden mixing:
  rms(total) = 0.77753E-01    rms(broyden)= 0.77753E-01
  rms(prec ) = 0.81552E-01
  weight for this iteration     100.00

 eigenvalues of (default mixing * dielectric matrix)
  average eigenvalue GAMMA=   1.6969
  2.6208  2.6208  1.0127  1.0127  1.2175

 Free energy of the ion-electron system (eV)
  ---------------------------------------------------
  alpha Z        PSCENC =      1238.99020874
  Ewald energy   TEWEN  =    -33451.33972647
  -Hartree energ DENC   =    -14672.43647551
  -exchange      EXHF   =         0.00000000
  -V(xc)+E(xc)   XCENC  =      1531.38108403
  PAW double counting   =     65487.19708009   -66639.00724703
  entropy T*S    EENTRO =         0.00000000
  eigenvalues    EBANDS =     -1788.72418901
  atomic energy  EATOM  =     48078.15217869
  Solvation  Ediel_sol  =         0.00000000
  ---------------------------------------------------
  free energy    TOTEN  =      -215.78708646 eV

  energy without entropy =     -215.78708646  energy(sigma->0) =     -215.78708646


--------------------------------------------------------------------------------------------------------




--------------------------------------- Iteration      1(  11)  ---------------------------------------


    POTLOK:  cpu time    0.7430: real time    0.7548
    SETDIJ:  cpu time    2.6188: real time    2.6257
     EDDAV:  cpu time  454.5669: real time  456.0409
 BZINTS: Fermi energy:  4.197857;496.000000 electrons
         Band energy:***********;  BLOECHL correction:  0.000000
       DOS:  cpu time    0.0325: real time    0.0326
    CHARGE:  cpu time   10.7184: real time   10.7508
    MIXING:  cpu time    0.0292: real time    0.0293
    --------------------------------------------
      LOOP:  cpu time  468.7088: real time  470.2341

 eigenvalue-minimisations  : 17568
 total energy-change (2. order) :-0.3629537E-02  (-0.1471408E-02)
 number of electron     495.9999999 magnetization 
 augmentation part      152.0619308 magnetization 

 Broyden mixing:
  rms(total) = 0.26470E-01    rms(broyden)= 0.26470E-01
  rms(prec ) = 0.27480E-01
  weight for this iteration     100.00

 eigenvalues of (default mixing * dielectric matrix)
  average eigenvalue GAMMA=   1.5166
  2.4941  2.4941  1.1767  1.1767  0.8790  0.8790

 Free energy of the ion-electron system (eV)
  ---------------------------------------------------
  alpha Z        PSCENC =      1238.99020874
  Ewald energy   TEWEN  =    -33451.33972647
  -Hartree energ DENC   =    -14672.80572758
  -exchange      EXHF   =         0.00000000
  -V(xc)+E(xc)   XCENC  =      1531.57905610
  PAW double counting   =     65333.95675664   -66484.60438174
  entropy T*S    EENTRO =         0.00000000
  eigenvalues    EBANDS =     -1789.71908039
  atomic energy  EATOM  =     48078.15217869
  Solvation  Ediel_sol  =         0.00000000
  ---------------------------------------------------
  free energy    TOTEN  =      -215.79071599 eV

  energy without entropy =     -215.79071599  energy(sigma->0) =     -215.79071599


--------------------------------------------------------------------------------------------------------




--------------------------------------- Iteration      1(  12)  ---------------------------------------


    POTLOK:  cpu time    0.9428: real time    1.1752
    SETDIJ:  cpu time    2.6132: real time    2.6210
     EDDAV:  cpu time  422.2470: real time  423.6417
 BZINTS: Fermi energy:  4.197688;496.000000 electrons
         Band energy:***********;  BLOECHL correction:  0.000000
       DOS:  cpu time    0.0325: real time    0.0326
    CHARGE:  cpu time   10.6577: real time   10.6934
    MIXING:  cpu time    0.0287: real time    0.0288
    --------------------------------------------
      LOOP:  cpu time  436.5219: real time  438.1928

 eigenvalue-minimisations  : 16064
 total energy-change (2. order) :-0.1635119E-05  (-0.3637596E-03)
 number of electron     495.9999999 magnetization 
 augmentation part      152.0453048 magnetization 

 Broyden mixing:
  rms(total) = 0.14043E-01    rms(broyden)= 0.14043E-01
  rms(prec ) = 0.14909E-01
  weight for this iteration     100.00

 eigenvalues of (default mixing * dielectric matrix)
  average eigenvalue GAMMA=   1.3664
  2.4804  2.4804  1.1632  1.1632  0.8358  0.7209  0.7209

 Free energy of the ion-electron system (eV)
  ---------------------------------------------------
  alpha Z        PSCENC =      1238.99020874
  Ewald energy   TEWEN  =    -33451.33972647
  -Hartree energ DENC   =    -14673.78277423
  -exchange      EXHF   =         0.00000000
  -V(xc)+E(xc)   XCENC  =      1531.58964639
  PAW double counting   =     65386.64042175   -66538.00486582
  entropy T*S    EENTRO =         0.00000000
  eigenvalues    EBANDS =     -1788.03580668
  atomic energy  EATOM  =     48078.15217869
  Solvation  Ediel_sol  =         0.00000000
  ---------------------------------------------------
  free energy    TOTEN  =      -215.79071763 eV

  energy without entropy =     -215.79071763  energy(sigma->0) =     -215.79071763


--------------------------------------------------------------------------------------------------------




--------------------------------------- Iteration      1(  13)  ---------------------------------------


    POTLOK:  cpu time    0.7415: real time    0.7473
    SETDIJ:  cpu time    2.6199: real time    2.6285
     EDDAV:  cpu time  441.9087: real time  443.3314
 BZINTS: Fermi energy:  4.196555;496.000000 electrons
         Band energy:***********;  BLOECHL correction:  0.000000
       DOS:  cpu time    0.0324: real time    0.0325
    CHARGE:  cpu time   10.5032: real time   10.5640
    MIXING:  cpu time    0.0289: real time    0.0290
    --------------------------------------------
      LOOP:  cpu time  455.8346: real time  457.3327

 eigenvalue-minimisations  : 16896
 total energy-change (2. order) : 0.2395060E-04  (-0.5252917E-04)
 number of electron     495.9999999 magnetization 
 augmentation part      152.0482060 magnetization 

 Broyden mixing:
  rms(total) = 0.89786E-02    rms(broyden)= 0.89785E-02
  rms(prec ) = 0.93008E-02
  weight for this iteration     100.00

 eigenvalues of (default mixing * dielectric matrix)
  average eigenvalue GAMMA=   1.5747
  2.6044  2.4701  1.7462  1.7462  1.1032  1.1032  0.9123  0.9123

 Free energy of the ion-electron system (eV)
  ---------------------------------------------------
  alpha Z        PSCENC =      1238.99020874
  Ewald energy   TEWEN  =    -33451.33972647
  -Hartree energ DENC   =    -14673.78444491
  -exchange      EXHF   =         0.00000000
  -V(xc)+E(xc)   XCENC  =      1531.60842283
  PAW double counting   =     65364.35578259   -66515.67612378
  entropy T*S    EENTRO =         0.00000000
  eigenvalues    EBANDS =     -1788.09699137
  atomic energy  EATOM  =     48078.15217869
  Solvation  Ediel_sol  =         0.00000000
  ---------------------------------------------------
  free energy    TOTEN  =      -215.79069368 eV

  energy without entropy =     -215.79069368  energy(sigma->0) =     -215.79069368


--------------------------------------------------------------------------------------------------------




--------------------------------------- Iteration      1(  14)  ---------------------------------------


    POTLOK:  cpu time    0.7356: real time    0.7718
    SETDIJ:  cpu time    2.5389: real time    2.5466
     EDDAV:  cpu time  390.4935: real time  391.8070
 BZINTS: Fermi energy:  4.196791;496.000000 electrons
         Band energy:***********;  BLOECHL correction:  0.000000
       DOS:  cpu time    0.0325: real time    0.0331
    CHARGE:  cpu time   10.5208: real time   10.5553
    MIXING:  cpu time    0.0297: real time    0.0298
    --------------------------------------------
      LOOP:  cpu time  404.3511: real time  405.7436

 eigenvalue-minimisations  : 14520
 total energy-change (2. order) :-0.7381087E-04  (-0.2119209E-04)
 number of electron     495.9999999 magnetization 
 augmentation part      152.0460670 magnetization 

 Broyden mixing:
  rms(total) = 0.16990E-02    rms(broyden)= 0.16989E-02
  rms(prec ) = 0.18873E-02
  weight for this iteration     100.00

 eigenvalues of (default mixing * dielectric matrix)
  average eigenvalue GAMMA=   1.4964
  2.5604  2.2210  1.6822  1.6822  1.4247  1.0470  1.0470  0.9016  0.9016

 Free energy of the ion-electron system (eV)
  ---------------------------------------------------
  alpha Z        PSCENC =      1238.99020874
  Ewald energy   TEWEN  =    -33451.33972647
  -Hartree energ DENC   =    -14674.10659694
  -exchange      EXHF   =         0.00000000
  -V(xc)+E(xc)   XCENC  =      1531.63685665
  PAW double counting   =     65356.40637811   -66507.83865288
  entropy T*S    EENTRO =         0.00000000
  eigenvalues    EBANDS =     -1787.69141339
  atomic energy  EATOM  =     48078.15217869
  Solvation  Ediel_sol  =         0.00000000
  ---------------------------------------------------
  free energy    TOTEN  =      -215.79076749 eV

  energy without entropy =     -215.79076749  energy(sigma->0) =     -215.79076749


--------------------------------------------------------------------------------------------------------




--------------------------------------- Iteration      1(  15)  ---------------------------------------


    POTLOK:  cpu time    0.7350: real time    0.7401
    SETDIJ:  cpu time    2.5443: real time    2.5527
     EDDAV:  cpu time  468.7536: real time  470.3541
 BZINTS: Fermi energy:  4.196370;496.000000 electrons
         Band energy:***********;  BLOECHL correction:  0.000000
       DOS:  cpu time    0.0325: real time    0.0325
    CHARGE:  cpu time   10.4843: real time   10.5147
    MIXING:  cpu time    0.0327: real time    0.0333
    --------------------------------------------
      LOOP:  cpu time  482.5824: real time  484.2274

 eigenvalue-minimisations  : 18248
 total energy-change (2. order) :-0.3534624E-05  (-0.3161251E-05)
 number of electron     495.9999999 magnetization 
 augmentation part      152.0471300 magnetization 

 Broyden mixing:
  rms(total) = 0.99270E-03    rms(broyden)= 0.99257E-03
  rms(prec ) = 0.10704E-02
  weight for this iteration     100.00

 eigenvalues of (default mixing * dielectric matrix)
  average eigenvalue GAMMA=   1.5546
  2.7594  2.3532  1.8354  1.8354  1.7117  1.1493  1.1493  0.9713  0.9713  0.8102

 Free energy of the ion-electron system (eV)
  ---------------------------------------------------
  alpha Z        PSCENC =      1238.99020874
  Ewald energy   TEWEN  =    -33451.33972647
  -Hartree energ DENC   =    -14674.08525199
  -exchange      EXHF   =         0.00000000
  -V(xc)+E(xc)   XCENC  =      1531.64101103
  PAW double counting   =     65360.83551940   -66512.24669111
  entropy T*S    EENTRO =         0.00000000
  eigenvalues    EBANDS =     -1787.73801932
  atomic energy  EATOM  =     48078.15217869
  Solvation  Ediel_sol  =         0.00000000
  ---------------------------------------------------
  free energy    TOTEN  =      -215.79077102 eV

  energy without entropy =     -215.79077102  energy(sigma->0) =     -215.79077102


--------------------------------------------------------------------------------------------------------




--------------------------------------- Iteration      1(  16)  ---------------------------------------


    POTLOK:  cpu time    0.7388: real time    0.9450
    SETDIJ:  cpu time    2.5506: real time    2.5596
     EDDAV:  cpu time  375.6436: real time  376.7518
 BZINTS: Fermi energy:  4.196240;496.000000 electrons
         Band energy:***********;  BLOECHL correction:  0.000000
       DOS:  cpu time    0.0325: real time    0.0325
    CHARGE:  cpu time   10.5468: real time   10.5727
    MIXING:  cpu time    0.0315: real time    0.0316
    --------------------------------------------
      LOOP:  cpu time  389.5438: real time  390.8932

 eigenvalue-minimisations  : 13800
 total energy-change (2. order) :-0.2746732E-05  (-0.1026972E-05)
 number of electron     495.9999999 magnetization 
 augmentation part      152.0470192 magnetization 

 Broyden mixing:
  rms(total) = 0.67511E-03    rms(broyden)= 0.67493E-03
  rms(prec ) = 0.70139E-03
  weight for this iteration     100.00

 eigenvalues of (default mixing * dielectric matrix)
  average eigenvalue GAMMA=   1.5973
  2.8456  2.5957  2.4496  1.8041  1.8041  1.1663  1.1663  0.9797  0.9797  0.9735
  0.8052

 Free energy of the ion-electron system (eV)
  ---------------------------------------------------
  alpha Z        PSCENC =      1238.99020874
  Ewald energy   TEWEN  =    -33451.33972647
  -Hartree energ DENC   =    -14674.14575094
  -exchange      EXHF   =         0.00000000
  -V(xc)+E(xc)   XCENC  =      1531.64391308
  PAW double counting   =     65357.41843221   -66508.84551368
  entropy T*S    EENTRO =         0.00000000
  eigenvalues    EBANDS =     -1787.66451540
  atomic energy  EATOM  =     48078.15217869
  Solvation  Ediel_sol  =         0.00000000
  ---------------------------------------------------
  free energy    TOTEN  =      -215.79077377 eV

  energy without entropy =     -215.79077377  energy(sigma->0) =     -215.79077377


--------------------------------------------------------------------------------------------------------




--------------------------------------- Iteration      1(  17)  ---------------------------------------


    POTLOK:  cpu time    0.7378: real time    0.7437
    SETDIJ:  cpu time    2.5519: real time    2.5627
     EDDAV:  cpu time  394.2269: real time  395.3551
 BZINTS: Fermi energy:  4.196037;496.000000 electrons
         Band energy:***********;  BLOECHL correction:  0.000000
       DOS:  cpu time    0.0325: real time    0.0326
    CHARGE:  cpu time   10.7767: real time   10.8032
    MIXING:  cpu time    0.0327: real time    0.0328
    --------------------------------------------
      LOOP:  cpu time  408.3586: real time  409.5302

 eigenvalue-minimisations  : 14608
 total energy-change (2. order) : 0.4899121E-06  (-0.1595360E-06)
 number of electron     495.9999999 magnetization 
 augmentation part      152.0468931 magnetization 

 Broyden mixing:
  rms(total) = 0.25775E-03    rms(broyden)= 0.25728E-03
  rms(prec ) = 0.26686E-03
  weight for this iteration     100.00

 eigenvalues of (default mixing * dielectric matrix)
  average eigenvalue GAMMA=   1.5909
  3.1698  2.4520  2.4520  1.8213  1.8213  1.2905  1.2905  1.0643  1.0643  0.9350
  0.9350  0.7946

 Free energy of the ion-electron system (eV)
  ---------------------------------------------------
  alpha Z        PSCENC =      1238.99020874
  Ewald energy   TEWEN  =    -33451.33972647
  -Hartree energ DENC   =    -14674.15584104
  -exchange      EXHF   =         0.00000000
  -V(xc)+E(xc)   XCENC  =      1531.64371302
  PAW double counting   =     65359.62164524   -66511.05607861
  entropy T*S    EENTRO =         0.00000000
  eigenvalues    EBANDS =     -1787.64687286
  atomic energy  EATOM  =     48078.15217869
  Solvation  Ediel_sol  =         0.00000000
  ---------------------------------------------------
  free energy    TOTEN  =      -215.79077328 eV

  energy without entropy =     -215.79077328  energy(sigma->0) =     -215.79077328


--------------------------------------------------------------------------------------------------------




--------------------------------------- Iteration      1(  18)  ---------------------------------------


    POTLOK:  cpu time    0.7535: real time    0.7575
    SETDIJ:  cpu time    2.5647: real time    2.5710
     EDDAV:  cpu time  284.3071: real time  285.0472
 BZINTS: Fermi energy:  4.195820;496.000000 electrons
         Band energy:***********;  BLOECHL correction:  0.000000
       DOS:  cpu time    0.0325: real time    0.0326
    --------------------------------------------
      LOOP:  cpu time  287.6579: real time  288.4082

 eigenvalue-minimisations  :  9408
 total energy-change (2. order) : 0.1273293E-08  (-0.2799359E-07)
 number of electron     495.9999999 magnetization 
 augmentation part      152.0468931 magnetization 

 Free energy of the ion-electron system (eV)
  ---------------------------------------------------
  alpha Z        PSCENC =      1238.99020874
  Ewald energy   TEWEN  =    -33451.33972647
  -Hartree energ DENC   =    -14674.15765603
  -exchange      EXHF   =         0.00000000
  -V(xc)+E(xc)   XCENC  =      1531.64411306
  PAW double counting   =     65358.77051543   -66510.19996155
  entropy T*S    EENTRO =         0.00000000
  eigenvalues    EBANDS =     -1787.65044515
  atomic energy  EATOM  =     48078.15217869
  Solvation  Ediel_sol  =         0.00000000
  ---------------------------------------------------
  free energy    TOTEN  =      -215.79077328 eV

  energy without entropy =     -215.79077328  energy(sigma->0) =     -215.79077328


--------------------------------------------------------------------------------------------------------




 average (electrostatic) potential at core
  the test charge radii are     0.9698  0.9521  1.0774
  (the norm of the test charge is              1.0000)
       1 -86.2130       2 -86.2130       3 -86.2130       4 -86.2130       5 -86.2130
       6 -86.2130       7 -86.2130       8 -86.2130       9 -86.2130      10 -86.2130
      11 -86.2130      12 -86.2130      13 -86.2130      14 -86.2130      15 -86.2130
      16 -86.2130      17 -86.2130      18 -86.2130      19 -86.2130      20 -86.2130
      21 -86.2130      22 -86.2130      23 -86.2130      24 -86.2130      25 -86.2130
      26 -86.2130      27 -86.2130      28 -86.2130      29 -86.2130      30 -86.2130
      31 -86.2130      32 -86.2130      33 -34.2788      34 -34.2788      35 -34.2788
      36 -34.2788      37 -34.2788      38 -34.2788      39 -34.2788      40 -34.2788
      41 -96.1172      42 -96.1172      43 -96.1172      44 -96.1172      45 -96.1172
      46 -96.1172      47 -96.1172      48 -96.1172      49 -96.1172      50 -96.1172
      51 -96.1172      52 -96.1172      53 -96.1172      54 -96.1172      55 -96.1172
      56 -96.1172
 
 
 
 E-fermi :   4.1958     XC(G=0):  -9.7532     alpha+bet :-10.7468


 k-point     1 :       0.0000    0.0000    0.0000
  band No.  band energies     occupation 
      1      -9.9511      2.00000
      2      -9.9511      2.00000
      3      -9.9511      2.00000
      4      -9.8277      2.00000
      5      -9.8277      2.00000
      6      -9.8277      2.00000
      7      -9.8277      2.00000
      8      -9.8277      2.00000
      9      -9.8277      2.00000
     10      -9.7604      2.00000
     11      -9.7604      2.00000
     12      -9.7604      2.00000
     13      -9.7604      2.00000
     14      -9.7604      2.00000
     15      -9.7604      2.00000
     16      -9.5858      2.00000
     17      -9.5858      2.00000
     18      -9.5858      2.00000
     19      -9.5858      2.00000
     20      -9.5858      2.00000
     21      -9.5858      2.00000
     22      -9.5251      2.00000
     23      -9.4889      2.00000
     24      -9.4889      2.00000
     25      -9.4334      2.00000
     26      -9.4334      2.00000
     27      -9.4334      2.00000
     28      -9.4334      2.00000
     29      -9.4334      2.00000
     30      -9.4334      2.00000
     31      -9.4124      2.00000
     32      -9.4124      2.00000
     33      -9.4124      2.00000
     34      -9.4124      2.00000
     35      -9.4124      2.00000
     36      -9.4124      2.00000
     37      -9.4099      2.00000
     38      -9.4099      2.00000
     39      -9.4099      2.00000
     40      -9.3526      2.00000
     41      -9.3526      2.00000
     42      -9.3526      2.00000
     43      -9.3433      2.00000
     44      -9.3433      2.00000
     45      -9.3433      2.00000
     46      -9.3433      2.00000
     47      -9.3433      2.00000
     48      -9.3433      2.00000
     49      -9.3220      2.00000
     50      -9.3220      2.00000
     51      -9.3220      2.00000
     52      -9.3220      2.00000
     53      -9.3220      2.00000
     54      -9.3220      2.00000
     55      -9.3211      2.00000
     56      -9.3211      2.00000
     57      -9.3133      2.00000
     58      -9.3133      2.00000
     59      -9.3133      2.00000
     60      -9.3133      2.00000
     61      -9.3133      2.00000
     62      -9.3133      2.00000
     63      -9.3026      2.00000
     64      -9.3026      2.00000
     65      -9.3026      2.00000
     66      -9.2994      2.00000
     67      -9.2994      2.00000
     68      -9.2994      2.00000
     69      -9.2994      2.00000
     70      -9.2994      2.00000
     71      -9.2994      2.00000
     72      -9.2656      2.00000
     73      -9.2656      2.00000
     74      -9.2656      2.00000
     75      -9.2656      2.00000
     76      -9.2656      2.00000
     77      -9.2656      2.00000
     78      -9.2400      2.00000
     79      -9.2400      2.00000
     80      -9.2400      2.00000
     81      -8.8826      2.00000
     82      -8.2045      2.00000
     83      -8.2045      2.00000
     84      -8.2045      2.00000
     85      -8.2045      2.00000
     86      -8.2045      2.00000
     87      -8.2045      2.00000
     88      -7.7172      2.00000
     89      -7.5181      2.00000
     90      -7.5181      2.00000
     91      -7.5181      2.00000
     92      -7.3939      2.00000
     93      -7.3939      2.00000
     94      -7.3939      2.00000
     95      -7.3939      2.00000
     96      -7.3939      2.00000
     97      -7.3939      2.00000
     98      -7.2786      2.00000
     99      -7.2786      2.00000
    100      -7.2786      2.00000
    101      -7.2786      2.00000
    102      -7.2786      2.00000
    103      -7.2786      2.00000
    104      -6.6188      2.00000
    105      -6.6188      2.00000
    106      -6.6188      2.00000
    107      -6.6188      2.00000
    108      -6.6188      2.00000
    109      -6.6188      2.00000
    110      -6.5260      2.00000
    111      -6.5260      2.00000
    112      -6.5260      2.00000
    113      -2.1223      2.00000
    114      -2.1223      2.00000
    115      -2.1223      2.00000
    116      -2.1223      2.00000
    117      -2.1223      2.00000
    118      -2.1223      2.00000
    119      -1.9960      2.00000
    120      -1.9960      2.00000
    121      -1.9960      2.00000
    122      -1.9960      2.00000
    123      -1.9960      2.00000
    124      -1.9960      2.00000
    125      -1.9552      2.00000
    126      -1.8598      2.00000
    127      -1.8598      2.00000
    128      -1.8598      2.00000
    129      -1.8498      2.00000
    130      -1.8498      2.00000
    131      -1.8498      2.00000
    132      -1.8368      2.00000
    133      -1.8368      2.00000
    134      -1.8138      2.00000
    135      -1.8138      2.00000
    136      -1.8138      2.00000
    137      -1.8138      2.00000
    138      -1.8138      2.00000
    139      -1.8138      2.00000
    140      -1.7850      2.00000
    141      -1.7850      2.00000
    142      -1.7850      2.00000
    143      -1.7850      2.00000
    144      -1.7850      2.00000
    145      -1.7850      2.00000
    146      -1.7828      2.00000
    147      -1.7828      2.00000
    148      -1.7828      2.00000
    149      -1.7828      2.00000
    150      -1.7828      2.00000
    151      -1.7828      2.00000
    152      -1.7551      2.00000
    153      -1.7551      2.00000
    154      -1.3244      2.00000
    155      -1.3244      2.00000
    156      -1.3244      2.00000
    157      -1.2686      2.00000
    158      -0.6536      2.00000
    159      -0.6536      2.00000
    160      -0.6536      2.00000
    161      -0.6536      2.00000
    162      -0.6536      2.00000
    163      -0.6536      2.00000
    164      -0.5491      2.00000
    165      -0.5491      2.00000
    166      -0.5491      2.00000
    167      -0.5491      2.00000
    168      -0.5491      2.00000
    169      -0.5491      2.00000
    170       0.1780      2.00000
    171       0.1780      2.00000
    172       0.1780      2.00000
    173       0.1780      2.00000
    174       0.1780      2.00000
    175       0.1780      2.00000
    176       0.3009      2.00000
    177       0.3009      2.00000
    178       1.1583      2.00000
    179       1.1583      2.00000
    180       1.1583      2.00000
    181       1.1583      2.00000
    182       1.1583      2.00000
    183       1.1583      2.00000
    184       1.5258      2.00000
    185       1.5258      2.00000
    186       1.5258      2.00000
    187       1.5258      2.00000
    188       1.5258      2.00000
    189       1.5258      2.00000
    190       1.6843      2.00000
    191       1.6843      2.00000
    192       1.6843      2.00000
    193       1.6843      2.00000
    194       1.6843      2.00000
    195       1.6843      2.00000
    196       1.7980      2.00000
    197       1.7980      2.00000
    198       1.7980      2.00000
    199       1.9181      2.00000
    200       1.9181      2.00000
    201       1.9181      2.00000
    202       1.9181      2.00000
    203       1.9181      2.00000
    204       1.9181      2.00000
    205       2.1518      2.00000
    206       2.1518      2.00000
    207       2.1518      2.00000
    208       2.1518      2.00000
    209       2.1518      2.00000
    210       2.1518      2.00000
    211       2.3892      2.00000
    212       2.3892      2.00000
    213       2.3892      2.00000
    214       2.9258      2.00000
    215       2.9258      2.00000
    216       2.9258      2.00000
    217       2.9258      2.00000
    218       2.9258      2.00000
    219       2.9258      2.00000
    220       3.0279      2.00000
    221       3.0279      2.00000
    222       3.0279      2.00000
    223       3.0279      2.00000
    224       3.0279      2.00000
    225       3.0279      2.00000
    226       3.4990      2.00000
    227       3.4990      2.00000
    228       3.4990      2.00000
    229       3.6416      2.00000
    230       3.6416      2.00000
    231       3.6416      2.00000
    232       3.6416      2.00000
    233       3.6416      2.00000
    234       3.6416      2.00000
    235       3.8105      2.00000
    236       3.8105      2.00000
    237       3.8105      2.00000
    238       4.0292      2.00000
    239       4.0292      2.00000
    240       4.0292      2.00000
    241       4.0292      2.00000
    242       4.0292      2.00000
    243       4.0292      2.00000
    244       4.0568      2.00000
    245       4.0568      2.00000
    246       4.0699      2.00000
    247       4.0699      2.00000
    248       4.0699      2.00000
    249       5.4978      0.00000
    250       5.9123      0.00000
    251       5.9123      0.00000
    252       5.9123      0.00000
    253       6.3874      0.00000
    254       7.4537      0.00000
    255       7.4537      0.00000
    256       7.4537      0.00000
    257       7.4537      0.00000
    258       7.4537      0.00000
    259       7.4537      0.00000
    260       7.7706      0.00000
    261       7.7706      0.00000
    262       7.7706      0.00000
    263       7.7706      0.00000
    264       7.7706      0.00000
    265       7.7706      0.00000
    266       8.2892      0.00000
    267       8.6003      0.00000
    268       8.6003      0.00000
    269       8.6003      0.00000
    270       8.8312      0.00000
    271       8.8312      0.00000
    272       8.8312      0.00000
    273       8.8312      0.00000
    274       8.8312      0.00000
    275       8.8312      0.00000
    276       9.5914      0.00000
    277       9.5914      0.00000
    278       9.5914      0.00000
    279       9.5914      0.00000
    280       9.5914      0.00000
    281       9.5914      0.00000
    282       9.9506      0.00000
    283       9.9506      0.00000
    284       9.9506      0.00000
    285      10.0122      0.00000
    286      10.0122      0.00000
    287      10.0122      0.00000
    288      10.0122      0.00000
    289      10.0122      0.00000
    290      10.0122      0.00000
    291      10.2830      0.00000
    292      10.2830      0.00000
    293      11.0892      0.00000
    294      11.0899      0.00000
    295      11.0915      0.00000
    296      11.2304      0.00000
    297      11.2335      0.00000
    298      11.2375      0.00000
    299      11.2453      0.00000
    300      11.2628      0.00000
    301      11.2885      0.00000
    302      11.3573      0.00000
    303      11.3733      0.00000
    304      11.3783      0.00000

 k-point     2 :       0.1667    0.0000    0.0000
  band No.  band energies     occupation 
      1      -9.9460      2.00000
      2      -9.9453      2.00000
      3      -9.9453      2.00000
      4      -9.8407      2.00000
      5      -9.8407      2.00000
      6      -9.8325      2.00000
      7      -9.8325      2.00000
      8      -9.8325      2.00000
      9      -9.8325      2.00000
     10      -9.8184      2.00000
     11      -9.7518      2.00000
     12      -9.7518      2.00000
     13      -9.7518      2.00000
     14      -9.7518      2.00000
     15      -9.6959      2.00000
     16      -9.5909      2.00000
     17      -9.5909      2.00000
     18      -9.5909      2.00000
     19      -9.5909      2.00000
     20      -9.5692      2.00000
     21      -9.5692      2.00000
     22      -9.5209      2.00000
     23      -9.4967      2.00000
     24      -9.4866      2.00000
     25      -9.4449      2.00000
     26      -9.4369      2.00000
     27      -9.4320      2.00000
     28      -9.4320      2.00000
     29      -9.4320      2.00000
     30      -9.4320      2.00000
     31      -9.4242      2.00000
     32      -9.4192      2.00000
     33      -9.4192      2.00000
     34      -9.4123      2.00000
     35      -9.4123      2.00000
     36      -9.4123      2.00000
     37      -9.4123      2.00000
     38      -9.4103      2.00000
     39      -9.3903      2.00000
     40      -9.3535      2.00000
     41      -9.3513      2.00000
     42      -9.3513      2.00000
     43      -9.3448      2.00000
     44      -9.3433      2.00000
     45      -9.3433      2.00000
     46      -9.3433      2.00000
     47      -9.3433      2.00000
     48      -9.3394      2.00000
     49      -9.3264      2.00000
     50      -9.3264      2.00000
     51      -9.3244      2.00000
     52      -9.3218      2.00000
     53      -9.3218      2.00000
     54      -9.3218      2.00000
     55      -9.3218      2.00000
     56      -9.3209      2.00000
     57      -9.3143      2.00000
     58      -9.3143      2.00000
     59      -9.3143      2.00000
     60      -9.3143      2.00000
     61      -9.3106      2.00000
     62      -9.3106      2.00000
     63      -9.3083      2.00000
     64      -9.3052      2.00000
     65      -9.3029      2.00000
     66      -9.3029      2.00000
     67      -9.2972      2.00000
     68      -9.2972      2.00000
     69      -9.2972      2.00000
     70      -9.2972      2.00000
     71      -9.2877      2.00000
     72      -9.2665      2.00000
     73      -9.2665      2.00000
     74      -9.2665      2.00000
     75      -9.2665      2.00000
     76      -9.2637      2.00000
     77      -9.2637      2.00000
     78      -9.2425      2.00000
     79      -9.2417      2.00000
     80      -9.2417      2.00000
     81      -8.8631      2.00000
     82      -8.3878      2.00000
     83      -8.2016      2.00000
     84      -8.2016      2.00000
     85      -8.2016      2.00000
     86      -8.2016      2.00000
     87      -8.0334      2.00000
     88      -7.7258      2.00000
     89      -7.5103      2.00000
     90      -7.5103      2.00000
     91      -7.5101      2.00000
     92      -7.4758      2.00000
     93      -7.4758      2.00000
     94      -7.4758      2.00000
     95      -7.4758      2.00000
     96      -7.4029      2.00000
     97      -7.4029      2.00000
     98      -7.3535      2.00000
     99      -7.1753      2.00000
    100      -7.1753      2.00000
    101      -7.1753      2.00000
    102      -7.1753      2.00000
    103      -7.1724      2.00000
    104      -6.6435      2.00000
    105      -6.6435      2.00000
    106      -6.6435      2.00000
    107      -6.6435      2.00000
    108      -6.6118      2.00000
    109      -6.6118      2.00000
    110      -6.5697      2.00000
    111      -6.5315      2.00000
    112      -6.5315      2.00000
    113      -2.1263      2.00000
    114      -2.1263      2.00000
    115      -2.1263      2.00000
    116      -2.1263      2.00000
    117      -2.1200      2.00000
    118      -2.1136      2.00000
    119      -2.0049      2.00000
    120      -1.9917      2.00000
    121      -1.9917      2.00000
    122      -1.9815      2.00000
    123      -1.9815      2.00000
    124      -1.9815      2.00000
    125      -1.9815      2.00000
    126      -1.9064      2.00000
    127      -1.8831      2.00000
    128      -1.8831      2.00000
    129      -1.8417      2.00000
    130      -1.8417      2.00000
    131      -1.8342      2.00000
    132      -1.8235      2.00000
    133      -1.8235      2.00000
    134      -1.8235      2.00000
    135      -1.8235      2.00000
    136      -1.8213      2.00000
    137      -1.8159      2.00000
    138      -1.8159      2.00000
    139      -1.7956      2.00000
    140      -1.7933      2.00000
    141      -1.7834      2.00000
    142      -1.7834      2.00000
    143      -1.7834      2.00000
    144      -1.7834      2.00000
    145      -1.7817      2.00000
    146      -1.7817      2.00000
    147      -1.7817      2.00000
    148      -1.7817      2.00000
    149      -1.7755      2.00000
    150      -1.7739      2.00000
    151      -1.7640      2.00000
    152      -1.7558      2.00000
    153      -1.7556      2.00000
    154      -1.2750      2.00000
    155      -1.2748      2.00000
    156      -1.2748      2.00000
    157      -1.1853      2.00000
    158      -0.8028      2.00000
    159      -0.8028      2.00000
    160      -0.8028      2.00000
    161      -0.8028      2.00000
    162      -0.7512      2.00000
    163      -0.6975      2.00000
    164      -0.6975      2.00000
    165      -0.5281      2.00000
    166      -0.3797      2.00000
    167      -0.3797      2.00000
    168      -0.3797      2.00000
    169      -0.3797      2.00000
    170      -0.1858      2.00000
    171       0.1988      2.00000
    172       0.1988      2.00000
    173       0.1988      2.00000
    174       0.1988      2.00000
    175       0.3261      2.00000
    176       0.3496      2.00000
    177       0.5630      2.00000
    178       0.9109      2.00000
    179       1.1577      2.00000
    180       1.1577      2.00000
    181       1.1577      2.00000
    182       1.1577      2.00000
    183       1.3484      2.00000
    184       1.3484      2.00000
    185       1.3484      2.00000
    186       1.3484      2.00000
    187       1.4283      2.00000
    188       1.4582      2.00000
    189       1.6285      2.00000
    190       1.6285      2.00000
    191       1.6630      2.00000
    192       1.6749      2.00000
    193       1.6814      2.00000
    194       1.6814      2.00000
    195       1.6814      2.00000
    196       1.6814      2.00000
    197       1.7331      2.00000
    198       1.7822      2.00000
    199       1.7822      2.00000
    200       1.9954      2.00000
    201       1.9954      2.00000
    202       1.9954      2.00000
    203       1.9954      2.00000
    204       2.2492      2.00000
    205       2.2492      2.00000
    206       2.2492      2.00000
    207       2.2492      2.00000
    208       2.2924      2.00000
    209       2.2924      2.00000
    210       2.3359      2.00000
    211       2.3644      2.00000
    212       2.3644      2.00000
    213       2.3925      2.00000
    214       2.8050      2.00000
    215       2.8050      2.00000
    216       2.9237      2.00000
    217       2.9237      2.00000
    218       2.9237      2.00000
    219       2.9237      2.00000
    220       3.0872      2.00000
    221       3.0872      2.00000
    222       3.0872      2.00000
    223       3.0872      2.00000
    224       3.1887      2.00000
    225       3.1887      2.00000
    226       3.3448      2.00000
    227       3.4854      2.00000
    228       3.4854      2.00000
    229       3.5390      2.00000
    230       3.5473      2.00000
    231       3.5473      2.00000
    232       3.5473      2.00000
    233       3.5473      2.00000
    234       3.6488      2.00000
    235       3.6488      2.00000
    236       3.7771      2.00000
    237       3.7771      2.00000
    238       3.9863      2.00000
    239       4.0007      2.00000
    240       4.0007      2.00000
    241       4.0113      2.00000
    242       4.0113      2.00000
    243       4.0113      2.00000
    244       4.0113      2.00000
    245       4.0306      2.00000
    246       4.0332      2.00000
    247       4.0564      2.00000
    248       4.0668      2.00000
    249       5.7612      0.00000
    250       5.9492      0.00000
    251       6.0250      0.00000
    252       6.0250      0.00000
    253       6.5635      0.00000
    254       7.1400      0.00000
    255       7.4875      0.00000
    256       7.4875      0.00000
    257       7.4875      0.00000
    258       7.4875      0.00000
    259       7.5710      0.00000
    260       7.6365      0.00000
    261       7.6365      0.00000
    262       7.7636      0.00000
    263       7.7636      0.00000
    264       7.7636      0.00000
    265       7.7636      0.00000
    266       8.3517      0.00000
    267       8.4206      0.00000
    268       8.6864      0.00000
    269       8.7075      0.00000
    270       8.7075      0.00000
    271       8.8949      0.00000
    272       8.8949      0.00000
    273       8.8949      0.00000
    274       8.8949      0.00000
    275       9.1224      0.00000
    276       9.2050      0.00000
    277       9.5195      0.00000
    278       9.5195      0.00000
    279       9.5195      0.00000
    280       9.5195      0.00000
    281       9.9107      0.00000
    282       9.9107      0.00000
    283       9.9174      0.00000
    284       9.9505      0.00000
    285       9.9725      0.00000
    286       9.9725      0.00000
    287      10.1098      0.00000
    288      10.1098      0.00000
    289      10.1098      0.00000
    290      10.1098      0.00000
    291      10.3391      0.00000
    292      10.3635      0.00000
    293      10.7228      0.00000
    294      10.7229      0.00000
    295      10.9852      0.00000
    296      10.9861      0.00000
    297      10.9886      0.00000
    298      10.9902      0.00000
    299      10.9947      0.00000
    300      11.0103      0.00000
    301      11.1290      0.00000
    302      11.1481      0.00000
    303      11.1671      0.00000
    304      11.1920      0.00000

 k-point     3 :       0.3333    0.0000    0.0000
  band No.  band energies     occupation 
      1      -9.9305      2.00000
      2      -9.9283      2.00000
      3      -9.9283      2.00000
      4      -9.8702      2.00000
      5      -9.8702      2.00000
      6      -9.8668      2.00000
      7      -9.8401      2.00000
      8      -9.8401      2.00000
      9      -9.8401      2.00000
     10      -9.8401      2.00000
     11      -9.7357      2.00000
     12      -9.7357      2.00000
     13      -9.7357      2.00000
     14      -9.7357      2.00000
     15      -9.6301      2.00000
     16      -9.6021      2.00000
     17      -9.6021      2.00000
     18      -9.6021      2.00000
     19      -9.6021      2.00000
     20      -9.5301      2.00000
     21      -9.5301      2.00000
     22      -9.5268      2.00000
     23      -9.5038      2.00000
     24      -9.4800      2.00000
     25      -9.4619      2.00000
     26      -9.4577      2.00000
     27      -9.4456      2.00000
     28      -9.4456      2.00000
     29      -9.4295      2.00000
     30      -9.4295      2.00000
     31      -9.4295      2.00000
     32      -9.4295      2.00000
     33      -9.4178      2.00000
     34      -9.4120      2.00000
     35      -9.4120      2.00000
     36      -9.4120      2.00000
     37      -9.4120      2.00000
     38      -9.4115      2.00000
     39      -9.3731      2.00000
     40      -9.3564      2.00000
     41      -9.3474      2.00000
     42      -9.3474      2.00000
     43      -9.3435      2.00000
     44      -9.3433      2.00000
     45      -9.3433      2.00000
     46      -9.3433      2.00000
     47      -9.3433      2.00000
     48      -9.3339      2.00000
     49      -9.3339      2.00000
     50      -9.3323      2.00000
     51      -9.3319      2.00000
     52      -9.3213      2.00000
     53      -9.3213      2.00000
     54      -9.3213      2.00000
     55      -9.3213      2.00000
     56      -9.3199      2.00000
     57      -9.3159      2.00000
     58      -9.3159      2.00000
     59      -9.3159      2.00000
     60      -9.3159      2.00000
     61      -9.3143      2.00000
     62      -9.3123      2.00000
     63      -9.3072      2.00000
     64      -9.3072      2.00000
     65      -9.3037      2.00000
     66      -9.3037      2.00000
     67      -9.2928      2.00000
     68      -9.2928      2.00000
     69      -9.2928      2.00000
     70      -9.2928      2.00000
     71      -9.2743      2.00000
     72      -9.2689      2.00000
     73      -9.2689      2.00000
     74      -9.2689      2.00000
     75      -9.2689      2.00000
     76      -9.2589      2.00000
     77      -9.2589      2.00000
     78      -9.2499      2.00000
     79      -9.2463      2.00000
     80      -9.2463      2.00000
     81      -8.8030      2.00000
     82      -8.5589      2.00000
     83      -8.1956      2.00000
     84      -8.1956      2.00000
     85      -8.1956      2.00000
     86      -8.1956      2.00000
     87      -7.8982      2.00000
     88      -7.7536      2.00000
     89      -7.5586      2.00000
     90      -7.5586      2.00000
     91      -7.5586      2.00000
     92      -7.5586      2.00000
     93      -7.4887      2.00000
     94      -7.4887      2.00000
     95      -7.4875      2.00000
     96      -7.4268      2.00000
     97      -7.4268      2.00000
     98      -7.4092      2.00000
     99      -7.0331      2.00000
    100      -7.0331      2.00000
    101      -7.0331      2.00000
    102      -7.0331      2.00000
    103      -7.0269      2.00000
    104      -6.7099      2.00000
    105      -6.7099      2.00000
    106      -6.7099      2.00000
    107      -6.7099      2.00000
    108      -6.6893      2.00000
    109      -6.5932      2.00000
    110      -6.5932      2.00000
    111      -6.5471      2.00000
    112      -6.5471      2.00000
    113      -2.1329      2.00000
    114      -2.1329      2.00000
    115      -2.1329      2.00000
    116      -2.1329      2.00000
    117      -2.1086      2.00000
    118      -2.0904      2.00000
    119      -2.0550      2.00000
    120      -1.9847      2.00000
    121      -1.9783      2.00000
    122      -1.9783      2.00000
    123      -1.9475      2.00000
    124      -1.9475      2.00000
    125      -1.9475      2.00000
    126      -1.9475      2.00000
    127      -1.9206      2.00000
    128      -1.9206      2.00000
    129      -1.8475      2.00000
    130      -1.8475      2.00000
    131      -1.8475      2.00000
    132      -1.8475      2.00000
    133      -1.8350      2.00000
    134      -1.8350      2.00000
    135      -1.8271      2.00000
    136      -1.8213      2.00000
    137      -1.8213      2.00000
    138      -1.8182      2.00000
    139      -1.8061      2.00000
    140      -1.8050      2.00000
    141      -1.7820      2.00000
    142      -1.7820      2.00000
    143      -1.7820      2.00000
    144      -1.7820      2.00000
    145      -1.7794      2.00000
    146      -1.7794      2.00000
    147      -1.7794      2.00000
    148      -1.7794      2.00000
    149      -1.7679      2.00000
    150      -1.7669      2.00000
    151      -1.7582      2.00000
    152      -1.7580      2.00000
    153      -1.5774      2.00000
    154      -1.1474      2.00000
    155      -1.1474      2.00000
    156      -1.1350      2.00000
    157      -1.0401      2.00000
    158      -0.9903      2.00000
    159      -0.9334      2.00000
    160      -0.9334      2.00000
    161      -0.9334      2.00000
    162      -0.9334      2.00000
    163      -0.8177      2.00000
    164      -0.8177      2.00000
    165      -0.6882      2.00000
    166      -0.4932      2.00000
    167      -0.2186      2.00000
    168      -0.2186      2.00000
    169      -0.2186      2.00000
    170      -0.2186      2.00000
    171       0.2731      2.00000
    172       0.2731      2.00000
    173       0.2731      2.00000
    174       0.2731      2.00000
    175       0.4016      2.00000
    176       0.4960      2.00000
    177       0.6976      2.00000
    178       0.9373      2.00000
    179       1.0664      2.00000
    180       1.1058      2.00000
    181       1.1058      2.00000
    182       1.1058      2.00000
    183       1.1058      2.00000
    184       1.1960      2.00000
    185       1.1960      2.00000
    186       1.1960      2.00000
    187       1.1960      2.00000
    188       1.5047      2.00000
    189       1.5047      2.00000
    190       1.5047      2.00000
    191       1.5047      2.00000
    192       1.5498      2.00000
    193       1.5941      2.00000
    194       1.5941      2.00000
    195       1.7047      2.00000
    196       1.7250      2.00000
    197       1.7250      2.00000
    198       2.0109      2.00000
    199       2.0255      2.00000
    200       2.1865      2.00000
    201       2.2245      2.00000
    202       2.2245      2.00000
    203       2.2245      2.00000
    204       2.2245      2.00000
    205       2.3422      2.00000
    206       2.3422      2.00000
    207       2.4329      2.00000
    208       2.4329      2.00000
    209       2.4338      2.00000
    210       2.4338      2.00000
    211       2.4338      2.00000
    212       2.4338      2.00000
    213       2.8392      2.00000
    214       2.8392      2.00000
    215       2.8658      2.00000
    216       2.8658      2.00000
    217       2.8658      2.00000
    218       2.8658      2.00000
    219       2.8746      2.00000
    220       2.9605      2.00000
    221       3.0288      2.00000
    222       3.2407      2.00000
    223       3.2407      2.00000
    224       3.2407      2.00000
    225       3.2407      2.00000
    226       3.3295      2.00000
    227       3.3295      2.00000
    228       3.3295      2.00000
    229       3.3295      2.00000
    230       3.3873      2.00000
    231       3.3873      2.00000
    232       3.3937      2.00000
    233       3.3937      2.00000
    234       3.6706      2.00000
    235       3.6706      2.00000
    236       3.6966      2.00000
    237       3.6966      2.00000
    238       3.7254      2.00000
    239       3.8422      2.00000
    240       3.8422      2.00000
    241       3.9548      2.00000
    242       3.9548      2.00000
    243       3.9548      2.00000
    244       3.9548      2.00000
    245       4.0373      2.00000
    246       4.0407      2.00000
    247       4.0542      2.00000
    248       4.0585      2.00000
    249       6.1031      0.00000
    250       6.3156      0.00000
    251       6.3419      0.00000
    252       6.3419      0.00000
    253       6.7492      0.00000
    254       6.9699      0.00000
    255       7.2721      0.00000
    256       7.2721      0.00000
    257       7.3837      0.00000
    258       7.5562      0.00000
    259       7.5562      0.00000
    260       7.5562      0.00000
    261       7.5562      0.00000
    262       7.7608      0.00000
    263       7.7608      0.00000
    264       7.7608      0.00000
    265       7.7608      0.00000
    266       7.9574      0.00000
    267       8.5152      0.00000
    268       8.8910      0.00000
    269       8.9109      0.00000
    270       8.9963      0.00000
    271       8.9963      0.00000
    272       9.0167      0.00000
    273       9.0167      0.00000
    274       9.0167      0.00000
    275       9.0167      0.00000
    276       9.1892      0.00000
    277       9.4058      0.00000
    278       9.4058      0.00000
    279       9.4058      0.00000
    280       9.4058      0.00000
    281       9.7093      0.00000
    282       9.7093      0.00000
    283       9.9075      0.00000
    284      10.0149      0.00000
    285      10.0149      0.00000
    286      10.2317      0.00000
    287      10.2661      0.00000
    288      10.2661      0.00000
    289      10.3160      0.00000
    290      10.3160      0.00000
    291      10.3160      0.00000
    292      10.3160      0.00000
    293      10.4894      0.00000
    294      10.5483      0.00000
    295      10.5864      0.00000
    296      10.5864      0.00000
    297      10.5864      0.00000
    298      10.5865      0.00000
    299      10.5938      0.00000
    300      10.8023      0.00000
    301      10.8714      0.00000
    302      10.8872      0.00000
    303      11.0002      0.00000
    304      11.0139      0.00000

 k-point     4 :       0.5000    0.0000    0.0000
  band No.  band energies     occupation 
      1      -9.9042      2.00000
      2      -9.9042      2.00000
      3      -9.9021      2.00000
      4      -9.9021      2.00000
      5      -9.9021      2.00000
      6      -9.9021      2.00000
      7      -9.8433      2.00000
      8      -9.8433      2.00000
      9      -9.8433      2.00000
     10      -9.8433      2.00000
     11      -9.7275      2.00000
     12      -9.7275      2.00000
     13      -9.7275      2.00000
     14      -9.7275      2.00000
     15      -9.6083      2.00000
     16      -9.6083      2.00000
     17      -9.6083      2.00000
     18      -9.6083      2.00000
     19      -9.5708      2.00000
     20      -9.5708      2.00000
     21      -9.4852      2.00000
     22      -9.4852      2.00000
     23      -9.4850      2.00000
     24      -9.4850      2.00000
     25      -9.4850      2.00000
     26      -9.4850      2.00000
     27      -9.4700      2.00000
     28      -9.4700      2.00000
     29      -9.4284      2.00000
     30      -9.4284      2.00000
     31      -9.4284      2.00000
     32      -9.4284      2.00000
     33      -9.4138      2.00000
     34      -9.4138      2.00000
     35      -9.4118      2.00000
     36      -9.4118      2.00000
     37      -9.4118      2.00000
     38      -9.4118      2.00000
     39      -9.3623      2.00000
     40      -9.3623      2.00000
     41      -9.3433      2.00000
     42      -9.3433      2.00000
     43      -9.3433      2.00000
     44      -9.3433      2.00000
     45      -9.3413      2.00000
     46      -9.3413      2.00000
     47      -9.3413      2.00000
     48      -9.3413      2.00000
     49      -9.3392      2.00000
     50      -9.3392      2.00000
     51      -9.3224      2.00000
     52      -9.3224      2.00000
     53      -9.3211      2.00000
     54      -9.3211      2.00000
     55      -9.3211      2.00000
     56      -9.3211      2.00000
     57      -9.3179      2.00000
     58      -9.3179      2.00000
     59      -9.3168      2.00000
     60      -9.3168      2.00000
     61      -9.3168      2.00000
     62      -9.3168      2.00000
     63      -9.3050      2.00000
     64      -9.3050      2.00000
     65      -9.3050      2.00000
     66      -9.3050      2.00000
     67      -9.2903      2.00000
     68      -9.2903      2.00000
     69      -9.2903      2.00000
     70      -9.2903      2.00000
     71      -9.2703      2.00000
     72      -9.2703      2.00000
     73      -9.2703      2.00000
     74      -9.2703      2.00000
     75      -9.2610      2.00000
     76      -9.2610      2.00000
     77      -9.2525      2.00000
     78      -9.2525      2.00000
     79      -9.2525      2.00000
     80      -9.2525      2.00000
     81      -8.7006      2.00000
     82      -8.7006      2.00000
     83      -8.1924      2.00000
     84      -8.1924      2.00000
     85      -8.1924      2.00000
     86      -8.1924      2.00000
     87      -7.8074      2.00000
     88      -7.8074      2.00000
     89      -7.5892      2.00000
     90      -7.5892      2.00000
     91      -7.5892      2.00000
     92      -7.5892      2.00000
     93      -7.4583      2.00000
     94      -7.4583      2.00000
     95      -7.4583      2.00000
     96      -7.4583      2.00000
     97      -7.4533      2.00000
     98      -7.4533      2.00000
     99      -6.9496      2.00000
    100      -6.9496      2.00000
    101      -6.9496      2.00000
    102      -6.9496      2.00000
    103      -6.8547      2.00000
    104      -6.8547      2.00000
    105      -6.7665      2.00000
    106      -6.7665      2.00000
    107      -6.7665      2.00000
    108      -6.7665      2.00000
    109      -6.5694      2.00000
    110      -6.5694      2.00000
    111      -6.5694      2.00000
    112      -6.5694      2.00000
    113      -2.1358      2.00000
    114      -2.1358      2.00000
    115      -2.1358      2.00000
    116      -2.1358      2.00000
    117      -2.0879      2.00000
    118      -2.0879      2.00000
    119      -2.0484      2.00000
    120      -2.0484      2.00000
    121      -1.9545      2.00000
    122      -1.9545      2.00000
    123      -1.9544      2.00000
    124      -1.9544      2.00000
    125      -1.9219      2.00000
    126      -1.9219      2.00000
    127      -1.9219      2.00000
    128      -1.9219      2.00000
    129      -1.8680      2.00000
    130      -1.8680      2.00000
    131      -1.8680      2.00000
    132      -1.8680      2.00000
    133      -1.8282      2.00000
    134      -1.8282      2.00000
    135      -1.8282      2.00000
    136      -1.8282      2.00000
    137      -1.8168      2.00000
    138      -1.8168      2.00000
    139      -1.8143      2.00000
    140      -1.8143      2.00000
    141      -1.7814      2.00000
    142      -1.7814      2.00000
    143      -1.7814      2.00000
    144      -1.7814      2.00000
    145      -1.7787      2.00000
    146      -1.7787      2.00000
    147      -1.7787      2.00000
    148      -1.7787      2.00000
    149      -1.7622      2.00000
    150      -1.7622      2.00000
    151      -1.7616      2.00000
    152      -1.7616      2.00000
    153      -1.3301      2.00000
    154      -1.3301      2.00000
    155      -0.9815      2.00000
    156      -0.9815      2.00000
    157      -0.9815      2.00000
    158      -0.9815      2.00000
    159      -0.9802      2.00000
    160      -0.9802      2.00000
    161      -0.9802      2.00000
    162      -0.9802      2.00000
    163      -0.9253      2.00000
    164      -0.9253      2.00000
    165      -0.7517      2.00000
    166      -0.7517      2.00000
    167      -0.1646      2.00000
    168      -0.1646      2.00000
    169      -0.1646      2.00000
    170      -0.1646      2.00000
    171       0.3405      2.00000
    172       0.3405      2.00000
    173       0.3405      2.00000
    174       0.3405      2.00000
    175       0.5263      2.00000
    176       0.5263      2.00000
    177       0.7382      2.00000
    178       0.7382      2.00000
    179       0.9920      2.00000
    180       0.9920      2.00000
    181       0.9920      2.00000
    182       0.9920      2.00000
    183       1.2379      2.00000
    184       1.2379      2.00000
    185       1.2379      2.00000
    186       1.2379      2.00000
    187       1.2748      2.00000
    188       1.2748      2.00000
    189       1.3871      2.00000
    190       1.3871      2.00000
    191       1.3871      2.00000
    192       1.3871      2.00000
    193       1.6413      2.00000
    194       1.6413      2.00000
    195       1.6413      2.00000
    196       1.6413      2.00000
    197       1.9663      2.00000
    198       1.9663      2.00000
    199       2.3806      2.00000
    200       2.3806      2.00000
    201       2.3806      2.00000
    202       2.3806      2.00000
    203       2.4161      2.00000
    204       2.4161      2.00000
    205       2.4161      2.00000
    206       2.4161      2.00000
    207       2.4412      2.00000
    208       2.4412      2.00000
    209       2.4412      2.00000
    210       2.4412      2.00000
    211       2.4798      2.00000
    212       2.4798      2.00000
    213       2.4976      2.00000
    214       2.4976      2.00000
    215       2.9232      2.00000
    216       2.9232      2.00000
    217       2.9232      2.00000
    218       2.9232      2.00000
    219       3.0907      2.00000
    220       3.0907      2.00000
    221       3.0907      2.00000
    222       3.0907      2.00000
    223       3.1322      2.00000
    224       3.1322      2.00000
    225       3.1322      2.00000
    226       3.1322      2.00000
    227       3.3336      2.00000
    228       3.3336      2.00000
    229       3.3600      2.00000
    230       3.3600      2.00000
    231       3.3600      2.00000
    232       3.3600      2.00000
    233       3.5780      2.00000
    234       3.5780      2.00000
    235       3.5780      2.00000
    236       3.5780      2.00000
    237       3.7177      2.00000
    238       3.7177      2.00000
    239       3.7177      2.00000
    240       3.7177      2.00000
    241       3.9124      2.00000
    242       3.9124      2.00000
    243       3.9124      2.00000
    244       3.9124      2.00000
    245       4.0476      2.00000
    246       4.0476      2.00000
    247       4.0487      2.00000
    248       4.0487      2.00000
    249       6.3818      0.00000
    250       6.3818      0.00000
    251       6.7944      0.00000
    252       6.7944      0.00000
    253       6.7944      0.00000
    254       6.7944      0.00000
    255       6.9111      0.00000
    256       6.9111      0.00000
    257       7.4607      0.00000
    258       7.4607      0.00000
    259       7.5883      0.00000
    260       7.5883      0.00000
    261       7.5883      0.00000
    262       7.5883      0.00000
    263       7.7687      0.00000
    264       7.7687      0.00000
    265       7.7687      0.00000
    266       7.7687      0.00000
    267       8.7131      0.00000
    268       8.7131      0.00000
    269       9.0591      0.00000
    270       9.0591      0.00000
    271       9.0591      0.00000
    272       9.0591      0.00000
    273       9.0834      0.00000
    274       9.0834      0.00000
    275       9.3809      0.00000
    276       9.3809      0.00000
    277       9.3809      0.00000
    278       9.3809      0.00000
    279       9.3815      0.00000
    280       9.3815      0.00000
    281       9.3815      0.00000
    282       9.3815      0.00000
    283      10.0629      0.00000
    284      10.0629      0.00000
    285      10.0629      0.00000
    286      10.0629      0.00000
    287      10.1000      0.00000
    288      10.1000      0.00000
    289      10.3213      0.00000
    290      10.3213      0.00000
    291      10.3213      0.00000
    292      10.3213      0.00000
    293      10.4942      0.00000
    294      10.4944      0.00000
    295      10.6169      0.00000
    296      10.6172      0.00000
    297      10.6182      0.00000
    298      10.6234      0.00000
    299      10.7211      0.00000
    300      10.7243      0.00000
    301      10.8020      0.00000
    302      10.8087      0.00000
    303      10.8250      0.00000
    304      10.8681      0.00000

 k-point     5 :       0.1667    0.1667    0.0000
  band No.  band energies     occupation 
      1      -9.9485      2.00000
      2      -9.9396      2.00000
      3      -9.9318      2.00000
      4      -9.8569      2.00000
      5      -9.8569      2.00000
      6      -9.8555      2.00000
      7      -9.8391      2.00000
      8      -9.8391      2.00000
      9      -9.8068      2.00000
     10      -9.7942      2.00000
     11      -9.7942      2.00000
     12      -9.7771      2.00000
     13      -9.7196      2.00000
     14      -9.7001      2.00000
     15      -9.7001      2.00000
     16      -9.6201      2.00000
     17      -9.5775      2.00000
     18      -9.5775      2.00000
     19      -9.5722      2.00000
     20      -9.5702      2.00000
     21      -9.5702      2.00000
     22      -9.5165      2.00000
     23      -9.5026      2.00000
     24      -9.4896      2.00000
     25      -9.4427      2.00000
     26      -9.4427      2.00000
     27      -9.4361      2.00000
     28      -9.4361      2.00000
     29      -9.4350      2.00000
     30      -9.4289      2.00000
     31      -9.4274      2.00000
     32      -9.4254      2.00000
     33      -9.4233      2.00000
     34      -9.4233      2.00000
     35      -9.4189      2.00000
     36      -9.4102      2.00000
     37      -9.4056      2.00000
     38      -9.3906      2.00000
     39      -9.3906      2.00000
     40      -9.3537      2.00000
     41      -9.3507      2.00000
     42      -9.3500      2.00000
     43      -9.3444      2.00000
     44      -9.3444      2.00000
     45      -9.3437      2.00000
     46      -9.3427      2.00000
     47      -9.3399      2.00000
     48      -9.3399      2.00000
     49      -9.3263      2.00000
     50      -9.3263      2.00000
     51      -9.3259      2.00000
     52      -9.3259      2.00000
     53      -9.3247      2.00000
     54      -9.3234      2.00000
     55      -9.3223      2.00000
     56      -9.3202      2.00000
     57      -9.3184      2.00000
     58      -9.3127      2.00000
     59      -9.3127      2.00000
     60      -9.3106      2.00000
     61      -9.3106      2.00000
     62      -9.3095      2.00000
     63      -9.3080      2.00000
     64      -9.3047      2.00000
     65      -9.3047      2.00000
     66      -9.3031      2.00000
     67      -9.3027      2.00000
     68      -9.3008      2.00000
     69      -9.2914      2.00000
     70      -9.2875      2.00000
     71      -9.2875      2.00000
     72      -9.2718      2.00000
     73      -9.2651      2.00000
     74      -9.2651      2.00000
     75      -9.2638      2.00000
     76      -9.2638      2.00000
     77      -9.2633      2.00000
     78      -9.2469      2.00000
     79      -9.2433      2.00000
     80      -9.2413      2.00000
     81      -8.8439      2.00000
     82      -8.3777      2.00000
     83      -8.3777      2.00000
     84      -8.2301      2.00000
     85      -8.1723      2.00000
     86      -8.0415      2.00000
     87      -8.0415      2.00000
     88      -7.7396      2.00000
     89      -7.6067      2.00000
     90      -7.5510      2.00000
     91      -7.5228      2.00000
     92      -7.5228      2.00000
     93      -7.4964      2.00000
     94      -7.4537      2.00000
     95      -7.4286      2.00000
     96      -7.4286      2.00000
     97      -7.3354      2.00000
     98      -7.2654      2.00000
     99      -7.2148      2.00000
    100      -7.2148      2.00000
    101      -7.1213      2.00000
    102      -7.1213      2.00000
    103      -7.0492      2.00000
    104      -6.6786      2.00000
    105      -6.6549      2.00000
    106      -6.6394      2.00000
    107      -6.6394      2.00000
    108      -6.6325      2.00000
    109      -6.6325      2.00000
    110      -6.5865      2.00000
    111      -6.5624      2.00000
    112      -6.5378      2.00000
    113      -2.1376      2.00000
    114      -2.1266      2.00000
    115      -2.1266      2.00000
    116      -2.1171      2.00000
    117      -2.1156      2.00000
    118      -2.1156      2.00000
    119      -2.0353      2.00000
    120      -1.9928      2.00000
    121      -1.9810      2.00000
    122      -1.9810      2.00000
    123      -1.9729      2.00000
    124      -1.9729      2.00000
    125      -1.9486      2.00000
    126      -1.9254      2.00000
    127      -1.8931      2.00000
    128      -1.8778      2.00000
    129      -1.8578      2.00000
    130      -1.8466      2.00000
    131      -1.8403      2.00000
    132      -1.8337      2.00000
    133      -1.8337      2.00000
    134      -1.8271      2.00000
    135      -1.8205      2.00000
    136      -1.8205      2.00000
    137      -1.8198      2.00000
    138      -1.8054      2.00000
    139      -1.7931      2.00000
    140      -1.7931      2.00000
    141      -1.7884      2.00000
    142      -1.7884      2.00000
    143      -1.7840      2.00000
    144      -1.7838      2.00000
    145      -1.7819      2.00000
    146      -1.7787      2.00000
    147      -1.7750      2.00000
    148      -1.7750      2.00000
    149      -1.7740      2.00000
    150      -1.7740      2.00000
    151      -1.7568      2.00000
    152      -1.7565      2.00000
    153      -1.7313      2.00000
    154      -1.2724      2.00000
    155      -1.2183      2.00000
    156      -1.1922      2.00000
    157      -1.1034      2.00000
    158      -0.9712      2.00000
    159      -0.9215      2.00000
    160      -0.9215      2.00000
    161      -0.7984      2.00000
    162      -0.7984      2.00000
    163      -0.6852      2.00000
    164      -0.5309      2.00000
    165      -0.5038      2.00000
    166      -0.5038      2.00000
    167      -0.4102      2.00000
    168      -0.4102      2.00000
    169      -0.1817      2.00000
    170      -0.1434      2.00000
    171      -0.1434      2.00000
    172       0.2053      2.00000
    173       0.2663      2.00000
    174       0.3617      2.00000
    175       0.3815      2.00000
    176       0.5684      2.00000
    177       0.5684      2.00000
    178       0.9191      2.00000
    179       0.9191      2.00000
    180       1.0442      2.00000
    181       1.1443      2.00000
    182       1.2890      2.00000
    183       1.3487      2.00000
    184       1.3487      2.00000
    185       1.3720      2.00000
    186       1.3841      2.00000
    187       1.3841      2.00000
    188       1.4275      2.00000
    189       1.4275      2.00000
    190       1.5013      2.00000
    191       1.5013      2.00000
    192       1.5820      2.00000
    193       1.6269      2.00000
    194       1.7020      2.00000
    195       1.7741      2.00000
    196       1.7819      2.00000
    197       1.7819      2.00000
    198       1.8064      2.00000
    199       1.8476      2.00000
    200       1.8756      2.00000
    201       1.8756      2.00000
    202       2.2246      2.00000
    203       2.2610      2.00000
    204       2.3259      2.00000
    205       2.3259      2.00000
    206       2.3272      2.00000
    207       2.3364      2.00000
    208       2.3397      2.00000
    209       2.3669      2.00000
    210       2.3669      2.00000
    211       2.3777      2.00000
    212       2.3777      2.00000
    213       2.3873      2.00000
    214       2.7917      2.00000
    215       2.7917      2.00000
    216       2.8764      2.00000
    217       2.8764      2.00000
    218       2.9450      2.00000
    219       3.0087      2.00000
    220       3.0264      2.00000
    221       3.1430      2.00000
    222       3.1515      2.00000
    223       3.1515      2.00000
    224       3.2048      2.00000
    225       3.2989      2.00000
    226       3.3034      2.00000
    227       3.3034      2.00000
    228       3.4167      2.00000
    229       3.4796      2.00000
    230       3.4951      2.00000
    231       3.5333      2.00000
    232       3.5575      2.00000
    233       3.5575      2.00000
    234       3.5576      2.00000
    235       3.5576      2.00000
    236       3.6882      2.00000
    237       3.7399      2.00000
    238       3.8730      2.00000
    239       3.8902      2.00000
    240       3.9795      2.00000
    241       4.0073      2.00000
    242       4.0073      2.00000
    243       4.0114      2.00000
    244       4.0189      2.00000
    245       4.0189      2.00000
    246       4.0211      2.00000
    247       4.0917      2.00000
    248       4.0978      2.00000
    249       5.9380      0.00000
    250       6.0459      0.00000
    251       6.0832      0.00000
    252       6.1410      0.00000
    253       6.7085      0.00000
    254       7.2027      0.00000
    255       7.2027      0.00000
    256       7.4710      0.00000
    257       7.5056      0.00000
    258       7.5189      0.00000
    259       7.5189      0.00000
    260       7.6281      0.00000
    261       7.6281      0.00000
    262       7.7054      0.00000
    263       7.7054      0.00000
    264       7.7481      0.00000
    265       7.7794      0.00000
    266       8.4088      0.00000
    267       8.4794      0.00000
    268       8.4794      0.00000
    269       8.7228      0.00000
    270       8.7988      0.00000
    271       8.8081      0.00000
    272       8.8490      0.00000
    273       9.0354      0.00000
    274       9.1438      0.00000
    275       9.1438      0.00000
    276       9.1830      0.00000
    277       9.1830      0.00000
    278       9.4819      0.00000
    279       9.4925      0.00000
    280       9.7943      0.00000
    281       9.7943      0.00000
    282       9.8008      0.00000
    283       9.9907      0.00000
    284       9.9975      0.00000
    285       9.9975      0.00000
    286      10.0616      0.00000
    287      10.0616      0.00000
    288      10.0904      0.00000
    289      10.1091      0.00000
    290      10.2821      0.00000
    291      10.4122      0.00000
    292      10.4198      0.00000
    293      10.5968      0.00000
    294      10.5969      0.00000
    295      10.6597      0.00000
    296      10.6597      0.00000
    297      10.6967      0.00000
    298      10.7435      0.00000
    299      10.7725      0.00000
    300      10.9104      0.00000
    301      10.9788      0.00000
    302      10.9868      0.00000
    303      11.0265      0.00000
    304      11.0836      0.00000

 k-point     6 :       0.3333    0.1667    0.0000
  band No.  band energies     occupation 
      1      -9.9403      2.00000
      2      -9.9232      2.00000
      3      -9.9078      2.00000
      4      -9.8916      2.00000
      5      -9.8716      2.00000
      6      -9.8708      2.00000
      7      -9.8667      2.00000
      8      -9.8357      2.00000
      9      -9.8338      2.00000
     10      -9.8091      2.00000
     11      -9.7658      2.00000
     12      -9.7563      2.00000
     13      -9.7139      2.00000
     14      -9.6953      2.00000
     15      -9.6459      2.00000
     16      -9.6403      2.00000
     17      -9.5999      2.00000
     18      -9.5704      2.00000
     19      -9.5659      2.00000
     20      -9.5395      2.00000
     21      -9.5332      2.00000
     22      -9.5314      2.00000
     23      -9.5033      2.00000
     24      -9.4878      2.00000
     25      -9.4602      2.00000
     26      -9.4555      2.00000
     27      -9.4531      2.00000
     28      -9.4419      2.00000
     29      -9.4385      2.00000
     30      -9.4354      2.00000
     31      -9.4336      2.00000
     32      -9.4250      2.00000
     33      -9.4234      2.00000
     34      -9.4218      2.00000
     35      -9.4172      2.00000
     36      -9.4111      2.00000
     37      -9.3995      2.00000
     38      -9.3919      2.00000
     39      -9.3735      2.00000
     40      -9.3563      2.00000
     41      -9.3472      2.00000
     42      -9.3462      2.00000
     43      -9.3438      2.00000
     44      -9.3437      2.00000
     45      -9.3431      2.00000
     46      -9.3421      2.00000
     47      -9.3409      2.00000
     48      -9.3347      2.00000
     49      -9.3326      2.00000
     50      -9.3325      2.00000
     51      -9.3304      2.00000
     52      -9.3261      2.00000
     53      -9.3249      2.00000
     54      -9.3248      2.00000
     55      -9.3214      2.00000
     56      -9.3213      2.00000
     57      -9.3185      2.00000
     58      -9.3151      2.00000
     59      -9.3149      2.00000
     60      -9.3146      2.00000
     61      -9.3106      2.00000
     62      -9.3086      2.00000
     63      -9.3068      2.00000
     64      -9.3064      2.00000
     65      -9.3038      2.00000
     66      -9.3032      2.00000
     67      -9.2982      2.00000
     68      -9.2979      2.00000
     69      -9.2884      2.00000
     70      -9.2863      2.00000
     71      -9.2771      2.00000
     72      -9.2765      2.00000
     73      -9.2689      2.00000
     74      -9.2635      2.00000
     75      -9.2621      2.00000
     76      -9.2602      2.00000
     77      -9.2577      2.00000
     78      -9.2549      2.00000
     79      -9.2478      2.00000
     80      -9.2444      2.00000
     81      -8.7846      2.00000
     82      -8.5446      2.00000
     83      -8.3490      2.00000
     84      -8.2650      2.00000
     85      -8.1380      2.00000
     86      -8.0653      2.00000
     87      -7.9181      2.00000
     88      -7.7762      2.00000
     89      -7.6819      2.00000
     90      -7.6300      2.00000
     91      -7.5721      2.00000
     92      -7.5561      2.00000
     93      -7.4638      2.00000
     94      -7.4549      2.00000
     95      -7.4108      2.00000
     96      -7.3898      2.00000
     97      -7.3884      2.00000
     98      -7.2628      2.00000
     99      -7.1328      2.00000
    100      -7.0525      2.00000
    101      -7.0325      2.00000
    102      -7.0140      2.00000
    103      -6.9266      2.00000
    104      -6.7551      2.00000
    105      -6.7082      2.00000
    106      -6.7030      2.00000
    107      -6.6971      2.00000
    108      -6.6918      2.00000
    109      -6.6236      2.00000
    110      -6.6093      2.00000
    111      -6.5827      2.00000
    112      -6.5554      2.00000
    113      -2.1445      2.00000
    114      -2.1378      2.00000
    115      -2.1185      2.00000
    116      -2.1184      2.00000
    117      -2.1161      2.00000
    118      -2.0912      2.00000
    119      -2.0745      2.00000
    120      -1.9888      2.00000
    121      -1.9760      2.00000
    122      -1.9713      2.00000
    123      -1.9567      2.00000
    124      -1.9545      2.00000
    125      -1.9296      2.00000
    126      -1.9240      2.00000
    127      -1.9083      2.00000
    128      -1.8873      2.00000
    129      -1.8777      2.00000
    130      -1.8675      2.00000
    131      -1.8648      2.00000
    132      -1.8490      2.00000
    133      -1.8352      2.00000
    134      -1.8345      2.00000
    135      -1.8344      2.00000
    136      -1.8231      2.00000
    137      -1.8213      2.00000
    138      -1.8034      2.00000
    139      -1.7988      2.00000
    140      -1.7934      2.00000
    141      -1.7900      2.00000
    142      -1.7847      2.00000
    143      -1.7839      2.00000
    144      -1.7823      2.00000
    145      -1.7809      2.00000
    146      -1.7757      2.00000
    147      -1.7750      2.00000
    148      -1.7738      2.00000
    149      -1.7679      2.00000
    150      -1.7672      2.00000
    151      -1.7589      2.00000
    152      -1.7586      2.00000
    153      -1.5913      2.00000
    154      -1.1797      2.00000
    155      -1.1364      2.00000
    156      -1.0896      2.00000
    157      -1.0746      2.00000
    158      -1.0619      2.00000
    159      -1.0458      2.00000
    160      -0.9072      2.00000
    161      -0.8858      2.00000
    162      -0.8847      2.00000
    163      -0.8024      2.00000
    164      -0.6870      2.00000
    165      -0.6130      2.00000
    166      -0.4268      2.00000
    167      -0.4147      2.00000
    168      -0.3316      2.00000
    169      -0.3065      2.00000
    170      -0.1255      2.00000
    171       0.0243      2.00000
    172       0.3150      2.00000
    173       0.3871      2.00000
    174       0.4351      2.00000
    175       0.5109      2.00000
    176       0.5956      2.00000
    177       0.7115      2.00000
    178       0.9052      2.00000
    179       0.9561      2.00000
    180       0.9716      2.00000
    181       1.0066      2.00000
    182       1.0335      2.00000
    183       1.1561      2.00000
    184       1.1617      2.00000
    185       1.1865      2.00000
    186       1.2614      2.00000
    187       1.3733      2.00000
    188       1.4186      2.00000
    189       1.4257      2.00000
    190       1.4302      2.00000
    191       1.4838      2.00000
    192       1.5652      2.00000
    193       1.5962      2.00000
    194       1.7263      2.00000
    195       1.7330      2.00000
    196       1.7709      2.00000
    197       1.8090      2.00000
    198       1.9502      2.00000
    199       2.0079      2.00000
    200       2.0229      2.00000
    201       2.1441      2.00000
    202       2.1633      2.00000
    203       2.3184      2.00000
    204       2.3390      2.00000
    205       2.3529      2.00000
    206       2.4134      2.00000
    207       2.4637      2.00000
    208       2.4687      2.00000
    209       2.4798      2.00000
    210       2.4914      2.00000
    211       2.5147      2.00000
    212       2.5350      2.00000
    213       2.7741      2.00000
    214       2.8277      2.00000
    215       2.8499      2.00000
    216       2.8596      2.00000
    217       2.8810      2.00000
    218       2.9072      2.00000
    219       2.9091      2.00000
    220       2.9233      2.00000
    221       2.9773      2.00000
    222       3.1006      2.00000
    223       3.1340      2.00000
    224       3.2225      2.00000
    225       3.2822      2.00000
    226       3.3336      2.00000
    227       3.3357      2.00000
    228       3.3555      2.00000
    229       3.3988      2.00000
    230       3.4061      2.00000
    231       3.4158      2.00000
    232       3.4837      2.00000
    233       3.4855      2.00000
    234       3.5289      2.00000
    235       3.5899      2.00000
    236       3.5907      2.00000
    237       3.6492      2.00000
    238       3.7274      2.00000
    239       3.8038      2.00000
    240       3.8259      2.00000
    241       3.9176      2.00000
    242       3.9295      2.00000
    243       3.9897      2.00000
    244       4.0059      2.00000
    245       4.0068      2.00000
    246       4.0310      2.00000
    247       4.0793      2.00000
    248       4.0987      2.00000
    249       6.2098      0.00000
    250       6.3117      0.00000
    251       6.3837      0.00000
    252       6.5152      0.00000
    253       6.8300      0.00000
    254       7.0664      0.00000
    255       7.2036      0.00000
    256       7.2847      0.00000
    257       7.3658      0.00000
    258       7.4385      0.00000
    259       7.4617      0.00000
    260       7.4829      0.00000
    261       7.5474      0.00000
    262       7.6128      0.00000
    263       7.6871      0.00000
    264       7.8027      0.00000
    265       7.8325      0.00000
    266       8.0099      0.00000
    267       8.5534      0.00000
    268       8.6095      0.00000
    269       8.8190      0.00000
    270       8.8777      0.00000
    271       8.9060      0.00000
    272       8.9348      0.00000
    273       9.0223      0.00000
    274       9.0782      0.00000
    275       9.1206      0.00000
    276       9.2334      0.00000
    277       9.2958      0.00000
    278       9.3957      0.00000
    279       9.6575      0.00000
    280       9.6740      0.00000
    281       9.7205      0.00000
    282       9.7369      0.00000
    283       9.7540      0.00000
    284      10.0230      0.00000
    285      10.1292      0.00000
    286      10.1502      0.00000
    287      10.1889      0.00000
    288      10.2125      0.00000
    289      10.2284      0.00000
    290      10.2551      0.00000
    291      10.2617      0.00000
    292      10.2812      0.00000
    293      10.4368      0.00000
    294      10.4694      0.00000
    295      10.5171      0.00000
    296      10.5342      0.00000
    297      10.5403      0.00000
    298      10.5706      0.00000
    299      10.5927      0.00000
    300      10.6531      0.00000
    301      10.7482      0.00000
    302      10.7656      0.00000
    303      10.8620      0.00000
    304      10.8696      0.00000

 k-point     7 :       0.5000    0.1667    0.0000
  band No.  band energies     occupation 
      1      -9.9209      2.00000
      2      -9.9209      2.00000
      3      -9.8976      2.00000
      4      -9.8976      2.00000
      5      -9.8763      2.00000
      6      -9.8763      2.00000
      7      -9.8749      2.00000
      8      -9.8749      2.00000
      9      -9.8238      2.00000
     10      -9.8238      2.00000
     11      -9.7373      2.00000
     12      -9.7373      2.00000
     13      -9.7169      2.00000
     14      -9.7169      2.00000
     15      -9.6297      2.00000
     16      -9.6297      2.00000
     17      -9.5816      2.00000
     18      -9.5816      2.00000
     19      -9.5677      2.00000
     20      -9.5677      2.00000
     21      -9.4985      2.00000
     22      -9.4985      2.00000
     23      -9.4949      2.00000
     24      -9.4949      2.00000
     25      -9.4819      2.00000
     26      -9.4819      2.00000
     27      -9.4569      2.00000
     28      -9.4569      2.00000
     29      -9.4359      2.00000
     30      -9.4359      2.00000
     31      -9.4298      2.00000
     32      -9.4298      2.00000
     33      -9.4215      2.00000
     34      -9.4215      2.00000
     35      -9.4133      2.00000
     36      -9.4133      2.00000
     37      -9.3948      2.00000
     38      -9.3948      2.00000
     39      -9.3624      2.00000
     40      -9.3624      2.00000
     41      -9.3435      2.00000
     42      -9.3435      2.00000
     43      -9.3417      2.00000
     44      -9.3417      2.00000
     45      -9.3416      2.00000
     46      -9.3416      2.00000
     47      -9.3412      2.00000
     48      -9.3412      2.00000
     49      -9.3362      2.00000
     50      -9.3362      2.00000
     51      -9.3257      2.00000
     52      -9.3257      2.00000
     53      -9.3245      2.00000
     54      -9.3245      2.00000
     55      -9.3235      2.00000
     56      -9.3235      2.00000
     57      -9.3186      2.00000
     58      -9.3186      2.00000
     59      -9.3168      2.00000
     60      -9.3168      2.00000
     61      -9.3099      2.00000
     62      -9.3099      2.00000
     63      -9.3049      2.00000
     64      -9.3049      2.00000
     65      -9.3045      2.00000
     66      -9.3045      2.00000
     67      -9.2922      2.00000
     68      -9.2922      2.00000
     69      -9.2904      2.00000
     70      -9.2904      2.00000
     71      -9.2744      2.00000
     72      -9.2744      2.00000
     73      -9.2651      2.00000
     74      -9.2651      2.00000
     75      -9.2625      2.00000
     76      -9.2625      2.00000
     77      -9.2539      2.00000
     78      -9.2539      2.00000
     79      -9.2505      2.00000
     80      -9.2505      2.00000
     81      -8.6838      2.00000
     82      -8.6838      2.00000
     83      -8.3077      2.00000
     84      -8.3077      2.00000
     85      -8.1001      2.00000
     86      -8.1001      2.00000
     87      -7.8332      2.00000
     88      -7.8332      2.00000
     89      -7.6879      2.00000
     90      -7.6879      2.00000
     91      -7.5732      2.00000
     92      -7.5732      2.00000
     93      -7.4428      2.00000
     94      -7.4428      2.00000
     95      -7.4291      2.00000
     96      -7.4291      2.00000
     97      -7.3223      2.00000
     98      -7.3223      2.00000
     99      -7.0158      2.00000
    100      -7.0158      2.00000
    101      -6.9123      2.00000
    102      -6.9123      2.00000
    103      -6.8569      2.00000
    104      -6.8569      2.00000
    105      -6.7748      2.00000
    106      -6.7748      2.00000
    107      -6.7478      2.00000
    108      -6.7478      2.00000
    109      -6.6026      2.00000
    110      -6.6026      2.00000
    111      -6.5811      2.00000
    112      -6.5811      2.00000
    113      -2.1446      2.00000
    114      -2.1446      2.00000
    115      -2.1185      2.00000
    116      -2.1185      2.00000
    117      -2.1017      2.00000
    118      -2.1017      2.00000
    119      -2.0493      2.00000
    120      -2.0493      2.00000
    121      -1.9519      2.00000
    122      -1.9519      2.00000
    123      -1.9486      2.00000
    124      -1.9486      2.00000
    125      -1.9253      2.00000
    126      -1.9253      2.00000
    127      -1.8896      2.00000
    128      -1.8896      2.00000
    129      -1.8858      2.00000
    130      -1.8857      2.00000
    131      -1.8651      2.00000
    132      -1.8651      2.00000
    133      -1.8520      2.00000
    134      -1.8520      2.00000
    135      -1.8285      2.00000
    136      -1.8285      2.00000
    137      -1.8132      2.00000
    138      -1.8132      2.00000
    139      -1.7966      2.00000
    140      -1.7966      2.00000
    141      -1.7866      2.00000
    142      -1.7866      2.00000
    143      -1.7828      2.00000
    144      -1.7828      2.00000
    145      -1.7771      2.00000
    146      -1.7771      2.00000
    147      -1.7740      2.00000
    148      -1.7740      2.00000
    149      -1.7626      2.00000
    150      -1.7626      2.00000
    151      -1.7621      2.00000
    152      -1.7621      2.00000
    153      -1.3791      2.00000
    154      -1.3791      2.00000
    155      -1.1232      2.00000
    156      -1.1232      2.00000
    157      -1.0311      2.00000
    158      -1.0311      2.00000
    159      -0.8866      2.00000
    160      -0.8866      2.00000
    161      -0.8861      2.00000
    162      -0.8861      2.00000
    163      -0.8494      2.00000
    164      -0.8494      2.00000
    165      -0.6649      2.00000
    166      -0.6649      2.00000
    167      -0.3449      2.00000
    168      -0.3449      2.00000
    169      -0.1770      2.00000
    170      -0.1770      2.00000
    171       0.2301      2.00000
    172       0.2301      2.00000
    173       0.5500      2.00000
    174       0.5500      2.00000
    175       0.5890      2.00000
    176       0.5890      2.00000
    177       0.7329      2.00000
    178       0.7329      2.00000
    179       0.9888      2.00000
    180       0.9888      2.00000
    181       1.0076      2.00000
    182       1.0076      2.00000
    183       1.0204      2.00000
    184       1.0204      2.00000
    185       1.1842      2.00000
    186       1.1842      2.00000
    187       1.2232      2.00000
    188       1.2232      2.00000
    189       1.4742      2.00000
    190       1.4742      2.00000
    191       1.5649      2.00000
    192       1.5649      2.00000
    193       1.6410      2.00000
    194       1.6410      2.00000
    195       1.6547      2.00000
    196       1.6547      2.00000
    197       2.0430      2.00000
    198       2.0430      2.00000
    199       2.2277      2.00000
    200       2.2277      2.00000
    201       2.2658      2.00000
    202       2.2658      2.00000
    203       2.3295      2.00000
    204       2.3295      2.00000
    205       2.4093      2.00000
    206       2.4093      2.00000
    207       2.4327      2.00000
    208       2.4327      2.00000
    209       2.4684      2.00000
    210       2.4684      2.00000
    211       2.5955      2.00000
    212       2.5955      2.00000
    213       2.6278      2.00000
    214       2.6278      2.00000
    215       2.9021      2.00000
    216       2.9021      2.00000
    217       2.9719      2.00000
    218       2.9719      2.00000
    219       3.0394      2.00000
    220       3.0394      2.00000
    221       3.1603      2.00000
    222       3.1603      2.00000
    223       3.1711      2.00000
    224       3.1711      2.00000
    225       3.1846      2.00000
    226       3.1846      2.00000
    227       3.2065      2.00000
    228       3.2065      2.00000
    229       3.2170      2.00000
    230       3.2170      2.00000
    231       3.4908      2.00000
    232       3.4909      2.00000
    233       3.5351      2.00000
    234       3.5351      2.00000
    235       3.6335      2.00000
    236       3.6335      2.00000
    237       3.6637      2.00000
    238       3.6637      2.00000
    239       3.7489      2.00000
    240       3.7489      2.00000
    241       3.8268      2.00000
    242       3.8268      2.00000
    243       4.0057      2.00000
    244       4.0057      2.00000
    245       4.0275      2.00000
    246       4.0275      2.00000
    247       4.0501      2.00000
    248       4.0501      2.00000
    249       6.4775      0.00000
    250       6.4775      0.00000
    251       6.7497      0.00000
    252       6.7497      0.00000
    253       6.8255      0.00000
    254       6.8255      0.00000
    255       7.0364      0.00000
    256       7.0364      0.00000
    257       7.4305      0.00000
    258       7.4305      0.00000
    259       7.5245      0.00000
    260       7.5245      0.00000
    261       7.5537      0.00000
    262       7.5537      0.00000
    263       7.5908      0.00000
    264       7.5908      0.00000
    265       7.8585      0.00000
    266       7.8585      0.00000
    267       8.7171      0.00000
    268       8.7171      0.00000
    269       8.7531      0.00000
    270       8.7531      0.00000
    271       8.9025      0.00000
    272       8.9025      0.00000
    273       9.1171      0.00000
    274       9.1171      0.00000
    275       9.3546      0.00000
    276       9.3546      0.00000
    277       9.4282      0.00000
    278       9.4282      0.00000
    279       9.4342      0.00000
    280       9.4342      0.00000
    281       9.6971      0.00000
    282       9.6971      0.00000
    283       9.9094      0.00000
    284       9.9094      0.00000
    285      10.0501      0.00000
    286      10.0501      0.00000
    287      10.1897      0.00000
    288      10.1898      0.00000
    289      10.2855      0.00000
    290      10.2855      0.00000
    291      10.2893      0.00000
    292      10.2893      0.00000
    293      10.2979      0.00000
    294      10.2979      0.00000
    295      10.4948      0.00000
    296      10.4951      0.00000
    297      10.5665      0.00000
    298      10.5668      0.00000
    299      10.6199      0.00000
    300      10.6253      0.00000
    301      10.7946      0.00000
    302      10.8019      0.00000
    303      10.8050      0.00000
    304      10.8189      0.00000

 k-point     8 :       0.3333    0.3333    0.0000
  band No.  band energies     occupation 
      1      -9.9396      2.00000
      2      -9.9081      2.00000
      3      -9.9036      2.00000
      4      -9.9036      2.00000
      5      -9.8928      2.00000
      6      -9.8768      2.00000
      7      -9.8563      2.00000
      8      -9.8563      2.00000
      9      -9.8166      2.00000
     10      -9.7950      2.00000
     11      -9.7950      2.00000
     12      -9.7472      2.00000
     13      -9.7008      2.00000
     14      -9.6680      2.00000
     15      -9.6680      2.00000
     16      -9.6449      2.00000
     17      -9.5654      2.00000
     18      -9.5654      2.00000
     19      -9.5643      2.00000
     20      -9.5432      2.00000
     21      -9.5325      2.00000
     22      -9.5325      2.00000
     23      -9.5018      2.00000
     24      -9.4879      2.00000
     25      -9.4827      2.00000
     26      -9.4554      2.00000
     27      -9.4554      2.00000
     28      -9.4452      2.00000
     29      -9.4452      2.00000
     30      -9.4416      2.00000
     31      -9.4389      2.00000
     32      -9.4372      2.00000
     33      -9.4189      2.00000
     34      -9.4162      2.00000
     35      -9.4162      2.00000
     36      -9.4112      2.00000
     37      -9.3884      2.00000
     38      -9.3753      2.00000
     39      -9.3753      2.00000
     40      -9.3579      2.00000
     41      -9.3452      2.00000
     42      -9.3434      2.00000
     43      -9.3432      2.00000
     44      -9.3425      2.00000
     45      -9.3425      2.00000
     46      -9.3406      2.00000
     47      -9.3368      2.00000
     48      -9.3368      2.00000
     49      -9.3328      2.00000
     50      -9.3328      2.00000
     51      -9.3294      2.00000
     52      -9.3294      2.00000
     53      -9.3288      2.00000
     54      -9.3282      2.00000
     55      -9.3245      2.00000
     56      -9.3236      2.00000
     57      -9.3216      2.00000
     58      -9.3171      2.00000
     59      -9.3153      2.00000
     60      -9.3153      2.00000
     61      -9.3058      2.00000
     62      -9.3058      2.00000
     63      -9.3041      2.00000
     64      -9.3030      2.00000
     65      -9.3030      2.00000
     66      -9.3028      2.00000
     67      -9.3025      2.00000
     68      -9.2985      2.00000
     69      -9.2874      2.00000
     70      -9.2821      2.00000
     71      -9.2821      2.00000
     72      -9.2778      2.00000
     73      -9.2643      2.00000
     74      -9.2643      2.00000
     75      -9.2634      2.00000
     76      -9.2575      2.00000
     77      -9.2559      2.00000
     78      -9.2559      2.00000
     79      -9.2519      2.00000
     80      -9.2450      2.00000
     81      -8.7282      2.00000
     82      -8.5019      2.00000
     83      -8.5019      2.00000
     84      -8.3486      2.00000
     85      -8.0830      2.00000
     86      -7.9667      2.00000
     87      -7.9667      2.00000
     88      -7.8275      2.00000
     89      -7.7382      2.00000
     90      -7.6634      2.00000
     91      -7.6634      2.00000
     92      -7.6321      2.00000
     93      -7.4107      2.00000
     94      -7.3689      2.00000
     95      -7.3689      2.00000
     96      -7.2839      2.00000
     97      -7.2510      2.00000
     98      -7.1778      2.00000
     99      -7.1054      2.00000
    100      -7.1054      2.00000
    101      -6.9962      2.00000
    102      -6.9962      2.00000
    103      -6.8405      2.00000
    104      -6.8220      2.00000
    105      -6.7485      2.00000
    106      -6.7233      2.00000
    107      -6.6955      2.00000
    108      -6.6955      2.00000
    109      -6.6561      2.00000
    110      -6.6561      2.00000
    111      -6.6501      2.00000
    112      -6.5793      2.00000
    113      -2.1489      2.00000
    114      -2.1346      2.00000
    115      -2.1346      2.00000
    116      -2.1031      2.00000
    117      -2.1005      2.00000
    118      -2.0923      2.00000
    119      -2.0923      2.00000
    120      -2.0111      2.00000
    121      -1.9829      2.00000
    122      -1.9577      2.00000
    123      -1.9577      2.00000
    124      -1.9354      2.00000
    125      -1.9117      2.00000
    126      -1.9030      2.00000
    127      -1.9030      2.00000
    128      -1.8895      2.00000
    129      -1.8895      2.00000
    130      -1.8847      2.00000
    131      -1.8704      2.00000
    132      -1.8519      2.00000
    133      -1.8349      2.00000
    134      -1.8314      2.00000
    135      -1.8291      2.00000
    136      -1.8291      2.00000
    137      -1.8141      2.00000
    138      -1.7983      2.00000
    139      -1.7983      2.00000
    140      -1.7902      2.00000
    141      -1.7869      2.00000
    142      -1.7869      2.00000
    143      -1.7865      2.00000
    144      -1.7860      2.00000
    145      -1.7798      2.00000
    146      -1.7717      2.00000
    147      -1.7694      2.00000
    148      -1.7694      2.00000
    149      -1.7679      2.00000
    150      -1.7679      2.00000
    151      -1.7617      2.00000
    152      -1.7602      2.00000
    153      -1.5626      2.00000
    154      -1.2445      2.00000
    155      -1.2445      2.00000
    156      -1.2199      2.00000
    157      -1.1338      2.00000
    158      -0.9214      2.00000
    159      -0.9214      2.00000
    160      -0.9201      2.00000
    161      -0.9030      2.00000
    162      -0.7878      2.00000
    163      -0.7021      2.00000
    164      -0.5627      2.00000
    165      -0.5627      2.00000
    166      -0.5412      2.00000
    167      -0.4825      2.00000
    168      -0.4825      2.00000
    169      -0.1953      2.00000
    170      -0.1953      2.00000
    171      -0.1840      2.00000
    172       0.2613      2.00000
    173       0.5273      2.00000
    174       0.5673      2.00000
    175       0.6809      2.00000
    176       0.7610      2.00000
    177       0.7610      2.00000
    178       0.8441      2.00000
    179       0.8441      2.00000
    180       0.8746      2.00000
    181       0.9666      2.00000
    182       0.9666      2.00000
    183       0.9804      2.00000
    184       1.0377      2.00000
    185       1.1801      2.00000
    186       1.2112      2.00000
    187       1.3707      2.00000
    188       1.3707      2.00000
    189       1.4166      2.00000
    190       1.4166      2.00000
    191       1.6371      2.00000
    192       1.6795      2.00000
    193       1.6795      2.00000
    194       1.7207      2.00000
    195       1.7588      2.00000
    196       1.8115      2.00000
    197       1.8781      2.00000
    198       1.9585      2.00000
    199       1.9585      2.00000
    200       2.0496      2.00000
    201       2.1702      2.00000
    202       2.1702      2.00000
    203       2.2725      2.00000
    204       2.2725      2.00000
    205       2.3015      2.00000
    206       2.3613      2.00000
    207       2.4701      2.00000
    208       2.5573      2.00000
    209       2.5573      2.00000
    210       2.5977      2.00000
    211       2.6287      2.00000
    212       2.6642      2.00000
    213       2.6817      2.00000
    214       2.7471      2.00000
    215       2.7471      2.00000
    216       2.9212      2.00000
    217       2.9573      2.00000
    218       2.9588      2.00000
    219       2.9694      2.00000
    220       2.9694      2.00000
    221       3.0253      2.00000
    222       3.0253      2.00000
    223       3.2490      2.00000
    224       3.2534      2.00000
    225       3.2534      2.00000
    226       3.2956      2.00000
    227       3.3426      2.00000
    228       3.3709      2.00000
    229       3.3827      2.00000
    230       3.4076      2.00000
    231       3.4076      2.00000
    232       3.4134      2.00000
    233       3.4153      2.00000
    234       3.4153      2.00000
    235       3.5311      2.00000
    236       3.6446      2.00000
    237       3.6482      2.00000
    238       3.6482      2.00000
    239       3.7075      2.00000
    240       3.7750      2.00000
    241       3.8540      2.00000
    242       3.8890      2.00000
    243       3.9039      2.00000
    244       3.9039      2.00000
    245       4.0491      2.00000
    246       4.0491      2.00000
    247       4.1435      2.00000
    248       4.1705      2.00000
    249       6.4650      0.00000
    250       6.4820      0.00000
    251       6.5406      0.00000
    252       6.8536      0.00000
    253       7.0466      0.00000
    254       7.0466      0.00000
    255       7.1446      0.00000
    256       7.1446      0.00000
    257       7.2715      0.00000
    258       7.3279      0.00000
    259       7.3279      0.00000
    260       7.3288      0.00000
    261       7.4590      0.00000
    262       7.5737      0.00000
    263       7.6396      0.00000
    264       7.6396      0.00000
    265       7.8557      0.00000
    266       8.1454      0.00000
    267       8.1454      0.00000
    268       8.6223      0.00000
    269       8.6345      0.00000
    270       8.7182      0.00000
    271       8.7983      0.00000
    272       8.7983      0.00000
    273       9.0152      0.00000
    274       9.2998      0.00000
    275       9.3033      0.00000
    276       9.3033      0.00000
    277       9.3230      0.00000
    278       9.3873      0.00000
    279       9.6292      0.00000
    280       9.7152      0.00000
    281       9.7152      0.00000
    282       9.8555      0.00000
    283       9.8555      0.00000
    284      10.0053      0.00000
    285      10.0437      0.00000
    286      10.0842      0.00000
    287      10.1426      0.00000
    288      10.1426      0.00000
    289      10.1658      0.00000
    290      10.1738      0.00000
    291      10.1775      0.00000
    292      10.1775      0.00000
    293      10.2209      0.00000
    294      10.2209      0.00000
    295      10.2708      0.00000
    296      10.4649      0.00000
    297      10.5112      0.00000
    298      10.5359      0.00000
    299      10.5432      0.00000
    300      10.5432      0.00000
    301      10.6339      0.00000
    302      10.7815      0.00000
    303      10.9207      0.00000
    304      11.0033      0.00000

 k-point     9 :       0.5000    0.3333    0.0000
  band No.  band energies     occupation 
      1      -9.9272      2.00000
      2      -9.9272      2.00000
      3      -9.9040      2.00000
      4      -9.9040      2.00000
      5      -9.8846      2.00000
      6      -9.8846      2.00000
      7      -9.8390      2.00000
      8      -9.8390      2.00000
      9      -9.8380      2.00000
     10      -9.8380      2.00000
     11      -9.7489      2.00000
     12      -9.7489      2.00000
     13      -9.7064      2.00000
     14      -9.7064      2.00000
     15      -9.6138      2.00000
     16      -9.6138      2.00000
     17      -9.6026      2.00000
     18      -9.6026      2.00000
     19      -9.5342      2.00000
     20      -9.5342      2.00000
     21      -9.5219      2.00000
     22      -9.5219      2.00000
     23      -9.5080      2.00000
     24      -9.5080      2.00000
     25      -9.4746      2.00000
     26      -9.4746      2.00000
     27      -9.4476      2.00000
     28      -9.4476      2.00000
     29      -9.4459      2.00000
     30      -9.4459      2.00000
     31      -9.4408      2.00000
     32      -9.4408      2.00000
     33      -9.4165      2.00000
     34      -9.4165      2.00000
     35      -9.4128      2.00000
     36      -9.4128      2.00000
     37      -9.3800      2.00000
     38      -9.3800      2.00000
     39      -9.3638      2.00000
     40      -9.3638      2.00000
     41      -9.3425      2.00000
     42      -9.3425      2.00000
     43      -9.3413      2.00000
     44      -9.3413      2.00000
     45      -9.3403      2.00000
     46      -9.3403      2.00000
     47      -9.3388      2.00000
     48      -9.3388      2.00000
     49      -9.3318      2.00000
     50      -9.3318      2.00000
     51      -9.3307      2.00000
     52      -9.3307      2.00000
     53      -9.3293      2.00000
     54      -9.3293      2.00000
     55      -9.3267      2.00000
     56      -9.3267      2.00000
     57      -9.3197      2.00000
     58      -9.3197      2.00000
     59      -9.3161      2.00000
     60      -9.3161      2.00000
     61      -9.3043      2.00000
     62      -9.3043      2.00000
     63      -9.3042      2.00000
     64      -9.3042      2.00000
     65      -9.3035      2.00000
     66      -9.3035      2.00000
     67      -9.2963      2.00000
     68      -9.2963      2.00000
     69      -9.2899      2.00000
     70      -9.2899      2.00000
     71      -9.2731      2.00000
     72      -9.2731      2.00000
     73      -9.2705      2.00000
     74      -9.2705      2.00000
     75      -9.2579      2.00000
     76      -9.2579      2.00000
     77      -9.2555      2.00000
     78      -9.2555      2.00000
     79      -9.2492      2.00000
     80      -9.2492      2.00000
     81      -8.6325      2.00000
     82      -8.6325      2.00000
     83      -8.4333      2.00000
     84      -8.4333      2.00000
     85      -8.0253      2.00000
     86      -8.0253      2.00000
     87      -7.8909      2.00000
     88      -7.8909      2.00000
     89      -7.7281      2.00000
     90      -7.7281      2.00000
     91      -7.6632      2.00000
     92      -7.6632      2.00000
     93      -7.3641      2.00000
     94      -7.3641      2.00000
     95      -7.3096      2.00000
     96      -7.3096      2.00000
     97      -7.1860      2.00000
     98      -7.1860      2.00000
     99      -7.0458      2.00000
    100      -7.0458      2.00000
    101      -6.9602      2.00000
    102      -6.9602      2.00000
    103      -6.8790      2.00000
    104      -6.8790      2.00000
    105      -6.7394      2.00000
    106      -6.7394      2.00000
    107      -6.7294      2.00000
    108      -6.7294      2.00000
    109      -6.6789      2.00000
    110      -6.6789      2.00000
    111      -6.6151      2.00000
    112      -6.6151      2.00000
    113      -2.1456      2.00000
    114      -2.1456      2.00000
    115      -2.1234      2.00000
    116      -2.1234      2.00000
    117      -2.0937      2.00000
    118      -2.0937      2.00000
    119      -2.0536      2.00000
    120      -2.0536      2.00000
    121      -1.9654      2.00000
    122      -1.9654      2.00000
    123      -1.9508      2.00000
    124      -1.9508      2.00000
    125      -1.9074      2.00000
    126      -1.9074      2.00000
    127      -1.9019      2.00000
    128      -1.9019      2.00000
    129      -1.8710      2.00000
    130      -1.8710      2.00000
    131      -1.8569      2.00000
    132      -1.8569      2.00000
    133      -1.8404      2.00000
    134      -1.8404      2.00000
    135      -1.8294      2.00000
    136      -1.8294      2.00000
    137      -1.8064      2.00000
    138      -1.8064      2.00000
    139      -1.7920      2.00000
    140      -1.7920      2.00000
    141      -1.7885      2.00000
    142      -1.7885      2.00000
    143      -1.7860      2.00000
    144      -1.7860      2.00000
    145      -1.7743      2.00000
    146      -1.7743      2.00000
    147      -1.7691      2.00000
    148      -1.7691      2.00000
    149      -1.7651      2.00000
    150      -1.7651      2.00000
    151      -1.7633      2.00000
    152      -1.7633      2.00000
    153      -1.4310      2.00000
    154      -1.4310      2.00000
    155      -1.2792      2.00000
    156      -1.2792      2.00000
    157      -1.0261      2.00000
    158      -1.0261      2.00000
    159      -0.8771      2.00000
    160      -0.8771      2.00000
    161      -0.7628      2.00000
    162      -0.7628      2.00000
    163      -0.6921      2.00000
    164      -0.6921      2.00000
    165      -0.5451      2.00000
    166      -0.5451      2.00000
    167      -0.4479      2.00000
    168      -0.4479      2.00000
    169      -0.3043      2.00000
    170      -0.3043      2.00000
    171       0.0594      2.00000
    172       0.0594      2.00000
    173       0.6255      2.00000
    174       0.6255      2.00000
    175       0.7271      2.00000
    176       0.7271      2.00000
    177       0.8273      2.00000
    178       0.8273      2.00000
    179       0.8291      2.00000
    180       0.8291      2.00000
    181       0.9564      2.00000
    182       0.9564      2.00000
    183       1.0141      2.00000
    184       1.0141      2.00000
    185       1.1251      2.00000
    186       1.1251      2.00000
    187       1.2129      2.00000
    188       1.2129      2.00000
    189       1.6186      2.00000
    190       1.6186      2.00000
    191       1.6641      2.00000
    192       1.6641      2.00000
    193       1.6749      2.00000
    194       1.6749      2.00000
    195       1.8497      2.00000
    196       1.8497      2.00000
    197       1.9444      2.00000
    198       1.9444      2.00000
    199       2.0656      2.00000
    200       2.0656      2.00000
    201       2.1076      2.00000
    202       2.1076      2.00000
    203       2.2995      2.00000
    204       2.2995      2.00000
    205       2.3013      2.00000
    206       2.3013      2.00000
    207       2.4330      2.00000
    208       2.4330      2.00000
    209       2.4526      2.00000
    210       2.4526      2.00000
    211       2.6541      2.00000
    212       2.6541      2.00000
    213       2.8244      2.00000
    214       2.8244      2.00000
    215       2.9405      2.00000
    216       2.9405      2.00000
    217       2.9944      2.00000
    218       2.9944      2.00000
    219       3.0061      2.00000
    220       3.0061      2.00000
    221       3.0784      2.00000
    222       3.0784      2.00000
    223       3.1829      2.00000
    224       3.1829      2.00000
    225       3.2409      2.00000
    226       3.2409      2.00000
    227       3.3354      2.00000
    228       3.3354      2.00000
    229       3.3511      2.00000
    230       3.3511      2.00000
    231       3.3976      2.00000
    232       3.3976      2.00000
    233       3.5316      2.00000
    234       3.5316      2.00000
    235       3.5500      2.00000
    236       3.5500      2.00000
    237       3.5838      2.00000
    238       3.5838      2.00000
    239       3.7547      2.00000
    240       3.7547      2.00000
    241       3.7590      2.00000
    242       3.7590      2.00000
    243       3.8776      2.00000
    244       3.8776      2.00000
    245       4.1214      2.00000
    246       4.1214      2.00000
    247       4.1386      2.00000
    248       4.1386      2.00000
    249       6.7373      0.00000
    250       6.7373      0.00000
    251       6.7665      0.00000
    252       6.7665      0.00000
    253       6.9253      0.00000
    254       6.9253      0.00000
    255       7.1603      0.00000
    256       7.1603      0.00000
    257       7.2741      0.00000
    258       7.2741      0.00000
    259       7.3090      0.00000
    260       7.3090      0.00000
    261       7.4129      0.00000
    262       7.4129      0.00000
    263       7.7035      0.00000
    264       7.7035      0.00000
    265       7.7851      0.00000
    266       7.7851      0.00000
    267       8.3430      0.00000
    268       8.3430      0.00000
    269       8.7059      0.00000
    270       8.7059      0.00000
    271       8.7252      0.00000
    272       8.7252      0.00000
    273       9.1749      0.00000
    274       9.1749      0.00000
    275       9.3025      0.00000
    276       9.3025      0.00000
    277       9.5825      0.00000
    278       9.5825      0.00000
    279       9.6085      0.00000
    280       9.6085      0.00000
    281       9.7854      0.00000
    282       9.7854      0.00000
    283       9.8469      0.00000
    284       9.8469      0.00000
    285       9.9966      0.00000
    286       9.9966      0.00000
    287      10.0396      0.00000
    288      10.0396      0.00000
    289      10.0900      0.00000
    290      10.0900      0.00000
    291      10.0978      0.00000
    292      10.0978      0.00000
    293      10.3105      0.00000
    294      10.3105      0.00000
    295      10.3433      0.00000
    296      10.3433      0.00000
    297      10.4662      0.00000
    298      10.4662      0.00000
    299      10.6851      0.00000
    300      10.6863      0.00000
    301      10.7086      0.00000
    302      10.7115      0.00000
    303      10.7820      0.00000
    304      10.7911      0.00000

 k-point    10 :       0.5000    0.5000    0.0000
  band No.  band energies     occupation 
      1      -9.9215      2.00000
      2      -9.9215      2.00000
      3      -9.9215      2.00000
      4      -9.9215      2.00000
      5      -9.8639      2.00000
      6      -9.8639      2.00000
      7      -9.8639      2.00000
      8      -9.8639      2.00000
      9      -9.7945      2.00000
     10      -9.7945      2.00000
     11      -9.7945      2.00000
     12      -9.7945      2.00000
     13      -9.6591      2.00000
     14      -9.6591      2.00000
     15      -9.6591      2.00000
     16      -9.6591      2.00000
     17      -9.5604      2.00000
     18      -9.5604      2.00000
     19      -9.5604      2.00000
     20      -9.5604      2.00000
     21      -9.5158      2.00000
     22      -9.5158      2.00000
     23      -9.5158      2.00000
     24      -9.5158      2.00000
     25      -9.4629      2.00000
     26      -9.4629      2.00000
     27      -9.4629      2.00000
     28      -9.4629      2.00000
     29      -9.4427      2.00000
     30      -9.4427      2.00000
     31      -9.4427      2.00000
     32      -9.4427      2.00000
     33      -9.4137      2.00000
     34      -9.4137      2.00000
     35      -9.4137      2.00000
     36      -9.4137      2.00000
     37      -9.3693      2.00000
     38      -9.3693      2.00000
     39      -9.3693      2.00000
     40      -9.3693      2.00000
     41      -9.3414      2.00000
     42      -9.3414      2.00000
     43      -9.3414      2.00000
     44      -9.3414      2.00000
     45      -9.3372      2.00000
     46      -9.3372      2.00000
     47      -9.3372      2.00000
     48      -9.3372      2.00000
     49      -9.3346      2.00000
     50      -9.3346      2.00000
     51      -9.3346      2.00000
     52      -9.3346      2.00000
     53      -9.3279      2.00000
     54      -9.3279      2.00000
     55      -9.3279      2.00000
     56      -9.3279      2.00000
     57      -9.3181      2.00000
     58      -9.3181      2.00000
     59      -9.3181      2.00000
     60      -9.3181      2.00000
     61      -9.3029      2.00000
     62      -9.3029      2.00000
     63      -9.3029      2.00000
     64      -9.3029      2.00000
     65      -9.3020      2.00000
     66      -9.3020      2.00000
     67      -9.3020      2.00000
     68      -9.3020      2.00000
     69      -9.2822      2.00000
     70      -9.2822      2.00000
     71      -9.2822      2.00000
     72      -9.2822      2.00000
     73      -9.2639      2.00000
     74      -9.2639      2.00000
     75      -9.2639      2.00000
     76      -9.2639      2.00000
     77      -9.2508      2.00000
     78      -9.2508      2.00000
     79      -9.2508      2.00000
     80      -9.2508      2.00000
     81      -8.5469      2.00000
     82      -8.5469      2.00000
     83      -8.5469      2.00000
     84      -8.5469      2.00000
     85      -7.9571      2.00000
     86      -7.9571      2.00000
     87      -7.9571      2.00000
     88      -7.9571      2.00000
     89      -7.7172      2.00000
     90      -7.7172      2.00000
     91      -7.7172      2.00000
     92      -7.7172      2.00000
     93      -7.3008      2.00000
     94      -7.3008      2.00000
     95      -7.3008      2.00000
     96      -7.3008      2.00000
     97      -7.0605      2.00000
     98      -7.0605      2.00000
     99      -7.0605      2.00000
    100      -7.0605      2.00000
    101      -6.9643      2.00000
    102      -6.9643      2.00000
    103      -6.9643      2.00000
    104      -6.9643      2.00000
    105      -6.7285      2.00000
    106      -6.7285      2.00000
    107      -6.7285      2.00000
    108      -6.7285      2.00000
    109      -6.6674      2.00000
    110      -6.6674      2.00000
    111      -6.6674      2.00000
    112      -6.6674      2.00000
    113      -2.1386      2.00000
    114      -2.1386      2.00000
    115      -2.1386      2.00000
    116      -2.1386      2.00000
    117      -2.0680      2.00000
    118      -2.0680      2.00000
    119      -2.0680      2.00000
    120      -2.0680      2.00000
    121      -1.9648      2.00000
    122      -1.9648      2.00000
    123      -1.9648      2.00000
    124      -1.9648      2.00000
    125      -1.9138      2.00000
    126      -1.9138      2.00000
    127      -1.9138      2.00000
    128      -1.9138      2.00000
    129      -1.8428      2.00000
    130      -1.8428      2.00000
    131      -1.8427      2.00000
    132      -1.8427      2.00000
    133      -1.8325      2.00000
    134      -1.8325      2.00000
    135      -1.8325      2.00000
    136      -1.8325      2.00000
    137      -1.7986      2.00000
    138      -1.7986      2.00000
    139      -1.7986      2.00000
    140      -1.7986      2.00000
    141      -1.7872      2.00000
    142      -1.7872      2.00000
    143      -1.7872      2.00000
    144      -1.7872      2.00000
    145      -1.7708      2.00000
    146      -1.7708      2.00000
    147      -1.7708      2.00000
    148      -1.7708      2.00000
    149      -1.7655      2.00000
    150      -1.7654      2.00000
    151      -1.7654      2.00000
    152      -1.7654      2.00000
    153      -1.3991      2.00000
    154      -1.3991      2.00000
    155      -1.3991      2.00000
    156      -1.3991      2.00000
    157      -0.9532      2.00000
    158      -0.9532      2.00000
    159      -0.9532      2.00000
    160      -0.9532      2.00000
    161      -0.6703      2.00000
    162      -0.6703      2.00000
    163      -0.6703      2.00000
    164      -0.6703      2.00000
    165      -0.4834      2.00000
    166      -0.4834      2.00000
    167      -0.4834      2.00000
    168      -0.4834      2.00000
    169      -0.1863      2.00000
    170      -0.1863      2.00000
    171      -0.1863      2.00000
    172      -0.1863      2.00000
    173       0.7385      2.00000
    174       0.7385      2.00000
    175       0.7385      2.00000
    176       0.7385      2.00000
    177       0.7714      2.00000
    178       0.7714      2.00000
    179       0.7714      2.00000
    180       0.7714      2.00000
    181       0.8917      2.00000
    182       0.8917      2.00000
    183       0.8917      2.00000
    184       0.8917      2.00000
    185       1.4410      2.00000
    186       1.4410      2.00000
    187       1.4410      2.00000
    188       1.4410      2.00000
    189       1.4919      2.00000
    190       1.4919      2.00000
    191       1.4919      2.00000
    192       1.4919      2.00000
    193       1.7832      2.00000
    194       1.7832      2.00000
    195       1.7832      2.00000
    196       1.7832      2.00000
    197       2.0092      2.00000
    198       2.0092      2.00000
    199       2.0092      2.00000
    200       2.0092      2.00000
    201       2.1233      2.00000
    202       2.1233      2.00000
    203       2.1233      2.00000
    204       2.1233      2.00000
    205       2.4385      2.00000
    206       2.4385      2.00000
    207       2.4385      2.00000
    208       2.4385      2.00000
    209       2.4461      2.00000
    210       2.4461      2.00000
    211       2.4461      2.00000
    212       2.4461      2.00000
    213       2.9541      2.00000
    214       2.9541      2.00000
    215       2.9541      2.00000
    216       2.9541      2.00000
    217       3.0556      2.00000
    218       3.0556      2.00000
    219       3.0556      2.00000
    220       3.0556      2.00000
    221       3.1723      2.00000
    222       3.1723      2.00000
    223       3.1723      2.00000
    224       3.1723      2.00000
    225       3.2021      2.00000
    226       3.2021      2.00000
    227       3.2021      2.00000
    228       3.2021      2.00000
    229       3.4738      2.00000
    230       3.4738      2.00000
    231       3.4738      2.00000
    232       3.4738      2.00000
    233       3.5276      2.00000
    234       3.5276      2.00000
    235       3.5276      2.00000
    236       3.5276      2.00000
    237       3.6218      2.00000
    238       3.6218      2.00000
    239       3.6218      2.00000
    240       3.6218      2.00000
    241       3.7392      2.00000
    242       3.7392      2.00000
    243       3.7392      2.00000
    244       3.7392      2.00000
    245       4.1800      2.00000
    246       4.1800      2.00000
    247       4.1800      2.00000
    248       4.1800      2.00000
    249       6.9076      0.00000
    250       6.9076      0.00000
    251       6.9076      0.00000
    252       6.9076      0.00000
    253       7.0591      0.00000
    254       7.0591      0.00000
    255       7.0591      0.00000
    256       7.0591      0.00000
    257       7.1217      0.00000
    258       7.1217      0.00000
    259       7.1217      0.00000
    260       7.1217      0.00000
    261       7.5556      0.00000
    262       7.5556      0.00000
    263       7.5556      0.00000
    264       7.5556      0.00000
    265       7.9788      0.00000
    266       7.9788      0.00000
    267       7.9788      0.00000
    268       7.9788      0.00000
    269       8.6840      0.00000
    270       8.6840      0.00000
    271       8.6840      0.00000
    272       8.6840      0.00000
    273       9.2270      0.00000
    274       9.2270      0.00000
    275       9.2270      0.00000
    276       9.2270      0.00000
    277       9.7980      0.00000
    278       9.7980      0.00000
    279       9.7980      0.00000
    280       9.7980      0.00000
    281       9.8485      0.00000
    282       9.8485      0.00000
    283       9.8485      0.00000
    284       9.8485      0.00000
    285       9.8812      0.00000
    286       9.8812      0.00000
    287       9.8812      0.00000
    288       9.8812      0.00000
    289       9.9611      0.00000
    290       9.9611      0.00000
    291       9.9611      0.00000
    292       9.9611      0.00000
    293      10.1701      0.00000
    294      10.1701      0.00000
    295      10.1701      0.00000
    296      10.1701      0.00000
    297      10.5926      0.00000
    298      10.5926      0.00000
    299      10.5926      0.00000
    300      10.5926      0.00000
    301      10.9534      0.00000
    302      10.9541      0.00000
    303      10.9559      0.00000
    304      10.9639      0.00000

 k-point    11 :       0.1667    0.1667    0.1667
  band No.  band energies     occupation 
      1      -9.9514      2.00000
      2      -9.9262      2.00000
      3      -9.9262      2.00000
      4      -9.8734      2.00000
      5      -9.8734      2.00000
      6      -9.8734      2.00000
      7      -9.8211      2.00000
      8      -9.8211      2.00000
      9      -9.8211      2.00000
     10      -9.7907      2.00000
     11      -9.7907      2.00000
     12      -9.7907      2.00000
     13      -9.6977      2.00000
     14      -9.6977      2.00000
     15      -9.6977      2.00000
     16      -9.6032      2.00000
     17      -9.6032      2.00000
     18      -9.6032      2.00000
     19      -9.5535      2.00000
     20      -9.5535      2.00000
     21      -9.5535      2.00000
     22      -9.5122      2.00000
     23      -9.5026      2.00000
     24      -9.5026      2.00000
     25      -9.4421      2.00000
     26      -9.4421      2.00000
     27      -9.4421      2.00000
     28      -9.4363      2.00000
     29      -9.4363      2.00000
     30      -9.4363      2.00000
     31      -9.4328      2.00000
     32      -9.4328      2.00000
     33      -9.4220      2.00000
     34      -9.4220      2.00000
     35      -9.4220      2.00000
     36      -9.4100      2.00000
     37      -9.3902      2.00000
     38      -9.3902      2.00000
     39      -9.3902      2.00000
     40      -9.3539      2.00000
     41      -9.3494      2.00000
     42      -9.3494      2.00000
     43      -9.3441      2.00000
     44      -9.3441      2.00000
     45      -9.3441      2.00000
     46      -9.3401      2.00000
     47      -9.3401      2.00000
     48      -9.3401      2.00000
     49      -9.3280      2.00000
     50      -9.3280      2.00000
     51      -9.3280      2.00000
     52      -9.3240      2.00000
     53      -9.3240      2.00000
     54      -9.3238      2.00000
     55      -9.3238      2.00000
     56      -9.3238      2.00000
     57      -9.3147      2.00000
     58      -9.3147      2.00000
     59      -9.3147      2.00000
     60      -9.3108      2.00000
     61      -9.3077      2.00000
     62      -9.3077      2.00000
     63      -9.3077      2.00000
     64      -9.3048      2.00000
     65      -9.3048      2.00000
     66      -9.3048      2.00000
     67      -9.3029      2.00000
     68      -9.3029      2.00000
     69      -9.2864      2.00000
     70      -9.2864      2.00000
     71      -9.2864      2.00000
     72      -9.2697      2.00000
     73      -9.2697      2.00000
     74      -9.2697      2.00000
     75      -9.2606      2.00000
     76      -9.2606      2.00000
     77      -9.2606      2.00000
     78      -9.2484      2.00000
     79      -9.2484      2.00000
     80      -9.2400      2.00000
     81      -8.8250      2.00000
     82      -8.3705      2.00000
     83      -8.3705      2.00000
     84      -8.3705      2.00000
     85      -8.0548      2.00000
     86      -8.0548      2.00000
     87      -8.0548      2.00000
     88      -7.7640      2.00000
     89      -7.6012      2.00000
     90      -7.6012      2.00000
     91      -7.6012      2.00000
     92      -7.5673      2.00000
     93      -7.4465      2.00000
     94      -7.4465      2.00000
     95      -7.3442      2.00000
     96      -7.3442      2.00000
     97      -7.3442      2.00000
     98      -7.2426      2.00000
     99      -7.2426      2.00000
    100      -7.2426      2.00000
    101      -7.0494      2.00000
    102      -7.0494      2.00000
    103      -7.0494      2.00000
    104      -6.6715      2.00000
    105      -6.6715      2.00000
    106      -6.6715      2.00000
    107      -6.6459      2.00000
    108      -6.6459      2.00000
    109      -6.6459      2.00000
    110      -6.5919      2.00000
    111      -6.5919      2.00000
    112      -6.5560      2.00000
    113      -2.1347      2.00000
    114      -2.1347      2.00000
    115      -2.1347      2.00000
    116      -2.1100      2.00000
    117      -2.1100      2.00000
    118      -2.1100      2.00000
    119      -2.0563      2.00000
    120      -1.9888      2.00000
    121      -1.9888      2.00000
    122      -1.9888      2.00000
    123      -1.9435      2.00000
    124      -1.9435      2.00000
    125      -1.9435      2.00000
    126      -1.9227      2.00000
    127      -1.9004      2.00000
    128      -1.9004      2.00000
    129      -1.8622      2.00000
    130      -1.8622      2.00000
    131      -1.8455      2.00000
    132      -1.8455      2.00000
    133      -1.8455      2.00000
    134      -1.8248      2.00000
    135      -1.8248      2.00000
    136      -1.8248      2.00000
    137      -1.8044      2.00000
    138      -1.8044      2.00000
    139      -1.7896      2.00000
    140      -1.7896      2.00000
    141      -1.7896      2.00000
    142      -1.7880      2.00000
    143      -1.7880      2.00000
    144      -1.7880      2.00000
    145      -1.7750      2.00000
    146      -1.7750      2.00000
    147      -1.7750      2.00000
    148      -1.7737      2.00000
    149      -1.7737      2.00000
    150      -1.7737      2.00000
    151      -1.7572      2.00000
    152      -1.7572      2.00000
    153      -1.6995      2.00000
    154      -1.2266      2.00000
    155      -1.2266      2.00000
    156      -1.1100      2.00000
    157      -1.0317      2.00000
    158      -1.0317      2.00000
    159      -1.0317      2.00000
    160      -1.0125      2.00000
    161      -0.7187      2.00000
    162      -0.7187      2.00000
    163      -0.7187      2.00000
    164      -0.6079      2.00000
    165      -0.6079      2.00000
    166      -0.6079      2.00000
    167      -0.3062      2.00000
    168      -0.3062      2.00000
    169      -0.3062      2.00000
    170      -0.0475      2.00000
    171      -0.0475      2.00000
    172      -0.0475      2.00000
    173       0.4015      2.00000
    174       0.4015      2.00000
    175       0.5862      2.00000
    176       0.5862      2.00000
    177       0.5862      2.00000
    178       0.8981      2.00000
    179       0.8981      2.00000
    180       0.8981      2.00000
    181       1.2229      2.00000
    182       1.2229      2.00000
    183       1.2229      2.00000
    184       1.3053      2.00000
    185       1.3053      2.00000
    186       1.3053      2.00000
    187       1.3934      2.00000
    188       1.3934      2.00000
    189       1.3934      2.00000
    190       1.5595      2.00000
    191       1.5595      2.00000
    192       1.5595      2.00000
    193       1.5624      2.00000
    194       1.7511      2.00000
    195       1.7511      2.00000
    196       1.7511      2.00000
    197       1.7727      2.00000
    198       1.7727      2.00000
    199       1.9287      2.00000
    200       1.9287      2.00000
    201       1.9287      2.00000
    202       2.2591      2.00000
    203       2.2591      2.00000
    204       2.3231      2.00000
    205       2.3231      2.00000
    206       2.3231      2.00000
    207       2.4106      2.00000
    208       2.4106      2.00000
    209       2.4106      2.00000
    210       2.4374      2.00000
    211       2.4749      2.00000
    212       2.4749      2.00000
    213       2.4749      2.00000
    214       2.8297      2.00000
    215       2.8297      2.00000
    216       2.8297      2.00000
    217       2.8969      2.00000
    218       2.8969      2.00000
    219       2.8969      2.00000
    220       3.0154      2.00000
    221       3.1629      2.00000
    222       3.1629      2.00000
    223       3.1629      2.00000
    224       3.1917      2.00000
    225       3.3345      2.00000
    226       3.3345      2.00000
    227       3.3345      2.00000
    228       3.4410      2.00000
    229       3.4410      2.00000
    230       3.4425      2.00000
    231       3.4425      2.00000
    232       3.4425      2.00000
    233       3.5479      2.00000
    234       3.5479      2.00000
    235       3.5479      2.00000
    236       3.6684      2.00000
    237       3.6684      2.00000
    238       3.8544      2.00000
    239       3.8544      2.00000
    240       3.8955      2.00000
    241       3.8955      2.00000
    242       3.8955      2.00000
    243       3.9808      2.00000
    244       4.0960      2.00000
    245       4.0960      2.00000
    246       4.0960      2.00000
    247       4.0965      2.00000
    248       4.0965      2.00000
    249       6.0204      0.00000
    250       6.1793      0.00000
    251       6.1793      0.00000
    252       6.2239      0.00000
    253       6.8247      0.00000
    254       7.2459      0.00000
    255       7.2459      0.00000
    256       7.2459      0.00000
    257       7.4561      0.00000
    258       7.4561      0.00000
    259       7.4561      0.00000
    260       7.6246      0.00000
    261       7.6246      0.00000
    262       7.6246      0.00000
    263       7.7555      0.00000
    264       7.7555      0.00000
    265       7.7555      0.00000
    266       8.4572      0.00000
    267       8.4684      0.00000
    268       8.4684      0.00000
    269       8.4684      0.00000
    270       8.7681      0.00000
    271       8.9292      0.00000
    272       8.9292      0.00000
    273       9.0894      0.00000
    274       9.0894      0.00000
    275       9.0894      0.00000
    276       9.2675      0.00000
    277       9.2675      0.00000
    278       9.2675      0.00000
    279       9.7110      0.00000
    280       9.7110      0.00000
    281       9.7110      0.00000
    282       9.7207      0.00000
    283      10.0548      0.00000
    284      10.0548      0.00000
    285      10.0548      0.00000
    286      10.0926      0.00000
    287      10.0926      0.00000
    288      10.1568      0.00000
    289      10.1568      0.00000
    290      10.1568      0.00000
    291      10.3289      0.00000
    292      10.3289      0.00000
    293      10.3289      0.00000
    294      10.4553      0.00000
    295      10.4553      0.00000
    296      10.7210      0.00000
    297      10.7211      0.00000
    298      10.7215      0.00000
    299      10.7412      0.00000
    300      10.7416      0.00000
    301      10.8942      0.00000
    302      10.8944      0.00000
    303      10.9000      0.00000
    304      11.0860      0.00000

 k-point    12 :       0.3333    0.1667    0.1667
  band No.  band energies     occupation 
      1      -9.9463      2.00000
      2      -9.9097      2.00000
      3      -9.9044      2.00000
      4      -9.8998      2.00000
      5      -9.8885      2.00000
      6      -9.8885      2.00000
      7      -9.8519      2.00000
      8      -9.8259      2.00000
      9      -9.8114      2.00000
     10      -9.8114      2.00000
     11      -9.7719      2.00000
     12      -9.7719      2.00000
     13      -9.6942      2.00000
     14      -9.6942      2.00000
     15      -9.6469      2.00000
     16      -9.6325      2.00000
     17      -9.6325      2.00000
     18      -9.5659      2.00000
     19      -9.5449      2.00000
     20      -9.5449      2.00000
     21      -9.5387      2.00000
     22      -9.5142      2.00000
     23      -9.5069      2.00000
     24      -9.4998      2.00000
     25      -9.4590      2.00000
     26      -9.4516      2.00000
     27      -9.4487      2.00000
     28      -9.4468      2.00000
     29      -9.4403      2.00000
     30      -9.4403      2.00000
     31      -9.4366      2.00000
     32      -9.4366      2.00000
     33      -9.4198      2.00000
     34      -9.4198      2.00000
     35      -9.4163      2.00000
     36      -9.4107      2.00000
     37      -9.3892      2.00000
     38      -9.3892      2.00000
     39      -9.3737      2.00000
     40      -9.3564      2.00000
     41      -9.3463      2.00000
     42      -9.3458      2.00000
     43      -9.3434      2.00000
     44      -9.3434      2.00000
     45      -9.3427      2.00000
     46      -9.3406      2.00000
     47      -9.3406      2.00000
     48      -9.3349      2.00000
     49      -9.3343      2.00000
     50      -9.3302      2.00000
     51      -9.3294      2.00000
     52      -9.3294      2.00000
     53      -9.3290      2.00000
     54      -9.3220      2.00000
     55      -9.3216      2.00000
     56      -9.3216      2.00000
     57      -9.3175      2.00000
     58      -9.3168      2.00000
     59      -9.3168      2.00000
     60      -9.3145      2.00000
     61      -9.3077      2.00000
     62      -9.3077      2.00000
     63      -9.3070      2.00000
     64      -9.3055      2.00000
     65      -9.3037      2.00000
     66      -9.3032      2.00000
     67      -9.3000      2.00000
     68      -9.3000      2.00000
     69      -9.2854      2.00000
     70      -9.2854      2.00000
     71      -9.2775      2.00000
     72      -9.2751      2.00000
     73      -9.2751      2.00000
     74      -9.2646      2.00000
     75      -9.2586      2.00000
     76      -9.2586      2.00000
     77      -9.2570      2.00000
     78      -9.2543      2.00000
     79      -9.2524      2.00000
     80      -9.2419      2.00000
     81      -8.7666      2.00000
     82      -8.5313      2.00000
     83      -8.3537      2.00000
     84      -8.3537      2.00000
     85      -8.0857      2.00000
     86      -8.0857      2.00000
     87      -7.9517      2.00000
     88      -7.8168      2.00000
     89      -7.6657      2.00000
     90      -7.6657      2.00000
     91      -7.5910      2.00000
     92      -7.5778      2.00000
     93      -7.4263      2.00000
     94      -7.3675      2.00000
     95      -7.3616      2.00000
     96      -7.3609      2.00000
     97      -7.3609      2.00000
     98      -7.2275      2.00000
     99      -7.1317      2.00000
    100      -7.1317      2.00000
    101      -6.9989      2.00000
    102      -6.9488      2.00000
    103      -6.9488      2.00000
    104      -6.7474      2.00000
    105      -6.7474      2.00000
    106      -6.7044      2.00000
    107      -6.6892      2.00000
    108      -6.6892      2.00000
    109      -6.6527      2.00000
    110      -6.6237      2.00000
    111      -6.6070      2.00000
    112      -6.5742      2.00000
    113      -2.1430      2.00000
    114      -2.1430      2.00000
    115      -2.1261      2.00000
    116      -2.1082      2.00000
    117      -2.1082      2.00000
    118      -2.0877      2.00000
    119      -2.0872      2.00000
    120      -1.9861      2.00000
    121      -1.9762      2.00000
    122      -1.9736      2.00000
    123      -1.9736      2.00000
    124      -1.9283      2.00000
    125      -1.9256      2.00000
    126      -1.9033      2.00000
    127      -1.9033      2.00000
    128      -1.8930      2.00000
    129      -1.8750      2.00000
    130      -1.8735      2.00000
    131      -1.8735      2.00000
    132      -1.8604      2.00000
    133      -1.8588      2.00000
    134      -1.8367      2.00000
    135      -1.8353      2.00000
    136      -1.8353      2.00000
    137      -1.8016      2.00000
    138      -1.7957      2.00000
    139      -1.7936      2.00000
    140      -1.7929      2.00000
    141      -1.7894      2.00000
    142      -1.7894      2.00000
    143      -1.7842      2.00000
    144      -1.7842      2.00000
    145      -1.7748      2.00000
    146      -1.7748      2.00000
    147      -1.7730      2.00000
    148      -1.7730      2.00000
    149      -1.7681      2.00000
    150      -1.7674      2.00000
    151      -1.7594      2.00000
    152      -1.7591      2.00000
    153      -1.5832      2.00000
    154      -1.1951      2.00000
    155      -1.1420      2.00000
    156      -1.1396      2.00000
    157      -1.1396      2.00000
    158      -1.1088      2.00000
    159      -0.9652      2.00000
    160      -0.8180      2.00000
    161      -0.8180      2.00000
    162      -0.8158      2.00000
    163      -0.8020      2.00000
    164      -0.7782      2.00000
    165      -0.5561      2.00000
    166      -0.4932      2.00000
    167      -0.4932      2.00000
    168      -0.2896      2.00000
    169      -0.2896      2.00000
    170      -0.2842      2.00000
    171       0.2010      2.00000
    172       0.2010      2.00000
    173       0.4615      2.00000
    174       0.5216      2.00000
    175       0.6199      2.00000
    176       0.6199      2.00000
    177       0.7084      2.00000
    178       0.8807      2.00000
    179       0.8807      2.00000
    180       0.8927      2.00000
    181       1.0008      2.00000
    182       1.0330      2.00000
    183       1.0330      2.00000
    184       1.1247      2.00000
    185       1.1247      2.00000
    186       1.3547      2.00000
    187       1.3547      2.00000
    188       1.3809      2.00000
    189       1.4706      2.00000
    190       1.4772      2.00000
    191       1.4827      2.00000
    192       1.4827      2.00000
    193       1.6722      2.00000
    194       1.7391      2.00000
    195       1.7391      2.00000
    196       1.7887      2.00000
    197       1.8265      2.00000
    198       1.9222      2.00000
    199       2.0560      2.00000
    200       2.0670      2.00000
    201       2.0670      2.00000
    202       2.1943      2.00000
    203       2.2331      2.00000
    204       2.4118      2.00000
    205       2.4118      2.00000
    206       2.4148      2.00000
    207       2.4341      2.00000
    208       2.4735      2.00000
    209       2.5120      2.00000
    210       2.5120      2.00000
    211       2.6266      2.00000
    212       2.6266      2.00000
    213       2.6271      2.00000
    214       2.7279      2.00000
    215       2.8363      2.00000
    216       2.8570      2.00000
    217       2.8570      2.00000
    218       2.8645      2.00000
    219       3.0168      2.00000
    220       3.0168      2.00000
    221       3.0194      2.00000
    222       3.0859      2.00000
    223       3.0859      2.00000
    224       3.1986      2.00000
    225       3.1986      2.00000
    226       3.3156      2.00000
    227       3.3412      2.00000
    228       3.3872      2.00000
    229       3.4086      2.00000
    230       3.4086      2.00000
    231       3.4359      2.00000
    232       3.4406      2.00000
    233       3.5156      2.00000
    234       3.5156      2.00000
    235       3.5913      2.00000
    236       3.6062      2.00000
    237       3.6356      2.00000
    238       3.6994      2.00000
    239       3.7671      2.00000
    240       3.8213      2.00000
    241       3.8213      2.00000
    242       3.9098      2.00000
    243       3.9457      2.00000
    244       4.0464      2.00000
    245       4.0913      2.00000
    246       4.0913      2.00000
    247       4.0962      2.00000
    248       4.0962      2.00000
    249       6.2542      0.00000
    250       6.3710      0.00000
    251       6.4543      0.00000
    252       6.6260      0.00000
    253       6.8900      0.00000
    254       7.1313      0.00000
    255       7.1625      0.00000
    256       7.2906      0.00000
    257       7.3561      0.00000
    258       7.3561      0.00000
    259       7.3769      0.00000
    260       7.3769      0.00000
    261       7.5497      0.00000
    262       7.5835      0.00000
    263       7.5835      0.00000
    264       7.8362      0.00000
    265       7.8362      0.00000
    266       8.0057      0.00000
    267       8.4645      0.00000
    268       8.4645      0.00000
    269       8.5743      0.00000
    270       8.8456      0.00000
    271       8.9500      0.00000
    272       8.9768      0.00000
    273       8.9768      0.00000
    274       9.1516      0.00000
    275       9.1549      0.00000
    276       9.2830      0.00000
    277       9.3007      0.00000
    278       9.3007      0.00000
    279       9.6141      0.00000
    280       9.6915      0.00000
    281       9.7376      0.00000
    282       9.7376      0.00000
    283       9.8899      0.00000
    284      10.0073      0.00000
    285      10.0122      0.00000
    286      10.0407      0.00000
    287      10.0407      0.00000
    288      10.0536      0.00000
    289      10.1246      0.00000
    290      10.1246      0.00000
    291      10.2548      0.00000
    292      10.4104      0.00000
    293      10.4782      0.00000
    294      10.4782      0.00000
    295      10.4869      0.00000
    296      10.5762      0.00000
    297      10.5803      0.00000
    298      10.5805      0.00000
    299      10.6274      0.00000
    300      10.6877      0.00000
    301      10.7894      0.00000
    302      10.7916      0.00000
    303      10.8676      0.00000
    304      10.9794      0.00000

 k-point    13 :       0.5000    0.1667    0.1667
  band No.  band energies     occupation 
      1      -9.9303      2.00000
      2      -9.9303      2.00000
      3      -9.8938      2.00000
      4      -9.8938      2.00000
      5      -9.8838      2.00000
      6      -9.8838      2.00000
      7      -9.8651      2.00000
      8      -9.8651      2.00000
      9      -9.8108      2.00000
     10      -9.8108      2.00000
     11      -9.7574      2.00000
     12      -9.7574      2.00000
     13      -9.6943      2.00000
     14      -9.6943      2.00000
     15      -9.6460      2.00000
     16      -9.6460      2.00000
     17      -9.5898      2.00000
     18      -9.5898      2.00000
     19      -9.5431      2.00000
     20      -9.5431      2.00000
     21      -9.5282      2.00000
     22      -9.5282      2.00000
     23      -9.4840      2.00000
     24      -9.4840      2.00000
     25      -9.4718      2.00000
     26      -9.4718      2.00000
     27      -9.4565      2.00000
     28      -9.4565      2.00000
     29      -9.4393      2.00000
     30      -9.4393      2.00000
     31      -9.4366      2.00000
     32      -9.4366      2.00000
     33      -9.4189      2.00000
     34      -9.4189      2.00000
     35      -9.4127      2.00000
     36      -9.4127      2.00000
     37      -9.3887      2.00000
     38      -9.3887      2.00000
     39      -9.3625      2.00000
     40      -9.3625      2.00000
     41      -9.3431      2.00000
     42      -9.3431      2.00000
     43      -9.3420      2.00000
     44      -9.3420      2.00000
     45      -9.3408      2.00000
     46      -9.3408      2.00000
     47      -9.3405      2.00000
     48      -9.3405      2.00000
     49      -9.3342      2.00000
     50      -9.3341      2.00000
     51      -9.3298      2.00000
     52      -9.3298      2.00000
     53      -9.3261      2.00000
     54      -9.3261      2.00000
     55      -9.3203      2.00000
     56      -9.3203      2.00000
     57      -9.3187      2.00000
     58      -9.3187      2.00000
     59      -9.3180      2.00000
     60      -9.3180      2.00000
     61      -9.3082      2.00000
     62      -9.3082      2.00000
     63      -9.3052      2.00000
     64      -9.3052      2.00000
     65      -9.3040      2.00000
     66      -9.3040      2.00000
     67      -9.2955      2.00000
     68      -9.2955      2.00000
     69      -9.2871      2.00000
     70      -9.2871      2.00000
     71      -9.2769      2.00000
     72      -9.2769      2.00000
     73      -9.2672      2.00000
     74      -9.2672      2.00000
     75      -9.2583      2.00000
     76      -9.2583      2.00000
     77      -9.2580      2.00000
     78      -9.2580      2.00000
     79      -9.2473      2.00000
     80      -9.2473      2.00000
     81      -8.6675      2.00000
     82      -8.6675      2.00000
     83      -8.3434      2.00000
     84      -8.3434      2.00000
     85      -8.1037      2.00000
     86      -8.1037      2.00000
     87      -7.8780      2.00000
     88      -7.8780      2.00000
     89      -7.6854      2.00000
     90      -7.6854      2.00000
     91      -7.5835      2.00000
     92      -7.5835      2.00000
     93      -7.3977      2.00000
     94      -7.3977      2.00000
     95      -7.3806      2.00000
     96      -7.3806      2.00000
     97      -7.2792      2.00000
     98      -7.2792      2.00000
     99      -7.0454      2.00000
    100      -7.0454      2.00000
    101      -6.8970      2.00000
    102      -6.8970      2.00000
    103      -6.8598      2.00000
    104      -6.8598      2.00000
    105      -6.8048      2.00000
    106      -6.8048      2.00000
    107      -6.7242      2.00000
    108      -6.7242      2.00000
    109      -6.6290      2.00000
    110      -6.6290      2.00000
    111      -6.5975      2.00000
    112      -6.5975      2.00000
    113      -2.1460      2.00000
    114      -2.1460      2.00000
    115      -2.1110      2.00000
    116      -2.1110      2.00000
    117      -2.1089      2.00000
    118      -2.1089      2.00000
    119      -2.0461      2.00000
    120      -2.0461      2.00000
    121      -1.9553      2.00000
    122      -1.9553      2.00000
    123      -1.9545      2.00000
    124      -1.9545      2.00000
    125      -1.9047      2.00000
    126      -1.9047      2.00000
    127      -1.8987      2.00000
    128      -1.8987      2.00000
    129      -1.8749      2.00000
    130      -1.8749      2.00000
    131      -1.8723      2.00000
    132      -1.8723      2.00000
    133      -1.8501      2.00000
    134      -1.8501      2.00000
    135      -1.8497      2.00000
    136      -1.8496      2.00000
    137      -1.7976      2.00000
    138      -1.7976      2.00000
    139      -1.7948      2.00000
    140      -1.7948      2.00000
    141      -1.7892      2.00000
    142      -1.7892      2.00000
    143      -1.7831      2.00000
    144      -1.7831      2.00000
    145      -1.7747      2.00000
    146      -1.7747      2.00000
    147      -1.7726      2.00000
    148      -1.7726      2.00000
    149      -1.7630      2.00000
    150      -1.7630      2.00000
    151      -1.7625      2.00000
    152      -1.7625      2.00000
    153      -1.4003      2.00000
    154      -1.4003      2.00000
    155      -1.1793      2.00000
    156      -1.1793      2.00000
    157      -0.9757      2.00000
    158      -0.9757      2.00000
    159      -0.9579      2.00000
    160      -0.9579      2.00000
    161      -0.8651      2.00000
    162      -0.8651      2.00000
    163      -0.7798      2.00000
    164      -0.7798      2.00000
    165      -0.5443      2.00000
    166      -0.5443      2.00000
    167      -0.4255      2.00000
    168      -0.4255      2.00000
    169      -0.3004      2.00000
    170      -0.3004      2.00000
    171       0.3790      2.00000
    172       0.3790      2.00000
    173       0.5625      2.00000
    174       0.5625      2.00000
    175       0.6007      2.00000
    176       0.6007      2.00000
    177       0.7207      2.00000
    178       0.7207      2.00000
    179       0.8934      2.00000
    180       0.8934      2.00000
    181       0.9735      2.00000
    182       0.9735      2.00000
    183       0.9938      2.00000
    184       0.9938      2.00000
    185       1.1558      2.00000
    186       1.1558      2.00000
    187       1.2524      2.00000
    188       1.2524      2.00000
    189       1.5531      2.00000
    190       1.5531      2.00000
    191       1.5535      2.00000
    192       1.5535      2.00000
    193       1.6436      2.00000
    194       1.6436      2.00000
    195       1.7186      2.00000
    196       1.7186      2.00000
    197       2.1027      2.00000
    198       2.1027      2.00000
    199       2.1351      2.00000
    200       2.1351      2.00000
    201       2.2448      2.00000
    202       2.2448      2.00000
    203       2.2836      2.00000
    204       2.2836      2.00000
    205       2.3560      2.00000
    206       2.3560      2.00000
    207       2.4310      2.00000
    208       2.4310      2.00000
    209       2.4580      2.00000
    210       2.4580      2.00000
    211       2.6266      2.00000
    212       2.6266      2.00000
    213       2.7316      2.00000
    214       2.7316      2.00000
    215       2.8516      2.00000
    216       2.8516      2.00000
    217       3.0304      2.00000
    218       3.0304      2.00000
    219       3.0512      2.00000
    220       3.0512      2.00000
    221       3.0817      2.00000
    222       3.0817      2.00000
    223       3.0970      2.00000
    224       3.0970      2.00000
    225       3.1575      2.00000
    226       3.1575      2.00000
    227       3.2812      2.00000
    228       3.2812      2.00000
    229       3.2933      2.00000
    230       3.2933      2.00000
    231       3.4948      2.00000
    232       3.4948      2.00000
    233       3.5161      2.00000
    234       3.5161      2.00000
    235       3.5417      2.00000
    236       3.5417      2.00000
    237       3.6641      2.00000
    238       3.6641      2.00000
    239       3.8458      2.00000
    240       3.8458      2.00000
    241       3.8715      2.00000
    242       3.8715      2.00000
    243       3.9284      2.00000
    244       3.9284      2.00000
    245       4.0574      2.00000
    246       4.0574      2.00000
    247       4.0876      2.00000
    248       4.0876      2.00000
    249       6.5440      0.00000
    250       6.5440      0.00000
    251       6.7428      0.00000
    252       6.7428      0.00000
    253       6.8569      0.00000
    254       6.8569      0.00000
    255       7.1239      0.00000
    256       7.1239      0.00000
    257       7.3444      0.00000
    258       7.3444      0.00000
    259       7.4620      0.00000
    260       7.4620      0.00000
    261       7.5176      0.00000
    262       7.5176      0.00000
    263       7.5474      0.00000
    264       7.5474      0.00000
    265       7.8734      0.00000
    266       7.8734      0.00000
    267       8.4661      0.00000
    268       8.4661      0.00000
    269       8.7018      0.00000
    270       8.7018      0.00000
    271       8.9182      0.00000
    272       8.9182      0.00000
    273       9.1724      0.00000
    274       9.1724      0.00000
    275       9.2681      0.00000
    276       9.2681      0.00000
    277       9.3541      0.00000
    278       9.3541      0.00000
    279       9.4900      0.00000
    280       9.4900      0.00000
    281       9.7130      0.00000
    282       9.7130      0.00000
    283       9.8773      0.00000
    284       9.8773      0.00000
    285       9.9904      0.00000
    286       9.9904      0.00000
    287      10.1622      0.00000
    288      10.1622      0.00000
    289      10.2123      0.00000
    290      10.2123      0.00000
    291      10.3111      0.00000
    292      10.3111      0.00000
    293      10.3180      0.00000
    294      10.3180      0.00000
    295      10.4231      0.00000
    296      10.4231      0.00000
    297      10.6599      0.00000
    298      10.6617      0.00000
    299      10.7712      0.00000
    300      10.7786      0.00000
    301      10.7897      0.00000
    302      10.8076      0.00000
    303      10.8867      0.00000
    304      10.9009      0.00000

 k-point    14 :       0.3333    0.3333    0.1667
  band No.  band energies     occupation 
      1      -9.9470      2.00000
      2      -9.9161      2.00000
      3      -9.9161      2.00000
      4      -9.9078      2.00000
      5      -9.8910      2.00000
      6      -9.8720      2.00000
      7      -9.8367      2.00000
      8      -9.8367      2.00000
      9      -9.8017      2.00000
     10      -9.7953      2.00000
     11      -9.7953      2.00000
     12      -9.7711      2.00000
     13      -9.6754      2.00000
     14      -9.6669      2.00000
     15      -9.6669      2.00000
     16      -9.6605      2.00000
     17      -9.5971      2.00000
     18      -9.5971      2.00000
     19      -9.5680      2.00000
     20      -9.5320      2.00000
     21      -9.5211      2.00000
     22      -9.5073      2.00000
     23      -9.5073      2.00000
     24      -9.4905      2.00000
     25      -9.4603      2.00000
     26      -9.4557      2.00000
     27      -9.4557      2.00000
     28      -9.4467      2.00000
     29      -9.4467      2.00000
     30      -9.4446      2.00000
     31      -9.4434      2.00000
     32      -9.4422      2.00000
     33      -9.4167      2.00000
     34      -9.4151      2.00000
     35      -9.4151      2.00000
     36      -9.4107      2.00000
     37      -9.3834      2.00000
     38      -9.3747      2.00000
     39      -9.3747      2.00000
     40      -9.3580      2.00000
     41      -9.3444      2.00000
     42      -9.3433      2.00000
     43      -9.3425      2.00000
     44      -9.3420      2.00000
     45      -9.3420      2.00000
     46      -9.3397      2.00000
     47      -9.3370      2.00000
     48      -9.3370      2.00000
     49      -9.3345      2.00000
     50      -9.3345      2.00000
     51      -9.3324      2.00000
     52      -9.3268      2.00000
     53      -9.3265      2.00000
     54      -9.3265      2.00000
     55      -9.3239      2.00000
     56      -9.3226      2.00000
     57      -9.3198      2.00000
     58      -9.3184      2.00000
     59      -9.3149      2.00000
     60      -9.3149      2.00000
     61      -9.3065      2.00000
     62      -9.3065      2.00000
     63      -9.3042      2.00000
     64      -9.3038      2.00000
     65      -9.3032      2.00000
     66      -9.3032      2.00000
     67      -9.3031      2.00000
     68      -9.3009      2.00000
     69      -9.2836      2.00000
     70      -9.2812      2.00000
     71      -9.2812      2.00000
     72      -9.2796      2.00000
     73      -9.2697      2.00000
     74      -9.2697      2.00000
     75      -9.2642      2.00000
     76      -9.2577      2.00000
     77      -9.2538      2.00000
     78      -9.2517      2.00000
     79      -9.2517      2.00000
     80      -9.2418      2.00000
     81      -8.7114      2.00000
     82      -8.4925      2.00000
     83      -8.4925      2.00000
     84      -8.3797      2.00000
     85      -8.1100      2.00000
     86      -8.0236      2.00000
     87      -8.0236      2.00000
     88      -7.8921      2.00000
     89      -7.6863      2.00000
     90      -7.6382      2.00000
     91      -7.6382      2.00000
     92      -7.5948      2.00000
     93      -7.3705      2.00000
     94      -7.3194      2.00000
     95      -7.3193      2.00000
     96      -7.2782      2.00000
     97      -7.2190      2.00000
     98      -7.1869      2.00000
     99      -7.1218      2.00000
    100      -7.1218      2.00000
    101      -6.9737      2.00000
    102      -6.9737      2.00000
    103      -6.8639      2.00000
    104      -6.8323      2.00000
    105      -6.7532      2.00000
    106      -6.7285      2.00000
    107      -6.7285      2.00000
    108      -6.7006      2.00000
    109      -6.6744      2.00000
    110      -6.6590      2.00000
    111      -6.6590      2.00000
    112      -6.5973      2.00000
    113      -2.1472      2.00000
    114      -2.1378      2.00000
    115      -2.1378      2.00000
    116      -2.1098      2.00000
    117      -2.0934      2.00000
    118      -2.0848      2.00000
    119      -2.0848      2.00000
    120      -2.0036      2.00000
    121      -1.9796      2.00000
    122      -1.9659      2.00000
    123      -1.9659      2.00000
    124      -1.9358      2.00000
    125      -1.9195      2.00000
    126      -1.8974      2.00000
    127      -1.8974      2.00000
    128      -1.8924      2.00000
    129      -1.8840      2.00000
    130      -1.8840      2.00000
    131      -1.8681      2.00000
    132      -1.8615      2.00000
    133      -1.8604      2.00000
    134      -1.8411      2.00000
    135      -1.8411      2.00000
    136      -1.8392      2.00000
    137      -1.7961      2.00000
    138      -1.7929      2.00000
    139      -1.7929      2.00000
    140      -1.7896      2.00000
    141      -1.7882      2.00000
    142      -1.7860      2.00000
    143      -1.7860      2.00000
    144      -1.7840      2.00000
    145      -1.7746      2.00000
    146      -1.7707      2.00000
    147      -1.7690      2.00000
    148      -1.7690      2.00000
    149      -1.7680      2.00000
    150      -1.7680      2.00000
    151      -1.7614      2.00000
    152      -1.7607      2.00000
    153      -1.5332      2.00000
    154      -1.2674      2.00000
    155      -1.2674      2.00000
    156      -1.2401      2.00000
    157      -1.0986      2.00000
    158      -0.9969      2.00000
    159      -0.8786      2.00000
    160      -0.8786      2.00000
    161      -0.8442      2.00000
    162      -0.7960      2.00000
    163      -0.6550      2.00000
    164      -0.6550      2.00000
    165      -0.6001      2.00000
    166      -0.5694      2.00000
    167      -0.5140      2.00000
    168      -0.5140      2.00000
    169      -0.3460      2.00000
    170      -0.0164      2.00000
    171      -0.0164      2.00000
    172       0.4380      2.00000
    173       0.5335      2.00000
    174       0.5650      2.00000
    175       0.6404      2.00000
    176       0.7181      2.00000
    177       0.7181      2.00000
    178       0.7949      2.00000
    179       0.8518      2.00000
    180       0.8518      2.00000
    181       0.9222      2.00000
    182       0.9404      2.00000
    183       0.9404      2.00000
    184       1.0164      2.00000
    185       1.2255      2.00000
    186       1.2792      2.00000
    187       1.2792      2.00000
    188       1.2997      2.00000
    189       1.4598      2.00000
    190       1.4598      2.00000
    191       1.6298      2.00000
    192       1.6523      2.00000
    193       1.6523      2.00000
    194       1.6582      2.00000
    195       1.7638      2.00000
    196       1.8657      2.00000
    197       1.9573      2.00000
    198       1.9869      2.00000
    199       1.9869      2.00000
    200       2.1091      2.00000
    201       2.1656      2.00000
    202       2.1656      2.00000
    203       2.2448      2.00000
    204       2.2962      2.00000
    205       2.3157      2.00000
    206       2.3157      2.00000
    207       2.4659      2.00000
    208       2.5526      2.00000
    209       2.5526      2.00000
    210       2.5695      2.00000
    211       2.5886      2.00000
    212       2.6057      2.00000
    213       2.6889      2.00000
    214       2.7342      2.00000
    215       2.7342      2.00000
    216       2.8958      2.00000
    217       2.9065      2.00000
    218       2.9065      2.00000
    219       3.0380      2.00000
    220       3.0498      2.00000
    221       3.1396      2.00000
    222       3.1396      2.00000
    223       3.1489      2.00000
    224       3.2015      2.00000
    225       3.2039      2.00000
    226       3.2039      2.00000
    227       3.2339      2.00000
    228       3.3062      2.00000
    229       3.3062      2.00000
    230       3.3378      2.00000
    231       3.4440      2.00000
    232       3.4737      2.00000
    233       3.4925      2.00000
    234       3.4925      2.00000
    235       3.6300      2.00000
    236       3.6878      2.00000
    237       3.7012      2.00000
    238       3.7012      2.00000
    239       3.7057      2.00000
    240       3.7245      2.00000
    241       3.8611      2.00000
    242       3.8798      2.00000
    243       3.8798      2.00000
    244       4.0339      2.00000
    245       4.0967      2.00000
    246       4.0967      2.00000
    247       4.1398      2.00000
    248       4.1631      2.00000
    249       6.4097      0.00000
    250       6.5954      0.00000
    251       6.6028      0.00000
    252       6.9332      0.00000
    253       7.0310      0.00000
    254       7.0310      0.00000
    255       7.1378      0.00000
    256       7.1378      0.00000
    257       7.2152      0.00000
    258       7.3114      0.00000
    259       7.3114      0.00000
    260       7.3307      0.00000
    261       7.3343      0.00000
    262       7.4993      0.00000
    263       7.6765      0.00000
    264       7.6765      0.00000
    265       7.8530      0.00000
    266       8.0297      0.00000
    267       8.0297      0.00000
    268       8.2673      0.00000
    269       8.6095      0.00000
    270       8.7711      0.00000
    271       8.7711      0.00000
    272       8.8160      0.00000
    273       9.0817      0.00000
    274       9.2097      0.00000
    275       9.2521      0.00000
    276       9.2638      0.00000
    277       9.2638      0.00000
    278       9.2955      0.00000
    279       9.5750      0.00000
    280       9.5750      0.00000
    281       9.6631      0.00000
    282       9.7031      0.00000
    283       9.7665      0.00000
    284       9.7665      0.00000
    285       9.9544      0.00000
    286       9.9992      0.00000
    287       9.9992      0.00000
    288      10.0970      0.00000
    289      10.2390      0.00000
    290      10.2541      0.00000
    291      10.2878      0.00000
    292      10.2878      0.00000
    293      10.4507      0.00000
    294      10.5166      0.00000
    295      10.5877      0.00000
    296      10.6043      0.00000
    297      10.6044      0.00000
    298      10.6899      0.00000
    299      10.6906      0.00000
    300      10.6916      0.00000
    301      10.8257      0.00000
    302      10.8784      0.00000
    303      10.9059      0.00000
    304      10.9865      0.00000

 k-point    15 :       0.5000    0.3333    0.1667
  band No.  band energies     occupation 
      1      -9.9369      2.00000
      2      -9.9369      2.00000
      3      -9.9175      2.00000
      4      -9.9175      2.00000
      5      -9.8665      2.00000
      6      -9.8665      2.00000
      7      -9.8342      2.00000
      8      -9.8342      2.00000
      9      -9.8207      2.00000
     10      -9.8207      2.00000
     11      -9.7641      2.00000
     12      -9.7641      2.00000
     13      -9.6898      2.00000
     14      -9.6898      2.00000
     15      -9.6281      2.00000
     16      -9.6281      2.00000
     17      -9.6173      2.00000
     18      -9.6173      2.00000
     19      -9.5599      2.00000
     20      -9.5599      2.00000
     21      -9.5099      2.00000
     22      -9.5099      2.00000
     23      -9.4809      2.00000
     24      -9.4809      2.00000
     25      -9.4711      2.00000
     26      -9.4711      2.00000
     27      -9.4503      2.00000
     28      -9.4503      2.00000
     29      -9.4482      2.00000
     30      -9.4482      2.00000
     31      -9.4432      2.00000
     32      -9.4432      2.00000
     33      -9.4150      2.00000
     34      -9.4150      2.00000
     35      -9.4121      2.00000
     36      -9.4121      2.00000
     37      -9.3779      2.00000
     38      -9.3779      2.00000
     39      -9.3639      2.00000
     40      -9.3639      2.00000
     41      -9.3418      2.00000
     42      -9.3418      2.00000
     43      -9.3413      2.00000
     44      -9.3413      2.00000
     45      -9.3399      2.00000
     46      -9.3399      2.00000
     47      -9.3385      2.00000
     48      -9.3385      2.00000
     49      -9.3342      2.00000
     50      -9.3342      2.00000
     51      -9.3309      2.00000
     52      -9.3309      2.00000
     53      -9.3282      2.00000
     54      -9.3282      2.00000
     55      -9.3229      2.00000
     56      -9.3229      2.00000
     57      -9.3189      2.00000
     58      -9.3189      2.00000
     59      -9.3163      2.00000
     60      -9.3163      2.00000
     61      -9.3051      2.00000
     62      -9.3051      2.00000
     63      -9.3051      2.00000
     64      -9.3051      2.00000
     65      -9.3035      2.00000
     66      -9.3035      2.00000
     67      -9.2994      2.00000
     68      -9.2994      2.00000
     69      -9.2861      2.00000
     70      -9.2861      2.00000
     71      -9.2745      2.00000
     72      -9.2745      2.00000
     73      -9.2734      2.00000
     74      -9.2734      2.00000
     75      -9.2634      2.00000
     76      -9.2634      2.00000
     77      -9.2514      2.00000
     78      -9.2514      2.00000
     79      -9.2454      2.00000
     80      -9.2454      2.00000
     81      -8.6180      2.00000
     82      -8.6180      2.00000
     83      -8.4348      2.00000
     84      -8.4348      2.00000
     85      -8.0874      2.00000
     86      -8.0874      2.00000
     87      -7.9627      2.00000
     88      -7.9627      2.00000
     89      -7.6729      2.00000
     90      -7.6729      2.00000
     91      -7.6152      2.00000
     92      -7.6152      2.00000
     93      -7.3296      2.00000
     94      -7.3296      2.00000
     95      -7.2725      2.00000
     96      -7.2725      2.00000
     97      -7.1771      2.00000
     98      -7.1771      2.00000
     99      -7.0667      2.00000
    100      -7.0667      2.00000
    101      -6.9402      2.00000
    102      -6.9402      2.00000
    103      -6.8823      2.00000
    104      -6.8823      2.00000
    105      -6.7988      2.00000
    106      -6.7988      2.00000
    107      -6.7059      2.00000
    108      -6.7059      2.00000
    109      -6.6964      2.00000
    110      -6.6964      2.00000
    111      -6.6261      2.00000
    112      -6.6261      2.00000
    113      -2.1454      2.00000
    114      -2.1454      2.00000
    115      -2.1271      2.00000
    116      -2.1271      2.00000
    117      -2.0861      2.00000
    118      -2.0861      2.00000
    119      -2.0467      2.00000
    120      -2.0467      2.00000
    121      -1.9648      2.00000
    122      -1.9648      2.00000
    123      -1.9527      2.00000
    124      -1.9527      2.00000
    125      -1.9132      2.00000
    126      -1.9132      2.00000
    127      -1.9104      2.00000
    128      -1.9104      2.00000
    129      -1.8691      2.00000
    130      -1.8691      2.00000
    131      -1.8556      2.00000
    132      -1.8556      2.00000
    133      -1.8510      2.00000
    134      -1.8510      2.00000
    135      -1.8465      2.00000
    136      -1.8465      2.00000
    137      -1.7937      2.00000
    138      -1.7937      2.00000
    139      -1.7915      2.00000
    140      -1.7915      2.00000
    141      -1.7869      2.00000
    142      -1.7869      2.00000
    143      -1.7838      2.00000
    144      -1.7838      2.00000
    145      -1.7720      2.00000
    146      -1.7720      2.00000
    147      -1.7689      2.00000
    148      -1.7689      2.00000
    149      -1.7648      2.00000
    150      -1.7648      2.00000
    151      -1.7636      2.00000
    152      -1.7636      2.00000
    153      -1.4178      2.00000
    154      -1.4178      2.00000
    155      -1.2882      2.00000
    156      -1.2882      2.00000
    157      -0.9917      2.00000
    158      -0.9917      2.00000
    159      -0.8664      2.00000
    160      -0.8664      2.00000
    161      -0.8365      2.00000
    162      -0.8365      2.00000
    163      -0.6918      2.00000
    164      -0.6918      2.00000
    165      -0.5974      2.00000
    166      -0.5974      2.00000
    167      -0.4329      2.00000
    168      -0.4329      2.00000
    169      -0.2911      2.00000
    170      -0.2911      2.00000
    171       0.2689      2.00000
    172       0.2690      2.00000
    173       0.6072      2.00000
    174       0.6072      2.00000
    175       0.6966      2.00000
    176       0.6966      2.00000
    177       0.7592      2.00000
    178       0.7592      2.00000
    179       0.8181      2.00000
    180       0.8181      2.00000
    181       0.8769      2.00000
    182       0.8769      2.00000
    183       1.0566      2.00000
    184       1.0566      2.00000
    185       1.0580      2.00000
    186       1.0580      2.00000
    187       1.3194      2.00000
    188       1.3194      2.00000
    189       1.5650      2.00000
    190       1.5650      2.00000
    191       1.6639      2.00000
    192       1.6639      2.00000
    193       1.6836      2.00000
    194       1.6836      2.00000
    195       1.8547      2.00000
    196       1.8547      2.00000
    197       1.8910      2.00000
    198       1.8910      2.00000
    199       2.1181      2.00000
    200       2.1181      2.00000
    201       2.1442      2.00000
    202       2.1442      2.00000
    203       2.2326      2.00000
    204       2.2326      2.00000
    205       2.3609      2.00000
    206       2.3609      2.00000
    207       2.4134      2.00000
    208       2.4134      2.00000
    209       2.4724      2.00000
    210       2.4724      2.00000
    211       2.6484      2.00000
    212       2.6484      2.00000
    213       2.7700      2.00000
    214       2.7700      2.00000
    215       2.8883      2.00000
    216       2.8883      2.00000
    217       2.9707      2.00000
    218       2.9707      2.00000
    219       3.0472      2.00000
    220       3.0472      2.00000
    221       3.0653      2.00000
    222       3.0653      2.00000
    223       3.1010      2.00000
    224       3.1010      2.00000
    225       3.2458      2.00000
    226       3.2458      2.00000
    227       3.2845      2.00000
    228       3.2845      2.00000
    229       3.3569      2.00000
    230       3.3569      2.00000
    231       3.4181      2.00000
    232       3.4181      2.00000
    233       3.5156      2.00000
    234       3.5156      2.00000
    235       3.6023      2.00000
    236       3.6023      2.00000
    237       3.6401      2.00000
    238       3.6401      2.00000
    239       3.8073      2.00000
    240       3.8073      2.00000
    241       3.8406      2.00000
    242       3.8406      2.00000
    243       3.9608      2.00000
    244       3.9608      2.00000
    245       4.1230      2.00000
    246       4.1230      2.00000
    247       4.1346      2.00000
    248       4.1346      2.00000
    249       6.6880      0.00000
    250       6.6880      0.00000
    251       6.8375      0.00000
    252       6.8375      0.00000
    253       6.9463      0.00000
    254       6.9463      0.00000
    255       7.1017      0.00000
    256       7.1017      0.00000
    257       7.2746      0.00000
    258       7.2746      0.00000
    259       7.3288      0.00000
    260       7.3288      0.00000
    261       7.3642      0.00000
    262       7.3642      0.00000
    263       7.6443      0.00000
    264       7.6443      0.00000
    265       7.7948      0.00000
    266       7.7948      0.00000
    267       8.1176      0.00000
    268       8.1176      0.00000
    269       8.6549      0.00000
    270       8.6549      0.00000
    271       8.7336      0.00000
    272       8.7336      0.00000
    273       9.1871      0.00000
    274       9.1871      0.00000
    275       9.1999      0.00000
    276       9.1999      0.00000
    277       9.3914      0.00000
    278       9.3914      0.00000
    279       9.4754      0.00000
    280       9.4754      0.00000
    281       9.5142      0.00000
    282       9.5142      0.00000
    283       9.8773      0.00000
    284       9.8773      0.00000
    285       9.8793      0.00000
    286       9.8793      0.00000
    287      10.1445      0.00000
    288      10.1445      0.00000
    289      10.2386      0.00000
    290      10.2386      0.00000
    291      10.3468      0.00000
    292      10.3468      0.00000
    293      10.5018      0.00000
    294      10.5018      0.00000
    295      10.5902      0.00000
    296      10.5903      0.00000
    297      10.6646      0.00000
    298      10.6653      0.00000
    299      10.7139      0.00000
    300      10.7150      0.00000
    301      10.8008      0.00000
    302      10.8048      0.00000
    303      10.8309      0.00000
    304      10.8677      0.00000

 k-point    16 :       0.5000    0.5000    0.1667
  band No.  band energies     occupation 
      1      -9.9328      2.00000
      2      -9.9328      2.00000
      3      -9.9328      2.00000
      4      -9.9328      2.00000
      5      -9.8454      2.00000
      6      -9.8454      2.00000
      7      -9.8454      2.00000
      8      -9.8454      2.00000
      9      -9.7947      2.00000
     10      -9.7947      2.00000
     11      -9.7947      2.00000
     12      -9.7947      2.00000
     13      -9.6583      2.00000
     14      -9.6583      2.00000
     15      -9.6583      2.00000
     16      -9.6583      2.00000
     17      -9.5923      2.00000
     18      -9.5923      2.00000
     19      -9.5923      2.00000
     20      -9.5923      2.00000
     21      -9.4894      2.00000
     22      -9.4894      2.00000
     23      -9.4894      2.00000
     24      -9.4894      2.00000
     25      -9.4632      2.00000
     26      -9.4632      2.00000
     27      -9.4632      2.00000
     28      -9.4632      2.00000
     29      -9.4448      2.00000
     30      -9.4448      2.00000
     31      -9.4448      2.00000
     32      -9.4448      2.00000
     33      -9.4127      2.00000
     34      -9.4127      2.00000
     35      -9.4127      2.00000
     36      -9.4127      2.00000
     37      -9.3688      2.00000
     38      -9.3688      2.00000
     39      -9.3688      2.00000
     40      -9.3688      2.00000
     41      -9.3408      2.00000
     42      -9.3408      2.00000
     43      -9.3408      2.00000
     44      -9.3408      2.00000
     45      -9.3380      2.00000
     46      -9.3380      2.00000
     47      -9.3380      2.00000
     48      -9.3380      2.00000
     49      -9.3349      2.00000
     50      -9.3349      2.00000
     51      -9.3349      2.00000
     52      -9.3349      2.00000
     53      -9.3250      2.00000
     54      -9.3250      2.00000
     55      -9.3250      2.00000
     56      -9.3250      2.00000
     57      -9.3174      2.00000
     58      -9.3174      2.00000
     59      -9.3174      2.00000
     60      -9.3174      2.00000
     61      -9.3035      2.00000
     62      -9.3035      2.00000
     63      -9.3035      2.00000
     64      -9.3035      2.00000
     65      -9.3035      2.00000
     66      -9.3035      2.00000
     67      -9.3035      2.00000
     68      -9.3035      2.00000
     69      -9.2811      2.00000
     70      -9.2811      2.00000
     71      -9.2811      2.00000
     72      -9.2811      2.00000
     73      -9.2688      2.00000
     74      -9.2688      2.00000
     75      -9.2688      2.00000
     76      -9.2688      2.00000
     77      -9.2468      2.00000
     78      -9.2468      2.00000
     79      -9.2468      2.00000
     80      -9.2468      2.00000
     81      -8.5368      2.00000
     82      -8.5368      2.00000
     83      -8.5368      2.00000
     84      -8.5368      2.00000
     85      -8.0382      2.00000
     86      -8.0382      2.00000
     87      -8.0382      2.00000
     88      -8.0382      2.00000
     89      -7.6485      2.00000
     90      -7.6485      2.00000
     91      -7.6485      2.00000
     92      -7.6485      2.00000
     93      -7.2685      2.00000
     94      -7.2685      2.00000
     95      -7.2685      2.00000
     96      -7.2685      2.00000
     97      -7.0623      2.00000
     98      -7.0623      2.00000
     99      -7.0623      2.00000
    100      -7.0623      2.00000
    101      -6.9625      2.00000
    102      -6.9625      2.00000
    103      -6.9625      2.00000
    104      -6.9625      2.00000
    105      -6.7667      2.00000
    106      -6.7667      2.00000
    107      -6.7667      2.00000
    108      -6.7667      2.00000
    109      -6.6623      2.00000
    110      -6.6623      2.00000
    111      -6.6623      2.00000
    112      -6.6623      2.00000
    113      -2.1393      2.00000
    114      -2.1393      2.00000
    115      -2.1393      2.00000
    116      -2.1393      2.00000
    117      -2.0607      2.00000
    118      -2.0607      2.00000
    119      -2.0607      2.00000
    120      -2.0607      2.00000
    121      -1.9627      2.00000
    122      -1.9627      2.00000
    123      -1.9627      2.00000
    124      -1.9627      2.00000
    125      -1.9209      2.00000
    126      -1.9209      2.00000
    127      -1.9209      2.00000
    128      -1.9209      2.00000
    129      -1.8517      2.00000
    130      -1.8517      2.00000
    131      -1.8517      2.00000
    132      -1.8517      2.00000
    133      -1.8468      2.00000
    134      -1.8468      2.00000
    135      -1.8468      2.00000
    136      -1.8468      2.00000
    137      -1.7917      2.00000
    138      -1.7917      2.00000
    139      -1.7917      2.00000
    140      -1.7917      2.00000
    141      -1.7841      2.00000
    142      -1.7841      2.00000
    143      -1.7841      2.00000
    144      -1.7841      2.00000
    145      -1.7689      2.00000
    146      -1.7689      2.00000
    147      -1.7689      2.00000
    148      -1.7689      2.00000
    149      -1.7656      2.00000
    150      -1.7656      2.00000
    151      -1.7656      2.00000
    152      -1.7656      2.00000
    153      -1.3814      2.00000
    154      -1.3814      2.00000
    155      -1.3814      2.00000
    156      -1.3814      2.00000
    157      -0.9357      2.00000
    158      -0.9357      2.00000
    159      -0.9357      2.00000
    160      -0.9357      2.00000
    161      -0.7192      2.00000
    162      -0.7192      2.00000
    163      -0.7191      2.00000
    164      -0.7191      2.00000
    165      -0.5673      2.00000
    166      -0.5673      2.00000
    167      -0.5673      2.00000
    168      -0.5673      2.00000
    169      -0.0003      2.00000
    170      -0.0003      2.00000
    171      -0.0003      2.00000
    172      -0.0003      2.00000
    173       0.6948      2.00000
    174       0.6948      2.00000
    175       0.6948      2.00000
    176       0.6948      2.00000
    177       0.6968      2.00000
    178       0.6968      2.00000
    179       0.6968      2.00000
    180       0.6968      2.00000
    181       0.9762      2.00000
    182       0.9762      2.00000
    183       0.9762      2.00000
    184       0.9762      2.00000
    185       1.3555      2.00000
    186       1.3555      2.00000
    187       1.3555      2.00000
    188       1.3555      2.00000
    189       1.4876      2.00000
    190       1.4876      2.00000
    191       1.4876      2.00000
    192       1.4876      2.00000
    193       1.7877      2.00000
    194       1.7877      2.00000
    195       1.7877      2.00000
    196       1.7877      2.00000
    197       2.0370      2.00000
    198       2.0370      2.00000
    199       2.0370      2.00000
    200       2.0370      2.00000
    201       2.1324      2.00000
    202       2.1324      2.00000
    203       2.1324      2.00000
    204       2.1324      2.00000
    205       2.4254      2.00000
    206       2.4254      2.00000
    207       2.4254      2.00000
    208       2.4254      2.00000
    209       2.4823      2.00000
    210       2.4823      2.00000
    211       2.4823      2.00000
    212       2.4823      2.00000
    213       2.9326      2.00000
    214       2.9326      2.00000
    215       2.9326      2.00000
    216       2.9326      2.00000
    217       2.9418      2.00000
    218       2.9418      2.00000
    219       2.9418      2.00000
    220       2.9418      2.00000
    221       3.1363      2.00000
    222       3.1363      2.00000
    223       3.1363      2.00000
    224       3.1363      2.00000
    225       3.2094      2.00000
    226       3.2094      2.00000
    227       3.2094      2.00000
    228       3.2094      2.00000
    229       3.4592      2.00000
    230       3.4592      2.00000
    231       3.4592      2.00000
    232       3.4592      2.00000
    233       3.5211      2.00000
    234       3.5211      2.00000
    235       3.5211      2.00000
    236       3.5211      2.00000
    237       3.7464      2.00000
    238       3.7464      2.00000
    239       3.7464      2.00000
    240       3.7464      2.00000
    241       3.8617      2.00000
    242       3.8617      2.00000
    243       3.8617      2.00000
    244       3.8617      2.00000
    245       4.1711      2.00000
    246       4.1711      2.00000
    247       4.1711      2.00000
    248       4.1711      2.00000
    249       6.8558      0.00000
    250       6.8558      0.00000
    251       6.8558      0.00000
    252       6.8558      0.00000
    253       7.0721      0.00000
    254       7.0721      0.00000
    255       7.0721      0.00000
    256       7.0722      0.00000
    257       7.1197      0.00000
    258       7.1197      0.00000
    259       7.1197      0.00000
    260       7.1197      0.00000
    261       7.5824      0.00000
    262       7.5824      0.00000
    263       7.5824      0.00000
    264       7.5824      0.00000
    265       7.8384      0.00000
    266       7.8384      0.00000
    267       7.8384      0.00000
    268       7.8384      0.00000
    269       8.6374      0.00000
    270       8.6374      0.00000
    271       8.6374      0.00000
    272       8.6374      0.00000
    273       9.1595      0.00000
    274       9.1595      0.00000
    275       9.1595      0.00000
    276       9.1595      0.00000
    277       9.3970      0.00000
    278       9.3970      0.00000
    279       9.3970      0.00000
    280       9.3970      0.00000
    281       9.6398      0.00000
    282       9.6398      0.00000
    283       9.6398      0.00000
    284       9.6398      0.00000
    285      10.0946      0.00000
    286      10.0946      0.00000
    287      10.0946      0.00000
    288      10.0946      0.00000
    289      10.3387      0.00000
    290      10.3387      0.00000
    291      10.3387      0.00000
    292      10.3387      0.00000
    293      10.4428      0.00000
    294      10.4428      0.00000
    295      10.4428      0.00000
    296      10.4428      0.00000
    297      10.7332      0.00000
    298      10.7333      0.00000
    299      10.7334      0.00000
    300      10.7368      0.00000
    301      10.9062      0.00000
    302      10.9077      0.00000
    303      10.9098      0.00000
    304      11.0195      0.00000

 k-point    17 :       0.3333    0.3333    0.3333
  band No.  band energies     occupation 
      1      -9.9521      2.00000
      2      -9.9310      2.00000
      3      -9.9310      2.00000
      4      -9.9310      2.00000
      5      -9.8579      2.00000
      6      -9.8579      2.00000
      7      -9.8054      2.00000
      8      -9.8054      2.00000
      9      -9.8054      2.00000
     10      -9.7946      2.00000
     11      -9.7946      2.00000
     12      -9.7946      2.00000
     13      -9.6651      2.00000
     14      -9.6651      2.00000
     15      -9.6651      2.00000
     16      -9.6376      2.00000
     17      -9.6376      2.00000
     18      -9.6376      2.00000
     19      -9.5806      2.00000
     20      -9.5806      2.00000
     21      -9.4845      2.00000
     22      -9.4845      2.00000
     23      -9.4845      2.00000
     24      -9.4828      2.00000
     25      -9.4563      2.00000
     26      -9.4563      2.00000
     27      -9.4563      2.00000
     28      -9.4497      2.00000
     29      -9.4497      2.00000
     30      -9.4480      2.00000
     31      -9.4480      2.00000
     32      -9.4480      2.00000
     33      -9.4133      2.00000
     34      -9.4133      2.00000
     35      -9.4133      2.00000
     36      -9.4102      2.00000
     37      -9.3735      2.00000
     38      -9.3735      2.00000
     39      -9.3735      2.00000
     40      -9.3595      2.00000
     41      -9.3423      2.00000
     42      -9.3423      2.00000
     43      -9.3410      2.00000
     44      -9.3410      2.00000
     45      -9.3410      2.00000
     46      -9.3372      2.00000
     47      -9.3372      2.00000
     48      -9.3372      2.00000
     49      -9.3363      2.00000
     50      -9.3363      2.00000
     51      -9.3363      2.00000
     52      -9.3280      2.00000
     53      -9.3228      2.00000
     54      -9.3228      2.00000
     55      -9.3217      2.00000
     56      -9.3217      2.00000
     57      -9.3217      2.00000
     58      -9.3149      2.00000
     59      -9.3149      2.00000
     60      -9.3149      2.00000
     61      -9.3069      2.00000
     62      -9.3069      2.00000
     63      -9.3069      2.00000
     64      -9.3042      2.00000
     65      -9.3042      2.00000
     66      -9.3033      2.00000
     67      -9.3033      2.00000
     68      -9.3033      2.00000
     69      -9.2799      2.00000
     70      -9.2799      2.00000
     71      -9.2799      2.00000
     72      -9.2771      2.00000
     73      -9.2771      2.00000
     74      -9.2771      2.00000
     75      -9.2668      2.00000
     76      -9.2668      2.00000
     77      -9.2471      2.00000
     78      -9.2471      2.00000
     79      -9.2471      2.00000
     80      -9.2400      2.00000
     81      -8.6600      2.00000
     82      -8.4694      2.00000
     83      -8.4694      2.00000
     84      -8.4694      2.00000
     85      -8.1171      2.00000
     86      -8.1171      2.00000
     87      -8.1171      2.00000
     88      -7.9933      2.00000
     89      -7.6126      2.00000
     90      -7.6126      2.00000
     91      -7.6126      2.00000
     92      -7.5685      2.00000
     93      -7.2618      2.00000
     94      -7.2618      2.00000
     95      -7.2098      2.00000
     96      -7.2098      2.00000
     97      -7.2098      2.00000
     98      -7.1353      2.00000
     99      -7.1353      2.00000
    100      -7.1353      2.00000
    101      -6.9372      2.00000
    102      -6.9372      2.00000
    103      -6.9372      2.00000
    104      -6.8119      2.00000
    105      -6.8119      2.00000
    106      -6.8119      2.00000
    107      -6.7670      2.00000
    108      -6.7670      2.00000
    109      -6.6685      2.00000
    110      -6.6685      2.00000
    111      -6.6685      2.00000
    112      -6.6213      2.00000
    113      -2.1423      2.00000
    114      -2.1423      2.00000
    115      -2.1423      2.00000
    116      -2.1228      2.00000
    117      -2.0714      2.00000
    118      -2.0714      2.00000
    119      -2.0714      2.00000
    120      -2.0016      2.00000
    121      -1.9696      2.00000
    122      -1.9696      2.00000
    123      -1.9696      2.00000
    124      -1.9408      2.00000
    125      -1.9408      2.00000
    126      -1.9102      2.00000
    127      -1.9102      2.00000
    128      -1.9102      2.00000
    129      -1.8722      2.00000
    130      -1.8722      2.00000
    131      -1.8668      2.00000
    132      -1.8668      2.00000
    133      -1.8668      2.00000
    134      -1.8554      2.00000
    135      -1.8554      2.00000
    136      -1.8554      2.00000
    137      -1.7885      2.00000
    138      -1.7885      2.00000
    139      -1.7885      2.00000
    140      -1.7850      2.00000
    141      -1.7850      2.00000
    142      -1.7822      2.00000
    143      -1.7822      2.00000
    144      -1.7822      2.00000
    145      -1.7688      2.00000
    146      -1.7688      2.00000
    147      -1.7688      2.00000
    148      -1.7678      2.00000
    149      -1.7678      2.00000
    150      -1.7678      2.00000
    151      -1.7621      2.00000
    152      -1.7621      2.00000
    153      -1.4648      2.00000
    154      -1.2999      2.00000
    155      -1.2999      2.00000
    156      -1.2999      2.00000
    157      -1.0102      2.00000
    158      -1.0102      2.00000
    159      -0.8314      2.00000
    160      -0.8314      2.00000
    161      -0.8314      2.00000
    162      -0.7636      2.00000
    163      -0.7491      2.00000
    164      -0.7491      2.00000
    165      -0.7491      2.00000
    166      -0.5379      2.00000
    167      -0.5379      2.00000
    168      -0.5379      2.00000
    169      -0.3054      2.00000
    170       0.2984      2.00000
    171       0.2984      2.00000
    172       0.2984      2.00000
    173       0.5636      2.00000
    174       0.5636      2.00000
    175       0.6639      2.00000
    176       0.6639      2.00000
    177       0.6639      2.00000
    178       0.7673      2.00000
    179       0.7673      2.00000
    180       0.7673      2.00000
    181       0.9121      2.00000
    182       0.9121      2.00000
    183       0.9121      2.00000
    184       1.1029      2.00000
    185       1.1029      2.00000
    186       1.1029      2.00000
    187       1.1864      2.00000
    188       1.5350      2.00000
    189       1.5350      2.00000
    190       1.5350      2.00000
    191       1.6097      2.00000
    192       1.6097      2.00000
    193       1.6097      2.00000
    194       1.6731      2.00000
    195       1.6731      2.00000
    196       1.8753      2.00000
    197       2.0776      2.00000
    198       2.0776      2.00000
    199       2.0776      2.00000
    200       2.1175      2.00000
    201       2.1175      2.00000
    202       2.1175      2.00000
    203       2.2335      2.00000
    204       2.2335      2.00000
    205       2.3605      2.00000
    206       2.3605      2.00000
    207       2.3605      2.00000
    208       2.4187      2.00000
    209       2.5513      2.00000
    210       2.5562      2.00000
    211       2.5562      2.00000
    212       2.5562      2.00000
    213       2.7450      2.00000
    214       2.7450      2.00000
    215       2.7450      2.00000
    216       2.9045      2.00000
    217       2.9045      2.00000
    218       2.9046      2.00000
    219       3.0600      2.00000
    220       3.0600      2.00000
    221       3.0600      2.00000
    222       3.0820      2.00000
    223       3.0820      2.00000
    224       3.1337      2.00000
    225       3.1337      2.00000
    226       3.1337      2.00000
    227       3.2689      2.00000
    228       3.2689      2.00000
    229       3.3750      2.00000
    230       3.3750      2.00000
    231       3.3750      2.00000
    232       3.5309      2.00000
    233       3.5309      2.00000
    234       3.5309      2.00000
    235       3.7415      2.00000
    236       3.7415      2.00000
    237       3.7618      2.00000
    238       3.7618      2.00000
    239       3.7618      2.00000
    240       3.7888      2.00000
    241       3.8971      2.00000
    242       3.8971      2.00000
    243       3.8971      2.00000
    244       4.1316      2.00000
    245       4.1316      2.00000
    246       4.1451      2.00000
    247       4.1451      2.00000
    248       4.1451      2.00000
    249       6.4718      0.00000
    250       6.7592      0.00000
    251       6.7592      0.00000
    252       6.9687      0.00000
    253       6.9687      0.00000
    254       6.9687      0.00000
    255       7.1518      0.00000
    256       7.1636      0.00000
    257       7.1636      0.00000
    258       7.1636      0.00000
    259       7.2911      0.00000
    260       7.2911      0.00000
    261       7.2911      0.00000
    262       7.4009      0.00000
    263       7.7251      0.00000
    264       7.7251      0.00000
    265       7.7251      0.00000
    266       7.8719      0.00000
    267       7.8719      0.00000
    268       7.8719      0.00000
    269       8.5453      0.00000
    270       8.6589      0.00000
    271       8.6589      0.00000
    272       8.6589      0.00000
    273       9.1034      0.00000
    274       9.1034      0.00000
    275       9.1034      0.00000
    276       9.1675      0.00000
    277       9.1675      0.00000
    278       9.2533      0.00000
    279       9.3128      0.00000
    280       9.3128      0.00000
    281       9.3128      0.00000
    282       9.7206      0.00000
    283       9.7206      0.00000
    284       9.7206      0.00000
    285       9.8564      0.00000
    286      10.2652      0.00000
    287      10.2652      0.00000
    288      10.2652      0.00000
    289      10.3342      0.00000
    290      10.3342      0.00000
    291      10.5951      0.00000
    292      10.5951      0.00000
    293      10.5952      0.00000
    294      10.6718      0.00000
    295      10.6718      0.00000
    296      10.7125      0.00000
    297      10.7125      0.00000
    298      10.7129      0.00000
    299      10.8856      0.00000
    300      10.8928      0.00000
    301      10.9007      0.00000
    302      10.9313      0.00000
    303      10.9432      0.00000
    304      11.0441      0.00000

 k-point    18 :       0.5000    0.3333    0.3333
  band No.  band energies     occupation 
      1      -9.9469      2.00000
      2      -9.9469      2.00000
      3      -9.9365      2.00000
      4      -9.9365      2.00000
      5      -9.8353      2.00000
      6      -9.8353      2.00000
      7      -9.8209      2.00000
      8      -9.8209      2.00000
      9      -9.7984      2.00000
     10      -9.7984      2.00000
     11      -9.7842      2.00000
     12      -9.7842      2.00000
     13      -9.6662      2.00000
     14      -9.6662      2.00000
     15      -9.6556      2.00000
     16      -9.6556      2.00000
     17      -9.6304      2.00000
     18      -9.6304      2.00000
     19      -9.6042      2.00000
     20      -9.6042      2.00000
     21      -9.4778      2.00000
     22      -9.4778      2.00000
     23      -9.4713      2.00000
     24      -9.4713      2.00000
     25      -9.4573      2.00000
     26      -9.4573      2.00000
     27      -9.4568      2.00000
     28      -9.4568      2.00000
     29      -9.4514      2.00000
     30      -9.4514      2.00000
     31      -9.4473      2.00000
     32      -9.4473      2.00000
     33      -9.4125      2.00000
     34      -9.4125      2.00000
     35      -9.4110      2.00000
     36      -9.4110      2.00000
     37      -9.3728      2.00000
     38      -9.3728      2.00000
     39      -9.3646      2.00000
     40      -9.3646      2.00000
     41      -9.3407      2.00000
     42      -9.3407      2.00000
     43      -9.3404      2.00000
     44      -9.3404      2.00000
     45      -9.3395      2.00000
     46      -9.3395      2.00000
     47      -9.3377      2.00000
     48      -9.3377      2.00000
     49      -9.3367      2.00000
     50      -9.3367      2.00000
     51      -9.3332      2.00000
     52      -9.3332      2.00000
     53      -9.3234      2.00000
     54      -9.3234      2.00000
     55      -9.3182      2.00000
     56      -9.3182      2.00000
     57      -9.3174      2.00000
     58      -9.3174      2.00000
     59      -9.3165      2.00000
     60      -9.3165      2.00000
     61      -9.3064      2.00000
     62      -9.3064      2.00000
     63      -9.3062      2.00000
     64      -9.3062      2.00000
     65      -9.3041      2.00000
     66      -9.3041      2.00000
     67      -9.3032      2.00000
     68      -9.3032      2.00000
     69      -9.2815      2.00000
     70      -9.2815      2.00000
     71      -9.2784      2.00000
     72      -9.2784      2.00000
     73      -9.2751      2.00000
     74      -9.2751      2.00000
     75      -9.2712      2.00000
     76      -9.2712      2.00000
     77      -9.2454      2.00000
     78      -9.2454      2.00000
     79      -9.2419      2.00000
     80      -9.2419      2.00000
     81      -8.5752      2.00000
     82      -8.5752      2.00000
     83      -8.4544      2.00000
     84      -8.4544      2.00000
     85      -8.1607      2.00000
     86      -8.1607      2.00000
     87      -8.0738      2.00000
     88      -8.0738      2.00000
     89      -7.6053      2.00000
     90      -7.6053      2.00000
     91      -7.5747      2.00000
     92      -7.5747      2.00000
     93      -7.2373      2.00000
     94      -7.2373      2.00000
     95      -7.1771      2.00000
     96      -7.1771      2.00000
     97      -7.1431      2.00000
     98      -7.1431      2.00000
     99      -7.0932      2.00000
    100      -7.0932      2.00000
    101      -6.9170      2.00000
    102      -6.9170      2.00000
    103      -6.8996      2.00000
    104      -6.8996      2.00000
    105      -6.8822      2.00000
    106      -6.8822      2.00000
    107      -6.7879      2.00000
    108      -6.7879      2.00000
    109      -6.6743      2.00000
    110      -6.6743      2.00000
    111      -6.6426      2.00000
    112      -6.6426      2.00000
    113      -2.1442      2.00000
    114      -2.1442      2.00000
    115      -2.1343      2.00000
    116      -2.1343      2.00000
    117      -2.0656      2.00000
    118      -2.0656      2.00000
    119      -2.0356      2.00000
    120      -2.0356      2.00000
    121      -1.9628      2.00000
    122      -1.9628      2.00000
    123      -1.9546      2.00000
    124      -1.9546      2.00000
    125      -1.9314      2.00000
    126      -1.9314      2.00000
    127      -1.9264      2.00000
    128      -1.9264      2.00000
    129      -1.8696      2.00000
    130      -1.8696      2.00000
    131      -1.8691      2.00000
    132      -1.8691      2.00000
    133      -1.8605      2.00000
    134      -1.8605      2.00000
    135      -1.8586      2.00000
    136      -1.8586      2.00000
    137      -1.7865      2.00000
    138      -1.7865      2.00000
    139      -1.7839      2.00000
    140      -1.7839      2.00000
    141      -1.7828      2.00000
    142      -1.7828      2.00000
    143      -1.7805      2.00000
    144      -1.7805      2.00000
    145      -1.7687      2.00000
    146      -1.7687      2.00000
    147      -1.7677      2.00000
    148      -1.7677      2.00000
    149      -1.7648      2.00000
    150      -1.7648      2.00000
    151      -1.7645      2.00000
    152      -1.7645      2.00000
    153      -1.3828      2.00000
    154      -1.3828      2.00000
    155      -1.3116      2.00000
    156      -1.3116      2.00000
    157      -0.9147      2.00000
    158      -0.9147      2.00000
    159      -0.9077      2.00000
    160      -0.9077      2.00000
    161      -0.8593      2.00000
    162      -0.8593      2.00000
    163      -0.7297      2.00000
    164      -0.7297      2.00000
    165      -0.6635      2.00000
    166      -0.6635      2.00000
    167      -0.5502      2.00000
    168      -0.5502      2.00000
    169       0.0010      2.00000
    170       0.0010      2.00000
    171       0.5739      2.00000
    172       0.5739      2.00000
    173       0.5854      2.00000
    174       0.5854      2.00000
    175       0.6386      2.00000
    176       0.6386      2.00000
    177       0.6550      2.00000
    178       0.6550      2.00000
    179       0.7023      2.00000
    180       0.7023      2.00000
    181       0.7198      2.00000
    182       0.7198      2.00000
    183       1.0690      2.00000
    184       1.0690      2.00000
    185       1.0837      2.00000
    186       1.0837      2.00000
    187       1.4458      2.00000
    188       1.4458      2.00000
    189       1.4825      2.00000
    190       1.4825      2.00000
    191       1.6155      2.00000
    192       1.6155      2.00000
    193       1.7221      2.00000
    194       1.7221      2.00000
    195       1.7375      2.00000
    196       1.7375      2.00000
    197       2.0137      2.00000
    198       2.0137      2.00000
    199       2.1868      2.00000
    200       2.1868      2.00000
    201       2.1913      2.00000
    202       2.1913      2.00000
    203       2.2158      2.00000
    204       2.2158      2.00000
    205       2.2596      2.00000
    206       2.2596      2.00000
    207       2.3086      2.00000
    208       2.3086      2.00000
    209       2.5501      2.00000
    210       2.5501      2.00000
    211       2.5900      2.00000
    212       2.5900      2.00000
    213       2.7921      2.00000
    214       2.7921      2.00000
    215       2.8974      2.00000
    216       2.8974      2.00000
    217       2.8988      2.00000
    218       2.8988      2.00000
    219       2.9705      2.00000
    220       2.9705      2.00000
    221       3.0105      2.00000
    222       3.0105      2.00000
    223       3.0643      2.00000
    224       3.0643      2.00000
    225       3.1365      2.00000
    226       3.1365      2.00000
    227       3.2031      2.00000
    228       3.2031      2.00000
    229       3.4765      2.00000
    230       3.4765      2.00000
    231       3.5223      2.00000
    232       3.5223      2.00000
    233       3.6236      2.00000
    234       3.6236      2.00000
    235       3.6519      2.00000
    236       3.6519      2.00000
    237       3.7211      2.00000
    238       3.7211      2.00000
    239       3.7845      2.00000
    240       3.7845      2.00000
    241       3.9831      2.00000
    242       3.9831      2.00000
    243       4.0793      2.00000
    244       4.0793      2.00000
    245       4.1305      2.00000
    246       4.1305      2.00000
    247       4.1385      2.00000
    248       4.1385      2.00000
    249       6.6765      0.00000
    250       6.6765      0.00000
    251       6.9314      0.00000
    252       6.9314      0.00000
    253       6.9556      0.00000
    254       6.9556      0.00000
    255       7.0127      0.00000
    256       7.0127      0.00000
    257       7.2068      0.00000
    258       7.2068      0.00000
    259       7.2608      0.00000
    260       7.2608      0.00000
    261       7.4428      0.00000
    262       7.4428      0.00000
    263       7.5947      0.00000
    264       7.5947      0.00000
    265       7.7311      0.00000
    266       7.7311      0.00000
    267       7.8291      0.00000
    268       7.8291      0.00000
    269       8.5369      0.00000
    270       8.5369      0.00000
    271       8.5922      0.00000
    272       8.5922      0.00000
    273       9.0295      0.00000
    274       9.0295      0.00000
    275       9.0877      0.00000
    276       9.0877      0.00000
    277       9.1523      0.00000
    278       9.1523      0.00000
    279       9.1766      0.00000
    280       9.1766      0.00000
    281       9.4778      0.00000
    282       9.4778      0.00000
    283       9.7495      0.00000
    284       9.7495      0.00000
    285      10.1074      0.00000
    286      10.1074      0.00000
    287      10.4358      0.00000
    288      10.4358      0.00000
    289      10.5818      0.00000
    290      10.5819      0.00000
    291      10.6204      0.00000
    292      10.6205      0.00000
    293      10.6809      0.00000
    294      10.6817      0.00000
    295      10.7089      0.00000
    296      10.7097      0.00000
    297      10.7388      0.00000
    298      10.7395      0.00000
    299      10.8139      0.00000
    300      10.8204      0.00000
    301      10.8731      0.00000
    302      10.8766      0.00000
    303      10.9744      0.00000
    304      10.9892      0.00000

 k-point    19 :       0.5000    0.5000    0.3333
  band No.  band energies     occupation 
      1      -9.9472      2.00000
      2      -9.9472      2.00000
      3      -9.9472      2.00000
      4      -9.9472      2.00000
      5      -9.8130      2.00000
      6      -9.8130      2.00000
      7      -9.8130      2.00000
      8      -9.8130      2.00000
      9      -9.7952      2.00000
     10      -9.7952      2.00000
     11      -9.7952      2.00000
     12      -9.7952      2.00000
     13      -9.6566      2.00000
     14      -9.6566      2.00000
     15      -9.6566      2.00000
     16      -9.6566      2.00000
     17      -9.6350      2.00000
     18      -9.6350      2.00000
     19      -9.6350      2.00000
     20      -9.6350      2.00000
     21      -9.4648      2.00000
     22      -9.4648      2.00000
     23      -9.4648      2.00000
     24      -9.4648      2.00000
     25      -9.4603      2.00000
     26      -9.4603      2.00000
     27      -9.4603      2.00000
     28      -9.4603      2.00000
     29      -9.4487      2.00000
     30      -9.4487      2.00000
     31      -9.4487      2.00000
     32      -9.4487      2.00000
     33      -9.4110      2.00000
     34      -9.4110      2.00000
     35      -9.4110      2.00000
     36      -9.4110      2.00000
     37      -9.3676      2.00000
     38      -9.3676      2.00000
     39      -9.3676      2.00000
     40      -9.3676      2.00000
     41      -9.3398      2.00000
     42      -9.3398      2.00000
     43      -9.3398      2.00000
     44      -9.3398      2.00000
     45      -9.3390      2.00000
     46      -9.3390      2.00000
     47      -9.3390      2.00000
     48      -9.3390      2.00000
     49      -9.3356      2.00000
     50      -9.3356      2.00000
     51      -9.3356      2.00000
     52      -9.3356      2.00000
     53      -9.3191      2.00000
     54      -9.3191      2.00000
     55      -9.3191      2.00000
     56      -9.3191      2.00000
     57      -9.3157      2.00000
     58      -9.3157      2.00000
     59      -9.3157      2.00000
     60      -9.3157      2.00000
     61      -9.3064      2.00000
     62      -9.3064      2.00000
     63      -9.3064      2.00000
     64      -9.3064      2.00000
     65      -9.3054      2.00000
     66      -9.3054      2.00000
     67      -9.3054      2.00000
     68      -9.3054      2.00000
     69      -9.2794      2.00000
     70      -9.2794      2.00000
     71      -9.2794      2.00000
     72      -9.2794      2.00000
     73      -9.2757      2.00000
     74      -9.2757      2.00000
     75      -9.2757      2.00000
     76      -9.2757      2.00000
     77      -9.2419      2.00000
     78      -9.2419      2.00000
     79      -9.2419      2.00000
     80      -9.2419      2.00000
     81      -8.5112      2.00000
     82      -8.5112      2.00000
     83      -8.5112      2.00000
     84      -8.5112      2.00000
     85      -8.1524      2.00000
     86      -8.1524      2.00000
     87      -8.1524      2.00000
     88      -8.1524      2.00000
     89      -7.5743      2.00000
     90      -7.5743      2.00000
     91      -7.5743      2.00000
     92      -7.5743      2.00000
     93      -7.1692      2.00000
     94      -7.1692      2.00000
     95      -7.1692      2.00000
     96      -7.1692      2.00000
     97      -7.0657      2.00000
     98      -7.0657      2.00000
     99      -7.0657      2.00000
    100      -7.0657      2.00000
    101      -6.9591      2.00000
    102      -6.9591      2.00000
    103      -6.9591      2.00000
    104      -6.9591      2.00000
    105      -6.8624      2.00000
    106      -6.8624      2.00000
    107      -6.8624      2.00000
    108      -6.8624      2.00000
    109      -6.6580      2.00000
    110      -6.6580      2.00000
    111      -6.6580      2.00000
    112      -6.6580      2.00000
    113      -2.1406      2.00000
    114      -2.1406      2.00000
    115      -2.1406      2.00000
    116      -2.1406      2.00000
    117      -2.0418      2.00000
    118      -2.0418      2.00000
    119      -2.0418      2.00000
    120      -2.0418      2.00000
    121      -1.9577      2.00000
    122      -1.9577      2.00000
    123      -1.9577      2.00000
    124      -1.9577      2.00000
    125      -1.9400      2.00000
    126      -1.9400      2.00000
    127      -1.9400      2.00000
    128      -1.9400      2.00000
    129      -1.8684      2.00000
    130      -1.8684      2.00000
    131      -1.8683      2.00000
    132      -1.8683      2.00000
    133      -1.8681      2.00000
    134      -1.8681      2.00000
    135      -1.8681      2.00000
    136      -1.8681      2.00000
    137      -1.7820      2.00000
    138      -1.7820      2.00000
    139      -1.7820      2.00000
    140      -1.7820      2.00000
    141      -1.7796      2.00000
    142      -1.7796      2.00000
    143      -1.7796      2.00000
    144      -1.7796      2.00000
    145      -1.7666      2.00000
    146      -1.7666      2.00000
    147      -1.7666      2.00000
    148      -1.7666      2.00000
    149      -1.7658      2.00000
    150      -1.7658      2.00000
    151      -1.7658      2.00000
    152      -1.7658      2.00000
    153      -1.3435      2.00000
    154      -1.3435      2.00000
    155      -1.3435      2.00000
    156      -1.3435      2.00000
    157      -0.8996      2.00000
    158      -0.8996      2.00000
    159      -0.8996      2.00000
    160      -0.8996      2.00000
    161      -0.8290      2.00000
    162      -0.8290      2.00000
    163      -0.8290      2.00000
    164      -0.8290      2.00000
    165      -0.6177      2.00000
    166      -0.6177      2.00000
    167      -0.6177      2.00000
    168      -0.6177      2.00000
    169       0.3283      2.00000
    170       0.3283      2.00000
    171       0.3283      2.00000
    172       0.3283      2.00000
    173       0.6077      2.00000
    174       0.6077      2.00000
    175       0.6077      2.00000
    176       0.6077      2.00000
    177       0.6108      2.00000
    178       0.6108      2.00000
    179       0.6108      2.00000
    180       0.6108      2.00000
    181       1.0063      2.00000
    182       1.0063      2.00000
    183       1.0063      2.00000
    184       1.0063      2.00000
    185       1.1378      2.00000
    186       1.1378      2.00000
    187       1.1378      2.00000
    188       1.1378      2.00000
    189       1.6112      2.00000
    190       1.6112      2.00000
    191       1.6112      2.00000
    192       1.6112      2.00000
    193       1.7942      2.00000
    194       1.7942      2.00000
    195       1.7942      2.00000
    196       1.7942      2.00000
    197       2.0729      2.00000
    198       2.0729      2.00000
    199       2.0729      2.00000
    200       2.0729      2.00000
    201       2.1509      2.00000
    202       2.1509      2.00000
    203       2.1509      2.00000
    204       2.1509      2.00000
    205       2.2778      2.00000
    206       2.2778      2.00000
    207       2.2778      2.00000
    208       2.2778      2.00000
    209       2.5734      2.00000
    210       2.5734      2.00000
    211       2.5734      2.00000
    212       2.5734      2.00000
    213       2.8778      2.00000
    214       2.8778      2.00000
    215       2.8778      2.00000
    216       2.8778      2.00000
    217       2.8954      2.00000
    218       2.8954      2.00000
    219       2.8954      2.00000
    220       2.8954      2.00000
    221       3.0675      2.00000
    222       3.0675      2.00000
    223       3.0675      2.00000
    224       3.0675      2.00000
    225       3.0725      2.00000
    226       3.0725      2.00000
    227       3.0725      2.00000
    228       3.0725      2.00000
    229       3.6147      2.00000
    230       3.6147      2.00000
    231       3.6147      2.00000
    232       3.6147      2.00000
    233       3.6400      2.00000
    234       3.6400      2.00000
    235       3.6400      2.00000
    236       3.6400      2.00000
    237       3.7476      2.00000
    238       3.7476      2.00000
    239       3.7476      2.00000
    240       3.7476      2.00000
    241       4.0685      2.00000
    242       4.0685      2.00000
    243       4.0685      2.00000
    244       4.0685      2.00000
    245       4.1526      2.00000
    246       4.1526      2.00000
    247       4.1526      2.00000
    248       4.1526      2.00000
    249       6.7606      0.00000
    250       6.7606      0.00000
    251       6.7606      0.00000
    252       6.7606      0.00000
    253       7.1032      0.00000
    254       7.1032      0.00000
    255       7.1032      0.00000
    256       7.1032      0.00000
    257       7.1170      0.00000
    258       7.1170      0.00000
    259       7.1170      0.00000
    260       7.1170      0.00000
    261       7.5580      0.00000
    262       7.5580      0.00000
    263       7.5580      0.00000
    264       7.5580      0.00000
    265       7.6888      0.00000
    266       7.6888      0.00000
    267       7.6888      0.00000
    268       7.6888      0.00000
    269       8.4890      0.00000
    270       8.4890      0.00000
    271       8.4890      0.00000
    272       8.4890      0.00000
    273       8.9923      0.00000
    274       8.9923      0.00000
    275       8.9923      0.00000
    276       8.9923      0.00000
    277       9.0379      0.00000
    278       9.0379      0.00000
    279       9.0379      0.00000
    280       9.0379      0.00000
    281       9.6235      0.00000
    282       9.6235      0.00000
    283       9.6235      0.00000
    284       9.6235      0.00000
    285      10.4245      0.00000
    286      10.4245      0.00000
    287      10.4245      0.00000
    288      10.4245      0.00000
    289      10.6353      0.00000
    290      10.6353      0.00000
    291      10.6354      0.00000
    292      10.6355      0.00000
    293      10.7838      0.00000
    294      10.7841      0.00000
    295      10.7848      0.00000
    296      10.7883      0.00000
    297      10.8879      0.00000
    298      10.8893      0.00000
    299      10.8927      0.00000
    300      10.8995      0.00000
    301      10.9242      0.00000
    302      10.9299      0.00000
    303      10.9460      0.00000
    304      11.0194      0.00000

 k-point    20 :       0.5000    0.5000    0.5000
  band No.  band energies     occupation 
      1      -9.9526      2.00000
      2      -9.9526      2.00000
      3      -9.9526      2.00000
      4      -9.9526      2.00000
      5      -9.7955      2.00000
      6      -9.7955      2.00000
      7      -9.7955      2.00000
      8      -9.7955      2.00000
      9      -9.7955      2.00000
     10      -9.7955      2.00000
     11      -9.7955      2.00000
     12      -9.7955      2.00000
     13      -9.6557      2.00000
     14      -9.6557      2.00000
     15      -9.6557      2.00000
     16      -9.6557      2.00000
     17      -9.6557      2.00000
     18      -9.6557      2.00000
     19      -9.6557      2.00000
     20      -9.6557      2.00000
     21      -9.4645      2.00000
     22      -9.4645      2.00000
     23      -9.4645      2.00000
     24      -9.4645      2.00000
     25      -9.4505      2.00000
     26      -9.4505      2.00000
     27      -9.4505      2.00000
     28      -9.4505      2.00000
     29      -9.4505      2.00000
     30      -9.4505      2.00000
     31      -9.4505      2.00000
     32      -9.4505      2.00000
     33      -9.4103      2.00000
     34      -9.4103      2.00000
     35      -9.4103      2.00000
     36      -9.4103      2.00000
     37      -9.3668      2.00000
     38      -9.3668      2.00000
     39      -9.3668      2.00000
     40      -9.3668      2.00000
     41      -9.3394      2.00000
     42      -9.3394      2.00000
     43      -9.3394      2.00000
     44      -9.3394      2.00000
     45      -9.3394      2.00000
     46      -9.3394      2.00000
     47      -9.3394      2.00000
     48      -9.3394      2.00000
     49      -9.3359      2.00000
     50      -9.3359      2.00000
     51      -9.3359      2.00000
     52      -9.3359      2.00000
     53      -9.3148      2.00000
     54      -9.3148      2.00000
     55      -9.3148      2.00000
     56      -9.3148      2.00000
     57      -9.3148      2.00000
     58      -9.3148      2.00000
     59      -9.3148      2.00000
     60      -9.3148      2.00000
     61      -9.3077      2.00000
     62      -9.3077      2.00000
     63      -9.3077      2.00000
     64      -9.3077      2.00000
     65      -9.3077      2.00000
     66      -9.3077      2.00000
     67      -9.3077      2.00000
     68      -9.3077      2.00000
     69      -9.2786      2.00000
     70      -9.2786      2.00000
     71      -9.2786      2.00000
     72      -9.2786      2.00000
     73      -9.2786      2.00000
     74      -9.2786      2.00000
     75      -9.2786      2.00000
     76      -9.2786      2.00000
     77      -9.2400      2.00000
     78      -9.2400      2.00000
     79      -9.2400      2.00000
     80      -9.2400      2.00000
     81      -8.4940      2.00000
     82      -8.4940      2.00000
     83      -8.4940      2.00000
     84      -8.4940      2.00000
     85      -8.2036      2.00000
     86      -8.2036      2.00000
     87      -8.2036      2.00000
     88      -8.2036      2.00000
     89      -7.5517      2.00000
     90      -7.5517      2.00000
     91      -7.5517      2.00000
     92      -7.5517      2.00000
     93      -7.0673      2.00000
     94      -7.0673      2.00000
     95      -7.0673      2.00000
     96      -7.0673      2.00000
     97      -7.0673      2.00000
     98      -7.0673      2.00000
     99      -7.0673      2.00000
    100      -7.0673      2.00000
    101      -6.9575      2.00000
    102      -6.9575      2.00000
    103      -6.9575      2.00000
    104      -6.9575      2.00000
    105      -6.9575      2.00000
    106      -6.9575      2.00000
    107      -6.9575      2.00000
    108      -6.9575      2.00000
    109      -6.6568      2.00000
    110      -6.6568      2.00000
    111      -6.6568      2.00000
    112      -6.6568      2.00000
    113      -2.1413      2.00000
    114      -2.1413      2.00000
    115      -2.1413      2.00000
    116      -2.1413      2.00000
    117      -2.0279      2.00000
    118      -2.0279      2.00000
    119      -2.0279      2.00000
    120      -2.0279      2.00000
    121      -1.9547      2.00000
    122      -1.9547      2.00000
    123      -1.9547      2.00000
    124      -1.9547      2.00000
    125      -1.9547      2.00000
    126      -1.9547      2.00000
    127      -1.9547      2.00000
    128      -1.9547      2.00000
    129      -1.8766      2.00000
    130      -1.8766      2.00000
    131      -1.8766      2.00000
    132      -1.8766      2.00000
    133      -1.8766      2.00000
    134      -1.8766      2.00000
    135      -1.8766      2.00000
    136      -1.8766      2.00000
    137      -1.7778      2.00000
    138      -1.7778      2.00000
    139      -1.7778      2.00000
    140      -1.7778      2.00000
    141      -1.7778      2.00000
    142      -1.7778      2.00000
    143      -1.7778      2.00000
    144      -1.7778      2.00000
    145      -1.7660      2.00000
    146      -1.7660      2.00000
    147      -1.7659      2.00000
    148      -1.7659      2.00000
    149      -1.7659      2.00000
    150      -1.7659      2.00000
    151      -1.7659      2.00000
    152      -1.7659      2.00000
    153      -1.3223      2.00000
    154      -1.3223      2.00000
    155      -1.3223      2.00000
    156      -1.3223      2.00000
    157      -0.8808      2.00000
    158      -0.8808      2.00000
    159      -0.8808      2.00000
    160      -0.8808      2.00000
    161      -0.8808      2.00000
    162      -0.8808      2.00000
    163      -0.8808      2.00000
    164      -0.8808      2.00000
    165      -0.6298      2.00000
    166      -0.6298      2.00000
    167      -0.6298      2.00000
    168      -0.6298      2.00000
    169       0.5700      2.00000
    170       0.5700      2.00000
    171       0.5700      2.00000
    172       0.5700      2.00000
    173       0.5700      2.00000
    174       0.5700      2.00000
    175       0.5700      2.00000
    176       0.5700      2.00000
    177       0.6497      2.00000
    178       0.6497      2.00000
    179       0.6497      2.00000
    180       0.6497      2.00000
    181       0.7408      2.00000
    182       0.7408      2.00000
    183       0.7408      2.00000
    184       0.7408      2.00000
    185       1.1146      2.00000
    186       1.1146      2.00000
    187       1.1146      2.00000
    188       1.1146      2.00000
    189       1.7964      2.00000
    190       1.7964      2.00000
    191       1.7964      2.00000
    192       1.7964      2.00000
    193       1.7964      2.00000
    194       1.7964      2.00000
    195       1.7964      2.00000
    196       1.7964      2.00000
    197       1.9996      2.00000
    198       1.9996      2.00000
    199       1.9996      2.00000
    200       1.9996      2.00000
    201       2.1603      2.00000
    202       2.1603      2.00000
    203       2.1603      2.00000
    204       2.1603      2.00000
    205       2.1603      2.00000
    206       2.1603      2.00000
    207       2.1603      2.00000
    208       2.1603      2.00000
    209       2.6216      2.00000
    210       2.6216      2.00000
    211       2.6216      2.00000
    212       2.6216      2.00000
    213       2.8821      2.00000
    214       2.8821      2.00000
    215       2.8821      2.00000
    216       2.8821      2.00000
    217       2.8821      2.00000
    218       2.8821      2.00000
    219       2.8821      2.00000
    220       2.8821      2.00000
    221       3.0285      2.00000
    222       3.0285      2.00000
    223       3.0285      2.00000
    224       3.0285      2.00000
    225       3.0285      2.00000
    226       3.0285      2.00000
    227       3.0285      2.00000
    228       3.0285      2.00000
    229       3.6809      2.00000
    230       3.6809      2.00000
    231       3.6809      2.00000
    232       3.6809      2.00000
    233       3.7246      2.00000
    234       3.7246      2.00000
    235       3.7246      2.00000
    236       3.7246      2.00000
    237       3.7246      2.00000
    238       3.7246      2.00000
    239       3.7246      2.00000
    240       3.7246      2.00000
    241       4.1431      2.00000
    242       4.1431      2.00000
    243       4.1431      2.00000
    244       4.1431      2.00000
    245       4.1431      2.00000
    246       4.1431      2.00000
    247       4.1431      2.00000
    248       4.1431      2.00000
    249       6.7169      0.00000
    250       6.7169      0.00000
    251       6.7169      0.00000
    252       6.7169      0.00000
    253       7.1165      0.00000
    254       7.1165      0.00000
    255       7.1165      0.00000
    256       7.1165      0.00000
    257       7.1165      0.00000
    258       7.1165      0.00000
    259       7.1165      0.00000
    260       7.1165      0.00000
    261       7.4851      0.00000
    262       7.4851      0.00000
    263       7.4851      0.00000
    264       7.4851      0.00000
    265       7.6944      0.00000
    266       7.6944      0.00000
    267       7.6944      0.00000
    268       7.6944      0.00000
    269       8.4052      0.00000
    270       8.4052      0.00000
    271       8.4052      0.00000
    272       8.4052      0.00000
    273       8.9062      0.00000
    274       8.9062      0.00000
    275       8.9062      0.00000
    276       8.9062      0.00000
    277       8.9062      0.00000
    278       8.9062      0.00000
    279       8.9062      0.00000
    280       8.9062      0.00000
    281       9.6463      0.00000
    282       9.6463      0.00000
    283       9.6463      0.00000
    284       9.6463      0.00000
    285      10.7001      0.00000
    286      10.7005      0.00000
    287      10.7011      0.00000
    288      10.7033      0.00000
    289      10.7859      0.00000
    290      10.7859      0.00000
    291      10.7859      0.00000
    292      10.7859      0.00000
    293      10.7870      0.00000
    294      10.7880      0.00000
    295      10.7914      0.00000
    296      10.8000      0.00000
    297      10.9083      0.00000
    298      10.9217      0.00000
    299      10.9333      0.00000
    300      10.9422      0.00000
    301      10.9725      0.00000
    302      10.9725      0.00000
    303      10.9725      0.00000
    304      10.9726      0.00000


--------------------------------------------------------------------------------------------------------


 soft charge-density along one line, spin component           1
         0         1         2         3         4         5         6         7         8         9
 total charge-density along one line
 
 pseudopotential strength for first ion, spin component:           1
 39.447  45.302   0.000   0.000   0.000   0.000   0.000   0.000
 45.302  52.028   0.000   0.000   0.000   0.001   0.001   0.001
  0.000   0.000   8.248   0.003   0.003  11.180   0.004   0.004
  0.000   0.000   0.003   8.248   0.003   0.004  11.180   0.004
  0.000   0.000   0.003   0.003   8.248   0.004   0.004  11.180
  0.000   0.001  11.180   0.004   0.004  15.175   0.005   0.005
  0.000   0.001   0.004  11.180   0.004   0.005  15.175   0.005
  0.000   0.001   0.004   0.004  11.180   0.005   0.005  15.175
 total augmentation occupancy for first ion, spin component:           1
 11.148  -7.018  -0.355  -0.355  -0.355   0.204   0.204   0.204
 -7.018   5.179   0.309   0.309   0.309  -0.172  -0.172  -0.172
 -0.355   0.309   3.587   0.210   0.210  -1.006  -0.128  -0.128
 -0.355   0.309   0.210   3.587   0.210  -0.128  -1.006  -0.128
 -0.355   0.309   0.210   0.210   3.587  -0.128  -0.128  -1.006
  0.204  -0.172  -1.006  -0.128  -0.128   0.338   0.057   0.057
  0.204  -0.172  -0.128  -1.006  -0.128   0.057   0.338   0.057
  0.204  -0.172  -0.128  -0.128  -1.006   0.057   0.057   0.338


------------------------ aborting loop because EDIFF is reached ----------------------------------------


    CHARGE:  cpu time   10.7317: real time   10.7624
    FORLOC:  cpu time    0.5123: real time    0.5136
    FORNL :  cpu time  424.0941: real time  425.1991
    STRESS:  cpu time  431.1020: real time  432.1948
    FORCOR:  cpu time    1.2757: real time    1.2790
    FORHAR:  cpu time    0.6386: real time    0.6401
    MIXING:  cpu time    0.0335: real time    0.0335
    OFIELD:  cpu time    0.0000: real time    0.0000

 ---------------------------------------------------------------------------------------------

         DFTD3 V3.0 Rev 1        
 IVDW         = 12
 DF pbe       
 parameters
 VDW_S6       =    1.0000
 VDW_S8       =    0.7875
 VDW_A1       =    0.4289
 VDW_A2       =    4.4407
 k1-k3        =   16.0000    1.3333   -4.0000
 VDW_RADIUS   =   50.2022 A
 VDW_CNRADIUS =   21.1671 A
 Edisp (eV)  -17.95173

 E6    (eV) :   -10.4772
 E8    (eV) :    -7.4745
 % E8        : 41.64
    FORVDW:  cpu time    0.5769: real time    0.5848

  FORCE on cell =-STRESS in cart. coord.  units (eV):
  Direction    XX          YY          ZZ          XY          YZ          ZX
  --------------------------------------------------------------------------------------
  Alpha Z  1238.99021  1238.99021  1238.99021
  Ewald  -11150.50169-11150.50169-11150.50169    -0.00000     0.00000     0.00000
  Hartree  4891.39245  4891.39245  4891.39245    -0.00000    -0.00000    -0.00000
  E(xc)   -2319.65302 -2319.65302 -2319.65302    -0.00000     0.00000     0.00000
  Local   -2386.74625 -2386.74625 -2386.74625    -0.00000    -0.00000     0.00000
  n-local  2634.22065  2636.94845  2636.47546    -1.67327    -1.43096    -0.87978
  augment  2333.88871  2333.88871  2333.88874     0.00000     0.00001     0.00001
  Kinetic  4774.57124  4778.74133  4775.43530    -2.63054    -2.29193    -1.39464
  Fock        0.00000     0.00000     0.00000     0.00000     0.00000     0.00000
  vdW       -19.42828   -19.42828   -19.42828    -0.00000    -0.00000    -0.00000
  -------------------------------------------------------------------------------------
  Total       0.07295     0.07295     0.07295    -0.00000     0.00000    -0.00000
  in kB       0.09765     0.09765     0.09765    -0.00000     0.00000    -0.00000
  external pressure =        0.10 kB  Pullay stress =        0.00 kB


 VOLUME and BASIS-vectors are now :
 -----------------------------------------------------------------------------
  energy-cutoff  :      500.00
  volume of cell :     1196.92
      direct lattice vectors                 reciprocal lattice vectors
    10.617497448  0.000000000  0.000000000     0.094184153  0.000000000  0.000000000
     0.000000000 10.617497448  0.000000000     0.000000000  0.094184153  0.000000000
     0.000000000  0.000000000 10.617497448     0.000000000  0.000000000  0.094184153

  length of vectors
    10.617497448 10.617497448 10.617497448     0.094184153  0.094184153  0.094184153


 FORCES acting on ions
    electron-ion (+dipol)            ewald-force                    non-local-force                 convergence-correction
 -----------------------------------------------------------------------------------------------
   -.391E+02 -.391E+02 -.391E+02   0.385E+02 0.385E+02 0.385E+02   0.609E+00 0.609E+00 0.609E+00   0.216E-04 0.216E-04 0.216E-04
   0.391E+02 0.391E+02 -.391E+02   -.385E+02 -.385E+02 0.385E+02   -.609E+00 -.609E+00 0.609E+00   -.215E-04 -.216E-04 0.215E-04
   0.391E+02 -.391E+02 0.391E+02   -.385E+02 0.385E+02 -.385E+02   -.609E+00 0.609E+00 -.609E+00   -.216E-04 0.215E-04 -.215E-04
   -.391E+02 0.391E+02 0.391E+02   0.385E+02 -.385E+02 -.385E+02   0.609E+00 -.609E+00 -.609E+00   0.215E-04 -.215E-04 -.216E-04
   -.391E+02 -.391E+02 0.391E+02   0.385E+02 0.385E+02 -.385E+02   0.609E+00 0.609E+00 -.609E+00   0.214E-04 0.216E-04 -.214E-04
   0.391E+02 0.391E+02 0.391E+02   -.385E+02 -.385E+02 -.385E+02   -.609E+00 -.609E+00 -.609E+00   -.216E-04 -.216E-04 -.216E-04
   -.391E+02 0.391E+02 -.391E+02   0.385E+02 -.385E+02 0.385E+02   0.609E+00 -.609E+00 0.609E+00   0.216E-04 -.214E-04 0.214E-04
   0.391E+02 -.391E+02 -.391E+02   -.385E+02 0.385E+02 0.385E+02   -.609E+00 0.609E+00 0.609E+00   -.214E-04 0.214E-04 0.216E-04
   -.391E+02 -.391E+02 0.391E+02   0.385E+02 0.385E+02 -.385E+02   0.609E+00 0.609E+00 -.609E+00   0.216E-04 0.214E-04 -.214E-04
   -.391E+02 0.391E+02 -.391E+02   0.385E+02 -.385E+02 0.385E+02   0.609E+00 -.609E+00 0.609E+00   0.214E-04 -.214E-04 0.216E-04
   0.391E+02 -.391E+02 -.391E+02   -.385E+02 0.385E+02 0.385E+02   -.609E+00 0.609E+00 0.609E+00   -.214E-04 0.216E-04 0.214E-04
   0.391E+02 0.391E+02 -.391E+02   -.385E+02 -.385E+02 0.385E+02   -.609E+00 -.609E+00 0.609E+00   -.216E-04 -.215E-04 0.215E-04
   0.391E+02 -.391E+02 0.391E+02   -.385E+02 0.385E+02 -.385E+02   -.609E+00 0.609E+00 -.609E+00   -.215E-04 0.215E-04 -.216E-04
   -.391E+02 0.391E+02 0.391E+02   0.385E+02 -.385E+02 -.385E+02   0.609E+00 -.609E+00 -.609E+00   0.215E-04 -.216E-04 -.215E-04
   -.391E+02 -.391E+02 -.391E+02   0.385E+02 0.385E+02 0.385E+02   0.609E+00 0.609E+00 0.609E+00   0.216E-04 0.215E-04 0.215E-04
   0.391E+02 0.391E+02 -.391E+02   -.385E+02 -.385E+02 0.385E+02   -.609E+00 -.609E+00 0.609E+00   -.215E-04 -.215E-04 0.216E-04
   0.391E+02 -.391E+02 0.391E+02   -.385E+02 0.385E+02 -.385E+02   -.609E+00 0.609E+00 -.609E+00   -.216E-04 0.216E-04 -.216E-04
   -.391E+02 -.391E+02 0.391E+02   0.385E+02 0.385E+02 -.385E+02   0.609E+00 0.609E+00 -.609E+00   0.214E-04 0.214E-04 -.216E-04
   0.391E+02 0.391E+02 0.391E+02   -.385E+02 -.385E+02 -.385E+02   -.609E+00 -.609E+00 -.609E+00   -.216E-04 -.214E-04 -.214E-04
   -.391E+02 0.391E+02 -.391E+02   0.385E+02 -.385E+02 0.385E+02   0.609E+00 -.609E+00 0.609E+00   0.216E-04 -.216E-04 0.216E-04
   -.391E+02 -.391E+02 0.391E+02   0.385E+02 0.385E+02 -.385E+02   0.609E+00 0.609E+00 -.609E+00   0.216E-04 0.216E-04 -.216E-04
   -.391E+02 0.391E+02 -.391E+02   0.385E+02 -.385E+02 0.385E+02   0.609E+00 -.609E+00 0.609E+00   0.214E-04 -.216E-04 0.214E-04
   0.391E+02 0.391E+02 -.391E+02   -.385E+02 -.385E+02 0.385E+02   -.609E+00 -.609E+00 0.609E+00   -.216E-04 -.216E-04 0.216E-04
   0.391E+02 -.391E+02 0.391E+02   -.385E+02 0.385E+02 -.385E+02   -.609E+00 0.609E+00 -.609E+00   -.215E-04 0.216E-04 -.215E-04
   -.391E+02 -.391E+02 -.391E+02   0.385E+02 0.385E+02 0.385E+02   0.609E+00 0.609E+00 0.609E+00   0.215E-04 0.216E-04 0.215E-04
   -.391E+02 0.391E+02 0.391E+02   0.385E+02 -.385E+02 -.385E+02   0.609E+00 -.609E+00 -.609E+00   0.216E-04 -.215E-04 -.215E-04
   0.391E+02 0.391E+02 0.391E+02   -.385E+02 -.385E+02 -.385E+02   -.609E+00 -.609E+00 -.609E+00   -.214E-04 -.216E-04 -.214E-04
   0.391E+02 -.391E+02 -.391E+02   -.385E+02 0.385E+02 0.385E+02   -.609E+00 0.609E+00 0.609E+00   -.216E-04 0.214E-04 0.214E-04
   0.391E+02 -.391E+02 -.391E+02   -.385E+02 0.385E+02 0.385E+02   -.609E+00 0.609E+00 0.609E+00   -.216E-04 0.216E-04 0.216E-04
   -.391E+02 0.391E+02 0.391E+02   0.385E+02 -.385E+02 -.385E+02   0.609E+00 -.609E+00 -.609E+00   0.216E-04 -.216E-04 -.216E-04
   -.391E+02 -.391E+02 -.391E+02   0.385E+02 0.385E+02 0.385E+02   0.609E+00 0.609E+00 0.609E+00   0.215E-04 0.215E-04 0.216E-04
   0.391E+02 0.391E+02 0.391E+02   -.385E+02 -.385E+02 -.385E+02   -.609E+00 -.609E+00 -.609E+00   -.214E-04 -.214E-04 -.216E-04
   -.258E-05 -.258E-05 -.260E-05   -.189E-04 -.189E-04 -.189E-04   -.163E-18 -.206E-17 -.732E-18   0.194E-06 0.194E-06 0.194E-06
   -.258E-05 0.261E-05 0.260E-05   -.189E-04 0.189E-04 0.189E-04   0.146E-17 0.187E-17 -.108E-17   0.194E-06 -.194E-06 -.194E-06
   0.261E-05 0.261E-05 -.260E-05   0.189E-04 0.189E-04 -.189E-04   0.488E-18 -.163E-17 0.407E-18   -.194E-06 -.194E-06 0.194E-06
   0.261E-05 -.258E-05 0.260E-05   0.189E-04 -.189E-04 0.189E-04   0.136E-17 0.122E-17 -.542E-19   -.194E-06 0.194E-06 -.194E-06
   -.144E-07 -.144E-07 0.133E-09   -.142E-13 -.426E-13 0.604E-13   -.130E-17 -.230E-17 0.407E-18   -.357E-13 -.252E-12 0.271E-12
   -.144E-07 -.144E-07 0.143E-09   -.711E-14 0.711E-14 0.568E-13   -.922E-18 0.154E-17 -.271E-19   0.172E-12 -.243E-12 -.652E-12
   -.144E-07 -.144E-07 0.130E-09   -.568E-13 0.000E+00 0.178E-13   -.173E-17 -.786E-18 0.569E-18   0.110E-12 0.327E-12 0.460E-12
   -.144E-07 -.144E-07 0.131E-09   -.195E-13 -.213E-13 0.107E-13   0.125E-17 0.127E-17 0.515E-18   -.190E-13 0.210E-12 -.713E-12
   -.587E-05 -.587E-05 -.587E-05   -.428E-04 -.428E-04 -.428E-04   -.165E-23 -.827E-24 0.662E-23   -.129E-06 -.129E-06 -.129E-06
   -.560E-05 0.533E-05 0.560E-05   -.408E-04 0.388E-04 0.408E-04   -.662E-23 -.116E-22 -.124E-22   -.131E-06 0.133E-06 0.131E-06
   0.533E-05 0.560E-05 -.560E-05   0.388E-04 0.408E-04 -.408E-04   -.159E-22 -.496E-23 0.136E-22   0.133E-06 0.131E-06 -.131E-06
   0.560E-05 -.560E-05 0.533E-05   0.408E-04 -.408E-04 0.388E-04   0.579E-23 -.414E-23 -.579E-23   0.131E-06 -.131E-06 0.133E-06
   0.533E-05 -.560E-05 0.560E-05   0.388E-04 -.408E-04 0.408E-04   -.827E-23 -.149E-22 -.248E-23   0.133E-06 -.131E-06 0.131E-06
   -.560E-05 0.560E-05 0.533E-05   -.408E-04 0.408E-04 0.388E-04   -.120E-22 0.910E-23 0.744E-23   -.131E-06 0.131E-06 0.133E-06
   0.560E-05 0.533E-05 -.560E-05   0.408E-04 0.388E-04 -.408E-04   0.116E-22 -.993E-23 -.149E-22   0.131E-06 0.133E-06 -.131E-06
   -.533E-05 0.560E-05 0.560E-05   -.388E-04 0.408E-04 0.408E-04   0.132E-22 0.161E-22 -.248E-23   -.133E-06 0.131E-06 0.131E-06
   -.560E-05 -.560E-05 -.533E-05   -.408E-04 -.408E-04 -.388E-04   -.248E-23 -.383E-23 0.827E-23   -.131E-06 -.131E-06 -.133E-06
   0.587E-05 -.587E-05 0.587E-05   0.428E-04 -.428E-04 0.428E-04   -.662E-23 -.827E-23 0.744E-23   0.129E-06 -.129E-06 0.129E-06
   0.587E-05 0.587E-05 -.587E-05   0.428E-04 0.428E-04 -.428E-04   0.165E-23 0.248E-23 0.116E-22   0.129E-06 0.129E-06 -.129E-06
   -.560E-05 -.533E-05 -.560E-05   -.408E-04 -.388E-04 -.408E-04   -.496E-23 0.331E-23 -.910E-23   -.131E-06 -.133E-06 -.131E-06
   0.560E-05 -.533E-05 0.560E-05   0.408E-04 -.388E-04 0.408E-04   0.141E-22 -.993E-23 0.207E-22   0.131E-06 -.133E-06 0.131E-06
   -.533E-05 -.560E-05 -.560E-05   -.388E-04 -.408E-04 -.408E-04   0.579E-23 0.165E-22 0.827E-23   -.133E-06 -.131E-06 -.131E-06
   -.587E-05 0.587E-05 0.587E-05   -.428E-04 0.428E-04 0.428E-04   0.132E-22 0.662E-23 -.174E-22   -.129E-06 0.129E-06 0.129E-06
   0.560E-05 0.560E-05 -.533E-05   0.408E-04 0.408E-04 -.388E-04   -.517E-23 0.161E-22 0.496E-23   0.131E-06 0.131E-06 -.133E-06
 -----------------------------------------------------------------------------------------------
   -.411E-10 -.339E-11 0.538E-10   -.203E-12 -.150E-12 0.179E-12   -.555E-15 0.665E-15 0.155E-14   0.717E-12 0.177E-11 -.269E-11
 
 
 POSITION                                       TOTAL-FORCE (eV/Angst)
 -----------------------------------------------------------------------------------
      3.94146      3.94146      3.94146        -0.000395     -0.000395     -0.000395
      6.67604      1.36729      9.25021         0.000395      0.000395     -0.000395
      1.36729      9.25021      6.67604         0.000395     -0.000395      0.000395
      9.25021      6.67604      1.36729        -0.000395      0.000395      0.000395
      1.28708      6.59583      4.02166        -0.000395     -0.000395      0.000395
      9.33041      9.33041      9.33041         0.000395      0.000395      0.000395
      6.59583      4.02166      1.28708        -0.000395      0.000395     -0.000395
      4.02166      1.28708      6.59583         0.000395     -0.000395     -0.000395
      6.59583      1.28708      4.02166        -0.000395     -0.000395      0.000395
      1.28708      4.02166      6.59583        -0.000395      0.000395     -0.000395
      4.02166      6.59583      1.28708         0.000395     -0.000395     -0.000395
      1.36729      6.67604      9.25021         0.000395      0.000395     -0.000395
      6.67604      9.25021      1.36729         0.000395     -0.000395      0.000395
      9.25021      1.36729      6.67604        -0.000395      0.000395      0.000395
      3.94146      9.25021      9.25021        -0.000395     -0.000395     -0.000395
      6.67604      6.67604      3.94146         0.000395      0.000395     -0.000395
      1.36729      3.94146      1.36729         0.000395     -0.000395      0.000395
      1.28708      1.28708      9.33041        -0.000395     -0.000395      0.000395
      9.33041      4.02166      4.02166         0.000395      0.000395      0.000395
      6.59583      9.33041      6.59583        -0.000395      0.000395     -0.000395
      6.59583      6.59583      9.33041        -0.000395     -0.000395      0.000395
      1.28708      9.33041      1.28708        -0.000395      0.000395     -0.000395
      1.36729      1.36729      3.94146         0.000395      0.000395     -0.000395
      6.67604      3.94146      6.67604         0.000395     -0.000395      0.000395
      9.25021      3.94146      9.25021        -0.000395     -0.000395     -0.000395
      3.94146      6.67604      6.67604        -0.000395      0.000395      0.000395
      4.02166      9.33041      4.02166         0.000395      0.000395      0.000395
      9.33041      1.28708      1.28708         0.000395     -0.000395     -0.000395
      9.33041      6.59583      6.59583         0.000395     -0.000395     -0.000395
      3.94146      1.36729      1.36729        -0.000395      0.000395      0.000395
      9.25021      9.25021      3.94146        -0.000395     -0.000395     -0.000395
      4.02166      4.02166      9.33041         0.000395      0.000395      0.000395
      5.30875      5.30875      5.30875        -0.000000     -0.000000      0.000000
      5.30875      0.00000      0.00000        -0.000000     -0.000000      0.000000
      0.00000      0.00000      5.30875        -0.000000     -0.000000      0.000000
      0.00000      5.30875      0.00000        -0.000000     -0.000000      0.000000
      2.65437      7.96312      2.65437        -0.000000     -0.000000      0.000000
      7.96312      7.96312      7.96312        -0.000000     -0.000000      0.000000
      7.96312      2.65437      2.65437        -0.000000     -0.000000      0.000000
      2.65437      2.65437      7.96312        -0.000000     -0.000000      0.000000
      1.32719      1.32719      1.32719        -0.000000     -0.000000      0.000000
      9.29031      3.98156      6.63594        -0.000000     -0.000000      0.000000
      3.98156      6.63594      9.29031        -0.000000     -0.000000      0.000000
      6.63594      9.29031      3.98156        -0.000000     -0.000000      0.000000
      3.98156      9.29031      6.63594        -0.000000     -0.000000      0.000000
      9.29031      6.63594      3.98156        -0.000000     -0.000000      0.000000
      6.63594      3.98156      9.29031        -0.000000     -0.000000      0.000000
      1.32719      6.63594      6.63594        -0.000000     -0.000000      0.000000
      9.29031      9.29031      1.32719        -0.000000     -0.000000      0.000000
      3.98156      1.32719      3.98156        -0.000000     -0.000000      0.000000
      3.98156      3.98156      1.32719        -0.000000     -0.000000      0.000000
      9.29031      1.32719      9.29031        -0.000000     -0.000000      0.000000
      6.63594      1.32719      6.63594        -0.000000     -0.000000      0.000000
      1.32719      9.29031      9.29031        -0.000000     -0.000000      0.000000
      1.32719      3.98156      3.98156        -0.000000     -0.000000      0.000000
      6.63594      6.63594      1.32719        -0.000000     -0.000000      0.000000
 -----------------------------------------------------------------------------------
    total drift:                               -0.000000     -0.000000      0.000000


--------------------------------------------------------------------------------------------------------



  FREE ENERGIE OF THE ION-ELECTRON SYSTEM (eV)
  ---------------------------------------------------
  free  energy   TOTEN  =      -233.74250370 eV

  energy  without entropy=     -233.74250370  energy(sigma->0) =     -233.74250370
 


--------------------------------------------------------------------------------------------------------


    POTLOK:  cpu time    3.2704: real time    3.2789


--------------------------------------------------------------------------------------------------------


     LOOP+:  cpu time 8602.9019: real time 8758.0744
    4ORBIT:  cpu time    0.0000: real time    0.0000
 BZINTS: Fermi energy:  4.195820;496.000000 electrons
         Band energy:***********;  BLOECHL correction:  0.000000

 total amount of memory used by VASP MPI-rank0   832869. kBytes
=======================================================================

   base      :      30000. kBytes
   nonl-proj :     291343. kBytes
   fftplans  :      77121. kBytes
   grid      :      53657. kBytes
   one-center:        870. kBytes
   wavefun   :     379878. kBytes
 
  
  
 General timing and accounting informations for this job:
 ========================================================
  
                  Total CPU time used (sec):     8726.332
                            User time (sec):     8695.973
                          System time (sec):       30.359
                         Elapsed time (sec):     8901.360
  
                   Maximum memory used (kb):     1015588.
                   Average memory used (kb):           0.
  
                          Minor page faults:       666287
                          Major page faults:            0
                 Voluntary context switches:          835
