WP2-P02-beta001-thickness-4L-relax-500-k
           1
     3.878284    0.000000    0.000000
    -1.939142    3.358693    0.000000
     0.000000   -0.000000   65.865158
   S    In   Zn   S    In   Zn   S    In   Zn   S    In   Zn
     4     2     1     4     2     1     4     2     1     4     2     1
Direct configuration=           1
   0.00000000  0.00000000  0.15182534
   0.66666666  0.33333331  0.20553697
   0.00000000  0.00000000  0.24790421
   0.33333331  0.66666666  0.29484266
   0.66666666  0.33333331  0.16832535
   0.33333331  0.66666666  0.22869301
   0.00000000  0.00000000  0.28642649
   0.00000000  0.00000000  0.33626934
   0.66666666  0.33333331  0.38998097
   0.00000000  0.00000000  0.43234821
   0.33333331  0.66666666  0.47928666
   0.66666666  0.33333331  0.35276935
   0.33333331  0.66666666  0.41313701
   0.00000000  0.00000000  0.47087049
   0.00000000  0.00000000  0.52071334
   0.66666666  0.33333331  0.57442497
   0.00000000  0.00000000  0.61679221
   0.33333331  0.66666666  0.66373066
   0.66666666  0.33333331  0.53721335
   0.33333331  0.66666666  0.59758101
   0.00000000  0.00000000  0.65531449
   0.00000000  0.00000000  0.70515734
   0.66666666  0.33333331  0.75886897
   0.00000000  0.00000000  0.80123621
   0.33333331  0.66666666  0.84817466
   0.66666666  0.33333331  0.72165735
   0.33333331  0.66666666  0.78202501
   0.00000000  0.00000000  0.83975849
Direct configuration=           2
   0.00000004  0.99999997  0.15161063
   0.66666668  0.33333330  0.20538207
   0.00000003  0.99999999  0.24785228
   0.33333345  0.66666654  0.29477707
   0.66666667  0.33333330  0.16858811
   0.33333333  0.66666664  0.22881981
   0.99999980  0.00000018  0.28649402
   0.00000001  0.99999998  0.33626854
   0.66666667  0.33333329  0.38992121
   0.00000002  0.99999999  0.43231861
   0.33333346  0.66666654  0.47923949
   0.66666669  0.33333329  0.35282422
   0.33333333  0.66666665  0.41318375
   0.99999972  0.00000026  0.47091264
   0.00000001  0.99999993  0.52071049
   0.66666667  0.33333327  0.57437150
   0.99999999  0.99999997  0.61676487
   0.33333346  0.66666655  0.66368056
   0.66666667  0.33333332  0.53726070
   0.33333333  0.66666665  0.59762237
   0.99999980  0.00000019  0.65535352
   0.00000003  0.99999998  0.70515098
   0.66666669  0.33333328  0.75879714
   0.00000001  0.00000001  0.80117250
   0.33333343  0.66666653  0.84815249
   0.66666668  0.33333330  0.72172119
   0.33333334  0.66666663  0.78206981
   0.99999975  0.00000024  0.83984350
Direct configuration=           3
   0.00000005  0.99999996  0.15155800
   0.66666668  0.33333330  0.20534411
   0.00000004  0.99999998  0.24783956
   0.33333348  0.66666651  0.29476100
   0.66666667  0.33333330  0.16865251
   0.33333333  0.66666664  0.22885089
   0.99999976  0.00000022  0.28651057
   0.00000002  0.99999998  0.33626834
   0.66666668  0.33333328  0.38990656
   0.00000002  0.99999998  0.43231136
   0.33333349  0.66666651  0.47922794
   0.66666669  0.33333329  0.35283766
   0.33333334  0.66666665  0.41319520
   0.99999965  0.00000032  0.47092297
   0.00000001  0.99999991  0.52070980
   0.66666668  0.33333326  0.57435840
   0.99999999  0.99999996  0.61675817
   0.33333349  0.66666653  0.66366828
   0.66666668  0.33333332  0.53727230
   0.33333334  0.66666664  0.59763251
   0.99999976  0.00000024  0.65536309
   0.00000003  0.99999997  0.70514942
   0.66666670  0.33333327  0.75877954
   0.00000001  0.00000002  0.80115689
   0.33333346  0.66666650  0.84814705
   0.66666669  0.33333329  0.72173684
   0.33333334  0.66666663  0.78208079
   0.99999969  0.00000030  0.83986434
Direct configuration=           4
   0.00000008  0.99999992  0.15144938
   0.66666671  0.33333327  0.20541403
   0.00000005  0.99999997  0.24781506
   0.33333350  0.66666649  0.29467984
   0.66666668  0.33333330  0.16861590
   0.33333339  0.66666660  0.22890911
   0.99999964  0.00000034  0.28659102
   0.00000006  0.99999993  0.33628367
   0.66666670  0.33333325  0.38990227
   0.00000004  0.99999997  0.43229209
   0.33333347  0.66666653  0.47916892
   0.66666673  0.33333326  0.35284639
   0.33333336  0.66666664  0.41321301
   0.99999950  0.00000049  0.47097256
   0.00000005  0.99999988  0.52072067
   0.66666670  0.33333323  0.57435191
   0.00000000  0.99999995  0.61673857
   0.33333351  0.66666650  0.66360495
   0.66666668  0.33333330  0.53727911
   0.33333337  0.66666661  0.59764945
   0.99999964  0.00000036  0.65541121
   0.00000007  0.99999993  0.70516321
   0.66666672  0.33333323  0.75877368
   0.00000003  1.00000000  0.80111751
   0.33333347  0.66666649  0.84812505
   0.66666673  0.33333327  0.72173722
   0.33333337  0.66666662  0.78208163
   0.99999951  0.00000045  0.83995668
Direct configuration=           5
   0.00000013  0.99999987  0.15131276
   0.66666673  0.33333323  0.20550198
   0.00000006  0.99999995  0.24778424
   0.33333352  0.66666647  0.29457774
   0.66666669  0.33333330  0.16856986
   0.33333345  0.66666656  0.22898235
   0.99999949  0.00000049  0.28669221
   0.00000012  0.99999986  0.33630296
   0.66666674  0.33333321  0.38989687
   0.00000005  0.99999996  0.43226784
   0.33333345  0.66666655  0.47909469
   0.66666677  0.33333324  0.35285737
   0.33333338  0.66666662  0.41323541
   0.99999931  0.00000069  0.47103493
   0.00000010  0.99999985  0.52073434
   0.66666673  0.33333318  0.57434374
   0.00000003  0.99999993  0.61671391
   0.33333355  0.66666647  0.66352530
   0.66666669  0.33333327  0.53728768
   0.33333341  0.66666656  0.59767076
   0.99999950  0.00000051  0.65547174
   0.00000012  0.99999986  0.70518054
   0.66666675  0.33333319  0.75876631
   0.00000004  0.99999997  0.80106798
   0.33333348  0.66666649  0.84809737
   0.66666678  0.33333323  0.72173769
   0.33333340  0.66666660  0.78208270
   0.99999930  0.00000065  0.84007283
Direct configuration=           6
   0.00000014  0.99999986  0.15127465
   0.66666674  0.33333322  0.20552651
   0.00000007  0.99999995  0.24777564
   0.33333353  0.66666647  0.29454927
   0.66666670  0.33333330  0.16855701
   0.33333347  0.66666654  0.22900277
   0.99999945  0.00000054  0.28672043
   0.00000013  0.99999985  0.33630834
   0.66666674  0.33333319  0.38989536
   0.00000006  0.99999996  0.43226108
   0.33333345  0.66666655  0.47907399
   0.66666678  0.33333323  0.35286043
   0.33333339  0.66666662  0.41324166
   0.99999925  0.00000074  0.47105232
   0.00000012  0.99999983  0.52073816
   0.66666673  0.33333317  0.57434146
   0.00000003  0.99999992  0.61670704
   0.33333355  0.66666646  0.66350308
   0.66666669  0.33333326  0.53729007
   0.33333342  0.66666654  0.59767671
   0.99999946  0.00000056  0.65548862
   0.00000014  0.99999985  0.70518537
   0.66666676  0.33333318  0.75876426
   0.00000005  0.99999996  0.80105416
   0.33333348  0.66666649  0.84808965
   0.66666679  0.33333322  0.72173783
   0.33333341  0.66666660  0.78208299
   0.99999924  0.00000070  0.84010523
Direct configuration=           7
   0.00000015  0.99999985  0.15125682
   0.66666678  0.33333317  0.20549369
   0.00000009  0.99999992  0.24785688
   0.33333332  0.66666667  0.29449402
   0.66666673  0.33333328  0.16850322
   0.33333350  0.66666652  0.22897787
   0.99999949  0.00000050  0.28676550
   0.00000019  0.99999981  0.33631532
   0.66666678  0.33333316  0.38991165
   0.00000007  0.99999995  0.43227308
   0.33333318  0.66666682  0.47902647
   0.66666684  0.33333316  0.35287217
   0.33333341  0.66666659  0.41322391
   0.99999933  0.00000067  0.47108223
   0.00000013  0.99999982  0.52074275
   0.66666676  0.33333313  0.57435551
   0.00000007  0.99999990  0.61671775
   0.33333336  0.66666665  0.66345752
   0.66666672  0.33333322  0.53729801
   0.33333344  0.66666651  0.59765660
   0.99999949  0.00000052  0.65551336
   0.00000019  0.99999980  0.70518672
   0.66666679  0.33333314  0.75876718
   0.00000007  0.99999994  0.80108197
   0.33333323  0.66666672  0.84809035
   0.66666685  0.33333315  0.72173868
   0.33333342  0.66666659  0.78204053
   0.99999934  0.00000061  0.84016434
Direct configuration=           8
   0.00000016  0.99999985  0.15124638
   0.66666680  0.33333315  0.20547446
   0.00000010  0.99999990  0.24790448
   0.33333319  0.66666680  0.29446165
   0.66666675  0.33333326  0.16847170
   0.33333351  0.66666651  0.22896328
   0.99999952  0.00000048  0.28679190
   0.00000023  0.99999979  0.33631941
   0.66666680  0.33333314  0.38992119
   0.00000008  0.99999994  0.43228012
   0.33333302  0.66666697  0.47899863
   0.66666687  0.33333312  0.35287904
   0.33333343  0.66666657  0.41321351
   0.99999938  0.00000062  0.47109975
   0.00000014  0.99999981  0.52074544
   0.66666678  0.33333311  0.57436375
   0.00000010  0.99999988  0.61672403
   0.33333325  0.66666675  0.66343083
   0.66666675  0.33333320  0.53730266
   0.33333346  0.66666649  0.59764482
   0.99999951  0.00000050  0.65552786
   0.00000022  0.99999978  0.70518750
   0.66666681  0.33333312  0.75876890
   0.00000009  0.99999992  0.80109827
   0.33333309  0.66666685  0.84809076
   0.66666688  0.33333312  0.72173917
   0.33333343  0.66666658  0.78201564
   0.99999939  0.00000055  0.84019897
Direct configuration=           9
   0.00000017  0.99999984  0.15123157
   0.66666684  0.33333310  0.20541012
   0.00000017  0.99999987  0.24791874
   0.33333313  0.66666686  0.29445237
   0.66666679  0.33333322  0.16845325
   0.33333352  0.66666648  0.22897620
   0.99999940  0.00000059  0.28680890
   0.00000028  0.99999974  0.33632269
   0.66666683  0.33333311  0.38991910
   0.00000010  0.99999993  0.43227822
   0.33333297  0.66666703  0.47897814
   0.66666694  0.33333307  0.35289356
   0.33333345  0.66666655  0.41322794
   0.99999926  0.00000074  0.47110441
   0.00000016  0.99999979  0.52074661
   0.66666682  0.33333307  0.57435807
   0.00000013  0.99999985  0.61671982
   0.33333317  0.66666683  0.66341333
   0.66666679  0.33333317  0.53731547
   0.33333349  0.66666646  0.59765629
   0.99999941  0.00000060  0.65552753
   0.00000028  0.99999972  0.70518075
   0.66666684  0.33333309  0.75875266
   0.00000010  0.99999991  0.80110083
   0.33333302  0.66666691  0.84811414
   0.66666694  0.33333306  0.72173902
   0.33333345  0.66666655  0.78203476
   0.99999932  0.00000062  0.84022959
Direct configuration=          10
   0.00000018  0.99999983  0.15122556
   0.66666685  0.33333308  0.20538396
   0.00000020  0.99999986  0.24792454
   0.33333311  0.66666689  0.29444859
   0.66666680  0.33333321  0.16844576
   0.33333352  0.66666648  0.22898146
   0.99999936  0.00000064  0.28681581
   0.00000030  0.99999971  0.33632402
   0.66666685  0.33333310  0.38991826
   0.00000010  0.99999993  0.43227744
   0.33333294  0.66666705  0.47896981
   0.66666697  0.33333305  0.35289946
   0.33333346  0.66666654  0.41323381
   0.99999921  0.00000079  0.47110630
   0.00000016  0.99999979  0.52074708
   0.66666683  0.33333305  0.57435576
   0.00000014  0.99999984  0.61671811
   0.33333314  0.66666686  0.66340622
   0.66666681  0.33333315  0.53732067
   0.33333350  0.66666645  0.59766095
   0.99999937  0.00000063  0.65552740
   0.00000030  0.99999970  0.70517801
   0.66666685  0.33333308  0.75874606
   0.00000011  0.99999990  0.80110187
   0.33333300  0.66666693  0.84812365
   0.66666696  0.33333304  0.72173896
   0.33333346  0.66666654  0.78204253
   0.99999929  0.00000065  0.84024204
Direct configuration=          11
   0.00000022  0.99999980  0.15120013
   0.66666690  0.33333302  0.20536550
   0.00000024  0.99999983  0.24790682
   0.33333301  0.66666699  0.29445323
   0.66666687  0.33333315  0.16839645
   0.33333357  0.66666644  0.22897901
   0.99999918  0.00000081  0.28683171
   0.00000037  0.99999964  0.33633360
   0.66666689  0.33333306  0.38992782
   0.00000013  0.99999991  0.43227674
   0.33333288  0.66666712  0.47895310
   0.66666705  0.33333298  0.35290398
   0.33333350  0.66666651  0.41324884
   0.99999905  0.00000095  0.47110421
   0.00000020  0.99999975  0.52075347
   0.66666688  0.33333300  0.57436181
   0.00000018  0.99999980  0.61671320
   0.33333304  0.66666695  0.66339101
   0.66666685  0.33333311  0.53732079
   0.33333355  0.66666641  0.59767207
   0.99999919  0.00000080  0.65552038
   0.00000037  0.99999962  0.70516918
   0.66666689  0.33333304  0.75874567
   0.00000013  0.99999988  0.80110777
   0.33333295  0.66666696  0.84816169
   0.66666704  0.33333296  0.72172606
   0.33333350  0.66666650  0.78206285
   0.99999913  0.00000079  0.84027700
Direct configuration=          12
   0.00000027  0.99999976  0.15117502
   0.66666695  0.33333296  0.20534726
   0.00000029  0.99999980  0.24788932
   0.33333292  0.66666709  0.29445780
   0.66666693  0.33333309  0.16834774
   0.33333361  0.66666640  0.22897659
   0.99999901  0.00000098  0.28684741
   0.00000045  0.99999956  0.33634306
   0.66666693  0.33333302  0.38993726
   0.00000015  0.99999989  0.43227605
   0.33333282  0.66666718  0.47893660
   0.66666712  0.33333292  0.35290844
   0.33333353  0.66666648  0.41326369
   0.99999888  0.00000111  0.47110214
   0.00000024  0.99999971  0.52075977
   0.66666692  0.33333295  0.57436777
   0.00000022  0.99999976  0.61670835
   0.33333295  0.66666705  0.66337599
   0.66666690  0.33333306  0.53732090
   0.33333360  0.66666637  0.59768307
   0.99999902  0.00000096  0.65551344
   0.00000044  0.99999954  0.70516047
   0.66666692  0.33333300  0.75874528
   0.00000015  0.99999986  0.80111361
   0.33333291  0.66666700  0.84819926
   0.66666711  0.33333289  0.72171333
   0.33333353  0.66666646  0.78208293
   0.99999898  0.00000093  0.84031154
Direct configuration=          13
   0.00000032  0.99999971  0.15114400
   0.66666699  0.33333291  0.20533417
   0.00000030  0.99999977  0.24787683
   0.33333281  0.66666720  0.29446437
   0.66666698  0.33333304  0.16833135
   0.33333366  0.66666636  0.22895816
   0.99999892  0.00000109  0.28685508
   0.00000051  0.99999950  0.33634984
   0.66666696  0.33333298  0.38994435
   0.00000017  0.99999987  0.43228101
   0.33333272  0.66666728  0.47892826
   0.66666718  0.33333286  0.35291545
   0.33333356  0.66666646  0.41326738
   0.99999880  0.00000119  0.47109812
   0.00000028  0.99999967  0.52076236
   0.66666696  0.33333291  0.57437174
   0.00000025  0.99999974  0.61671013
   0.33333284  0.66666715  0.66336656
   0.66666694  0.33333303  0.53732500
   0.33333364  0.66666633  0.59768347
   0.99999890  0.00000108  0.65550650
   0.00000050  0.99999948  0.70515156
   0.66666695  0.33333296  0.75874788
   0.00000017  0.99999983  0.80112758
   0.33333284  0.66666706  0.84822869
   0.66666717  0.33333283  0.72171142
   0.33333356  0.66666643  0.78208575
   0.99999888  0.00000103  0.84033704
Direct configuration=          14
   0.00000047  0.99999958  0.15105094
   0.66666710  0.33333278  0.20529488
   0.00000033  0.99999970  0.24783934
   0.33333248  0.66666754  0.29448408
   0.66666712  0.33333292  0.16828221
   0.33333381  0.66666624  0.22890288
   0.99999862  0.00000139  0.28687808
   0.00000070  0.99999933  0.33637021
   0.66666707  0.33333288  0.38996561
   0.00000024  0.99999981  0.43229587
   0.33333243  0.66666756  0.47890325
   0.66666735  0.33333269  0.35293646
   0.33333364  0.66666639  0.41327846
   0.99999856  0.00000144  0.47108609
   0.00000040  0.99999956  0.52077015
   0.66666708  0.33333279  0.57438366
   0.00000035  0.99999965  0.61671548
   0.33333252  0.66666745  0.66333826
   0.66666705  0.33333292  0.53733731
   0.33333377  0.66666623  0.59768470
   0.99999855  0.00000142  0.65548569
   0.00000068  0.99999929  0.70512484
   0.66666705  0.33333285  0.75875569
   0.00000023  0.99999976  0.80116949
   0.33333262  0.66666726  0.84831696
   0.66666734  0.33333266  0.72170570
   0.33333363  0.66666636  0.78209422
   0.99999856  0.00000131  0.84041356
