WP2-P02-beta001-A2-k12-500              
   1.0000000000000000     
     3.8782842923155867    0.0000000000000000    0.0000000000000000
    -1.9391421461577933    3.3586927202930394    0.0000000000000000
     0.0000000000000000    0.0000000000000000   29.4198582101956134
   S    In   Zn
     4     2     1
Direct
     0.0000009328819814    0.9999990675493606    0.3392904308796432
     0.6666674558440775    0.3333325101705711    0.4603062393898156
     0.0000006130220100    0.9999994892935788    0.5561441556348186
     0.3333315663518448    0.6666682684148526    0.6607095691203568
     0.6666675549394867    0.3333324596457743    0.3785514312769465
     0.3333340192907599    0.6666660563643632    0.5148004649368545
     0.9999977976698418    0.0000020885614873    0.6497756469043878

  0.00000000E+00  0.00000000E+00  0.00000000E+00
  0.00000000E+00  0.00000000E+00  0.00000000E+00
  0.00000000E+00  0.00000000E+00  0.00000000E+00
  0.00000000E+00  0.00000000E+00  0.00000000E+00
  0.00000000E+00  0.00000000E+00  0.00000000E+00
  0.00000000E+00  0.00000000E+00  0.00000000E+00
  0.00000000E+00  0.00000000E+00  0.00000000E+00
