WP2-P02-beta001-A2-k12-500
1.0
   3.8782842923155867    0.0000000000000000    0.0000000000000000
  -1.9391421461577933    3.3586927202930394    0.0000000000000000
   0.0000000000000000    0.0000000000000000   29.4198582101956134
S In Zn
4 2 1
direct
   0.0000009328819783    0.9999990675493606    0.3392904308796431 S
   0.6666674558440757    0.3333325101705703    0.4603062393898180 S
   0.0000006130220096    0.9999994892935781    0.5561441556348189 S
   0.3333315663518467    0.6666682684148559    0.6607095691203569 S
   0.6666675549394873    0.3333324596457766    0.3785514312769483 In
   0.3333340192907590    0.6666660563643667    0.5148004649368527 In
   0.9999977976698389    0.0000020885614866    0.6497756469043859 Zn
