 running    8 mpi-ranks, on    1 nodes
 distrk:  each k-point on    8 cores,    1 groups
 distr:  one band on    4 cores,    2 groups
 vasp.6.6.1 17Jul2026 (build Sep  7 2026 10:40:42) complex                       
 POSCAR found type information on POSCAR S InZn
 POSCAR found :  3 types and       7 ions
 scaLAPACK will be used
 LDA part: xc-table for (Slater+PW92), standard interpolation
 POSCAR, INCAR and KPOINTS ok, starting setup
 FFT: planning ... GRIDC
 FFT: planning ... GRID_SOFT
 FFT: planning ... GRID
 WAVECAR not read
 entering main loop
       N       E                     dE             d eps       ncg     rms          rms(c)
DAV:   1     0.528606618544E+03    0.52861E+03   -0.25754E+04  5912   0.141E+03
DAV:   2     0.453646539029E+02   -0.48324E+03   -0.46968E+03  6666   0.344E+02
DAV:   3    -0.249736974282E+02   -0.70338E+02   -0.69420E+02  7274   0.154E+02
DAV:   4    -0.283322475237E+02   -0.33586E+01   -0.33460E+01  6896   0.374E+01
DAV:   5    -0.284634490455E+02   -0.13120E+00   -0.13117E+00  8516   0.733E+00    0.132E+01
DAV:   6    -0.264946916347E+02    0.19688E+01   -0.36885E+00  9124   0.422E+01    0.100E+01
DAV:   7    -0.266349833553E+02   -0.14029E+00   -0.43592E+00  7872   0.115E+01    0.355E+00
DAV:   8    -0.266099697120E+02    0.25014E-01   -0.22824E+00  7728   0.101E+01    0.188E+00
DAV:   9    -0.265356555220E+02    0.74314E-01   -0.59824E-01  9136   0.111E+01    0.123E+00
DAV:  10    -0.265332885354E+02    0.23670E-02   -0.13599E-01  7546   0.272E+00    0.639E-01
DAV:  11    -0.265335253426E+02   -0.23681E-03   -0.21387E-02  7488   0.101E+00    0.377E-01
DAV:  12    -0.265340053122E+02   -0.47997E-03   -0.31127E-03  8226   0.363E-01    0.227E-01
DAV:  13    -0.265339682628E+02    0.37049E-04   -0.29746E-03  7894   0.499E-01    0.871E-02
DAV:  14    -0.265338758053E+02    0.92457E-04   -0.40572E-04  7626   0.166E-01    0.456E-02
DAV:  15    -0.265339080866E+02   -0.32281E-04   -0.11590E-04  6606   0.559E-02    0.328E-02
DAV:  16    -0.265339150632E+02   -0.69767E-05   -0.19638E-05  7364   0.359E-02    0.167E-02
DAV:  17    -0.265339447551E+02   -0.29692E-04   -0.82693E-06  6112   0.153E-02    0.436E-03
DAV:  18    -0.265339521091E+02   -0.73540E-05   -0.32235E-06  5016   0.143E-02    0.384E-03
DAV:  19    -0.265339686955E+02   -0.16586E-04   -0.29782E-06  4880   0.165E-02    0.390E-03
DAV:  20    -0.265339823793E+02   -0.13684E-04   -0.11399E-06  4820   0.863E-03    0.146E-03
DAV:  21    -0.265339848438E+02   -0.24645E-05   -0.19332E-07  4100   0.312E-03    0.998E-04
DAV:  22    -0.265340010822E+02   -0.16238E-04   -0.83821E-07  4504   0.363E-03    0.154E-03
DAV:  23    -0.265340034712E+02   -0.23890E-05   -0.14129E-07  4494   0.280E-03    0.962E-04
DAV:  24    -0.265340040187E+02   -0.54749E-06   -0.30776E-08  3910   0.152E-03
   1 F= -.28279820E+02 E0= -.28279434E+02  d E =-.771444E-03
