WP2-P02-beta001-thickness-2L-relax-500-k
   1.0000000000000000     
     3.8782842923155867    0.0000000000000000    0.0000000000000000
    -1.9391421461577933    3.3586927202930394    0.0000000000000000
     0.0000000000000000    0.0000000000000000   41.5682913434705483
   S    In   Zn   S    In   Zn
     4     2     1     4     2     1
Direct
     0.0000036059713036    0.9999966568432264    0.2379524878216474
     0.6666702832018142    0.3333299221011657    0.3238610859611953
     0.0000030234262104    0.9999972437627502    0.3913721464960992
     0.3333314044919326    0.6666685341516665    0.4652803976928759
     0.6666702957482162    0.3333299585873635    0.2653446274885885
     0.3333365245862959    0.6666637329881899    0.3614883778835437
     0.9999975182000720    0.0000023974574498    0.4539906750333939
     0.0000016679759581    0.9999982390684624    0.5336370759197097
     0.6666665370050010    0.3333334250916957    0.6186606580871334
     0.9999991546131710    0.0000007582248411    0.6860506920841759
     0.3333263581897551    0.6666732003967855    0.7608207464451064
     0.6666685080634961    0.3333313902761940    0.5602054943390929
     0.3333328499220080    0.6666670628232404    0.6560305978558716
     0.9999921486047557    0.0000073582269591    0.7493697037339876

  0.00000000E+00  0.00000000E+00  0.00000000E+00
  0.00000000E+00  0.00000000E+00  0.00000000E+00
  0.00000000E+00  0.00000000E+00  0.00000000E+00
  0.00000000E+00  0.00000000E+00  0.00000000E+00
  0.00000000E+00  0.00000000E+00  0.00000000E+00
  0.00000000E+00  0.00000000E+00  0.00000000E+00
  0.00000000E+00  0.00000000E+00  0.00000000E+00
  0.00000000E+00  0.00000000E+00  0.00000000E+00
  0.00000000E+00  0.00000000E+00  0.00000000E+00
  0.00000000E+00  0.00000000E+00  0.00000000E+00
  0.00000000E+00  0.00000000E+00  0.00000000E+00
  0.00000000E+00  0.00000000E+00  0.00000000E+00
  0.00000000E+00  0.00000000E+00  0.00000000E+00
  0.00000000E+00  0.00000000E+00  0.00000000E+00
