 running    8 mpi-ranks, on    1 nodes
 distrk:  each k-point on    8 cores,    1 groups
 distr:  one band on    4 cores,    2 groups
 vasp.6.6.1 17Jul2026 (build Sep  7 2026 10:40:42) complex                       
 POSCAR found type information on POSCAR S InZnS InZn
 POSCAR found :  6 types and      14 ions
 scaLAPACK will be used
 LDA part: xc-table for (Slater+PW92), standard interpolation
 POSCAR, INCAR and KPOINTS ok, starting setup
 FFT: planning ... GRIDC
 FFT: planning ... GRID_SOFT
 FFT: planning ... GRID
 WAVECAR not read
 entering main loop
       N       E                     dE             d eps       ncg     rms          rms(c)
DAV:   1     0.120651104071E+04    0.12065E+04   -0.52819E+04  8064   0.160E+03
DAV:   2     0.149566692301E+03   -0.10569E+04   -0.10224E+04  8344   0.404E+02
DAV:   3    -0.416160596526E+02   -0.19118E+03   -0.18681E+03  9236   0.196E+02
DAV:   4    -0.562755776355E+02   -0.14660E+02   -0.14544E+02  9480   0.536E+01
DAV:   5    -0.569131339148E+02   -0.63756E+00   -0.63681E+00 10504   0.117E+01    0.195E+01
DAV:   6    -0.533070826303E+02    0.36061E+01   -0.64601E+00 12556   0.414E+01    0.135E+01
DAV:   7    -0.533203865929E+02   -0.13304E-01   -0.85158E+00 11208   0.160E+01    0.380E+00
DAV:   8    -0.531164275049E+02    0.20396E+00   -0.14201E+00 10928   0.746E+00    0.300E+00
DAV:   9    -0.530979033164E+02    0.18524E-01   -0.19735E-01 10384   0.178E+00    0.180E+00
DAV:  10    -0.530867244841E+02    0.11179E-01   -0.75436E-02 10616   0.127E+00    0.131E+00
DAV:  11    -0.530827275093E+02    0.39970E-02   -0.77820E-03  9848   0.461E-01    0.989E-01
DAV:  12    -0.530753810571E+02    0.73465E-02   -0.82912E-03  9736   0.465E-01    0.418E-01
DAV:  13    -0.530718442348E+02    0.35368E-02   -0.38768E-03 11040   0.361E-01    0.205E-01
DAV:  14    -0.530683493820E+02    0.34949E-02   -0.21051E-03 11488   0.298E-01    0.948E-02
DAV:  15    -0.530670645343E+02    0.12848E-02   -0.15960E-03 10576   0.155E-01    0.810E-02
DAV:  16    -0.530663869815E+02    0.67755E-03   -0.31042E-04 11600   0.880E-02    0.770E-02
DAV:  17    -0.530658279307E+02    0.55905E-03   -0.80915E-05 11872   0.689E-02    0.724E-02
DAV:  18    -0.530640121849E+02    0.18157E-02   -0.14715E-03 11502   0.463E-01    0.130E-01
DAV:  19    -0.530639788189E+02    0.33366E-04   -0.45133E-04  8670   0.668E-02    0.128E-01
DAV:  20    -0.530640562070E+02   -0.77388E-04   -0.43329E-05  9728   0.348E-02    0.129E-01
DAV:  21    -0.530636729931E+02    0.38321E-03   -0.63894E-05  9036   0.654E-02    0.132E-01
DAV:  22    -0.530629431135E+02    0.72988E-03   -0.71859E-05 10656   0.586E-02    0.137E-01
DAV:  23    -0.530635345229E+02   -0.59141E-03   -0.88811E-05 10734   0.106E-01    0.149E-01
DAV:  24    -0.530611343677E+02    0.24002E-02   -0.67970E-04 11938   0.288E-01    0.130E-01
DAV:  25    -0.530597914496E+02    0.13429E-02   -0.72239E-04 10808   0.217E-01    0.936E-02
DAV:  26    -0.530593207714E+02    0.47068E-03   -0.35845E-04  9198   0.726E-02    0.101E-01
DAV:  27    -0.530587261841E+02    0.59459E-03   -0.34119E-04  8384   0.653E-02    0.100E-01
DAV:  28    -0.530586237422E+02    0.10244E-03   -0.51178E-04  8520   0.686E-02    0.570E-02
DAV:  29    -0.530586011905E+02    0.22552E-04   -0.16128E-04 11506   0.812E-02    0.391E-02
DAV:  30    -0.530586021503E+02   -0.95987E-06   -0.48935E-05  7920   0.254E-02    0.392E-02
DAV:  31    -0.530586024888E+02   -0.33841E-06   -0.23060E-06  6844   0.630E-03
   1 F= -.56936700E+02 E0= -.56936102E+02  d E =-.569367E+02
 curvature:   0.00 expect dE= 0.000E+00 dE for cont linesearch  0.000E+00
 trial: gam= 0.00000 g(F)=  0.255E-01 g(S)=  0.000E+00 ort = 0.000E+00 (trialstep = 0.100E+01)
 search vector abs. value=  0.255E-01
 bond charge predicted
       N       E                     dE             d eps       ncg     rms          rms(c)
DAV:   1    -0.530599510525E+02   -0.13489E-02   -0.41443E+00  8784   0.675E+00    0.112E+00
DAV:   2    -0.530749481175E+02   -0.14997E-01   -0.17364E-01 11440   0.191E+00    0.317E-01
DAV:   3    -0.530744523816E+02    0.49574E-03   -0.44948E-03 11558   0.362E-01    0.236E-01
DAV:   4    -0.530742108954E+02    0.24149E-03   -0.54904E-04 11360   0.110E-01    0.141E-01
DAV:   5    -0.530739836936E+02    0.22720E-03   -0.11081E-04 12152   0.867E-02    0.744E-02
DAV:   6    -0.530737699366E+02    0.21376E-03   -0.18516E-04 11632   0.117E-01    0.397E-02
DAV:   7    -0.530737071820E+02    0.62755E-04   -0.13214E-04 10672   0.616E-02    0.411E-02
DAV:   8    -0.530736832686E+02    0.23913E-04   -0.58149E-05 10192   0.285E-02    0.384E-02
DAV:   9    -0.530736853020E+02   -0.20334E-05   -0.11828E-05  8440   0.140E-02    0.361E-02
DAV:  10    -0.530736844583E+02    0.84368E-06   -0.51470E-07  5408   0.355E-03
   2 F= -.56951977E+02 E0= -.56951445E+02  d E =-.152771E-01
 trial-energy change:   -0.015277  1 .order   -0.015492   -0.025523   -0.005461
 step:   1.2969(harm=  1.2722)  dis= 0.02332  next Energy=   -56.952782 (dE=-0.161E-01)
 bond charge predicted
       N       E                     dE             d eps       ncg     rms          rms(c)
DAV:   1    -0.530731817470E+02    0.50355E-03   -0.36625E-01  8858   0.200E+00    0.349E-01
DAV:   2    -0.530743111396E+02   -0.11294E-02   -0.13752E-02 11008   0.516E-01    0.671E-02
DAV:   3    -0.530742273032E+02    0.83836E-04   -0.53946E-04 11878   0.104E-01    0.663E-02
DAV:   4    -0.530741625062E+02    0.64797E-04   -0.57852E-05 11496   0.387E-02    0.387E-02
DAV:   5    -0.530740883637E+02    0.74142E-04   -0.13745E-05 10062   0.370E-02    0.246E-02
DAV:   6    -0.530739160631E+02    0.17230E-03   -0.87155E-05 12720   0.111E-01    0.166E-02
DAV:   7    -0.530738473548E+02    0.68708E-04   -0.52904E-05 11704   0.627E-02    0.176E-02
DAV:   8    -0.530737911990E+02    0.56156E-04   -0.61177E-05 10000   0.927E-02    0.247E-02
DAV:   9    -0.530737951066E+02   -0.39076E-05   -0.59400E-05  8700   0.304E-02    0.223E-02
DAV:  10    -0.530737954782E+02   -0.37154E-06   -0.45130E-06  7944   0.888E-03
   3 F= -.56952147E+02 E0= -.56951475E+02  d E =-.154468E-01
 curvature:  -0.63 expect dE=-0.402E-02 dE for cont linesearch -0.629E-04
 ZBRENT: interpolating
 opt :   1.2298  next Energy=   -56.952200 (dE=-0.155E-01)
 bond charge predicted
       N       E                     dE             d eps       ncg     rms          rms(c)
DAV:   1    -0.530738148760E+02   -0.19769E-04   -0.18760E-02  8940   0.453E-01    0.734E-02
DAV:   2    -0.530738779233E+02   -0.63047E-04   -0.69632E-04 11000   0.118E-01    0.208E-02
DAV:   3    -0.530738808262E+02   -0.29030E-05   -0.26081E-05 11552   0.252E-02    0.195E-02
DAV:   4    -0.530738847814E+02   -0.39551E-05   -0.31574E-06  7458   0.111E-02    0.123E-02
DAV:   5    -0.530738939697E+02   -0.91883E-05   -0.49429E-06  7608   0.176E-02    0.704E-03
DAV:   6    -0.530738994007E+02   -0.54310E-05   -0.50804E-06  8176   0.940E-03    0.646E-03
DAV:   7    -0.530738984091E+02    0.99155E-06   -0.17756E-06  6612   0.569E-03
   4 F= -.56952236E+02 E0= -.56951540E+02  d E =-.155364E-01
 curvature:  -0.54 expect dE=-0.299E-02 dE for cont linesearch -0.252E-05
 trial: gam= 0.23203 g(F)=  0.558E-02 g(S)=  0.000E+00 ort =-0.346E-03 (trialstep = 0.105E+01)
 search vector abs. value=  0.679E-02
 bond charge predicted
       N       E                     dE             d eps       ncg     rms          rms(c)
DAV:   1    -0.530775586753E+02   -0.36593E-02   -0.10727E+00  7762   0.328E+00    0.383E-01
DAV:   2    -0.530798783448E+02   -0.23197E-02   -0.25889E-02 10582   0.663E-01    0.127E-01
DAV:   3    -0.530798019760E+02    0.76369E-04   -0.63586E-04 10240   0.118E-01    0.109E-01
DAV:   4    -0.530797554414E+02    0.46535E-04   -0.18931E-04 11904   0.679E-02    0.560E-02
DAV:   5    -0.530797552644E+02    0.17696E-06   -0.76700E-05 10608   0.359E-02    0.217E-02
DAV:   6    -0.530797590317E+02   -0.37672E-05   -0.20274E-05  9440   0.163E-02    0.207E-02
DAV:   7    -0.530797604399E+02   -0.14083E-05   -0.15245E-06  6218   0.726E-03    0.144E-02
DAV:   8    -0.530797669308E+02   -0.64908E-05   -0.55436E-06  7264   0.986E-03    0.494E-03
DAV:   9    -0.530797691050E+02   -0.21742E-05   -0.11196E-06  5864   0.579E-03    0.502E-03
DAV:  10    -0.530797714755E+02   -0.23706E-05   -0.56811E-07  5476   0.331E-03    0.399E-03
DAV:  11    -0.530797789730E+02   -0.74975E-05   -0.57004E-06  6692   0.935E-03    0.493E-03
DAV:  12    -0.530797753050E+02    0.36680E-05   -0.18732E-06  6164   0.465E-03    0.484E-03
DAV:  13    -0.530797636413E+02    0.11664E-04   -0.28606E-06  6228   0.112E-02    0.485E-03
DAV:  14    -0.530797485051E+02    0.15136E-04   -0.39253E-06  7080   0.141E-02    0.602E-03
DAV:  15    -0.530797513207E+02   -0.28156E-05   -0.21626E-06  6328   0.881E-03    0.318E-03
DAV:  16    -0.530797654840E+02   -0.14163E-04   -0.35397E-06  6048   0.600E-03    0.254E-03
DAV:  17    -0.530797673725E+02   -0.18885E-05   -0.40270E-07  5680   0.292E-03    0.205E-03
DAV:  18    -0.530797715940E+02   -0.42215E-05   -0.10392E-06  5696   0.361E-03    0.872E-04
DAV:  19    -0.530797732168E+02   -0.16228E-05   -0.78710E-07  5862   0.228E-03    0.690E-04
DAV:  20    -0.530797733473E+02   -0.13051E-06   -0.11229E-07  5286   0.135E-03
   5 F= -.56956865E+02 E0= -.56956067E+02  d E =-.462927E-02
 trial-energy change:   -0.004629  1 .order   -0.004601   -0.005749   -0.003453
 step:   2.3909(harm=  2.6190)  dis= 0.02116  next Energy=   -56.959146 (dE=-0.691E-02)
 bond charge predicted
       N       E                     dE             d eps       ncg     rms          rms(c)
DAV:   1    -0.530803978093E+02   -0.62459E-03   -0.17737E+00  7726   0.421E+00    0.489E-01
DAV:   2    -0.530842107823E+02   -0.38130E-02   -0.42620E-02 10582   0.851E-01    0.165E-01
DAV:   3    -0.530840845243E+02    0.12626E-03   -0.10372E-03 10262   0.151E-01    0.140E-01
DAV:   4    -0.530839999942E+02    0.84530E-04   -0.29710E-04 11936   0.859E-02    0.722E-02
DAV:   5    -0.530839850795E+02    0.14915E-04   -0.11692E-04 11056   0.462E-02    0.249E-02
DAV:   6    -0.530839834873E+02    0.15922E-05   -0.34298E-05  9880   0.223E-02    0.252E-02
DAV:   7    -0.530839822699E+02    0.12174E-05   -0.21596E-06  6504   0.866E-03    0.194E-02
DAV:   8    -0.530839798268E+02    0.24431E-05   -0.31911E-06  7566   0.100E-02    0.110E-02
DAV:   9    -0.530839786800E+02    0.11468E-05   -0.15668E-06  6088   0.103E-02    0.428E-03
DAV:  10    -0.530839788063E+02   -0.12633E-06   -0.74707E-07  5216   0.403E-03
   6 F= -.56959475E+02 E0= -.56958521E+02  d E =-.723839E-02
 curvature:  -1.58 expect dE=-0.226E-02 dE for cont linesearch -0.849E-04
 ZBRENT: extrapolating
 opt :   2.6917  next Energy=   -56.959565 (dE=-0.733E-02)
 bond charge predicted
       N       E                     dE             d eps       ncg     rms          rms(c)
DAV:   1    -0.530842531005E+02   -0.27442E-03   -0.88623E-02  7756   0.940E-01    0.109E-01
DAV:   2    -0.530844426054E+02   -0.18950E-03   -0.21142E-03 10582   0.191E-01    0.371E-02
DAV:   3    -0.530844359081E+02    0.66972E-05   -0.54154E-05 10294   0.354E-02    0.312E-02
DAV:   4    -0.530844315839E+02    0.43242E-05   -0.14365E-05 10512   0.240E-02    0.177E-02
DAV:   5    -0.530844303755E+02    0.12084E-05   -0.69157E-06  8240   0.122E-02    0.538E-03
DAV:   6    -0.530844306928E+02   -0.31724E-06   -0.21843E-06  7016   0.710E-03
   7 F= -.56959570E+02 E0= -.56958578E+02  d E =-.733412E-02
 curvature:  -1.69 expect dE=-0.302E-02 dE for cont linesearch -0.209E-06
 trial: gam= 0.36323 g(F)=  0.178E-02 g(S)=  0.000E+00 ort = 0.290E-04 (trialstep = 0.138E+01)
 search vector abs. value=  0.270E-02
 bond charge predicted
       N       E                     dE             d eps       ncg     rms          rms(c)
DAV:   1    -0.530857558074E+02   -0.13254E-02   -0.74796E-01  7744   0.277E+00    0.283E-01
DAV:   2    -0.530870644495E+02   -0.13086E-02   -0.14892E-02 10384   0.537E-01    0.101E-01
DAV:   3    -0.530870275465E+02    0.36903E-04   -0.46007E-04 10176   0.102E-01    0.867E-02
DAV:   4    -0.530870061366E+02    0.21410E-04   -0.77244E-05 11760   0.520E-02    0.516E-02
DAV:   5    -0.530869968944E+02    0.92423E-05   -0.38516E-05 10822   0.352E-02    0.180E-02
DAV:   6    -0.530869962468E+02    0.64752E-06   -0.15236E-05  9330   0.172E-02    0.189E-02
DAV:   7    -0.530869960206E+02    0.22626E-06   -0.57721E-06  8032   0.109E-02
   8 F= -.56961293E+02 E0= -.56960212E+02  d E =-.172279E-02
 trial-energy change:   -0.001723  1 .order   -0.001732   -0.002468   -0.000997
 step:   2.3738(harm=  2.3067)  dis= 0.01498  next Energy=   -56.961651 (dE=-0.208E-02)
 bond charge predicted
       N       E                     dE             d eps       ncg     rms          rms(c)
DAV:   1    -0.530872943931E+02   -0.29815E-03   -0.39462E-01  7780   0.201E+00    0.210E-01
DAV:   2    -0.530879845003E+02   -0.69011E-03   -0.78826E-03 10488   0.389E-01    0.727E-02
DAV:   3    -0.530879637738E+02    0.20727E-04   -0.23963E-04 10224   0.736E-02    0.623E-02
DAV:   4    -0.530879522310E+02    0.11543E-04   -0.40769E-05 10944   0.381E-02    0.376E-02
DAV:   5    -0.530879468057E+02    0.54253E-05   -0.21653E-05 10032   0.267E-02    0.136E-02
DAV:   6    -0.530879461217E+02    0.68396E-06   -0.92001E-06  8472   0.134E-02
   9 F= -.56961631E+02 E0= -.56960498E+02  d E =-.206067E-02
 curvature:  -1.73 expect dE=-0.693E-03 dE for cont linesearch -0.778E-06
 trial: gam= 0.28494 g(F)=  0.401E-03 g(S)=  0.000E+00 ort =-0.349E-04 (trialstep = 0.157E+01)
 search vector abs. value=  0.601E-03
 bond charge predicted
       N       E                     dE             d eps       ncg     rms          rms(c)
DAV:   1    -0.530887448179E+02   -0.79801E-03   -0.29885E-01  8300   0.172E+00    0.149E-01
DAV:   2    -0.530892057192E+02   -0.46090E-03   -0.51402E-03 11424   0.319E-01    0.473E-02
DAV:   3    -0.530891985002E+02    0.72190E-05   -0.12127E-04 10304   0.530E-02    0.376E-02
DAV:   4    -0.530891921953E+02    0.63049E-05   -0.16415E-05 10456   0.271E-02    0.219E-02
DAV:   5    -0.530891872634E+02    0.49319E-05   -0.60110E-06  8384   0.189E-02    0.124E-02
DAV:   6    -0.530891830157E+02    0.42477E-05   -0.45192E-06  8776   0.123E-02    0.743E-03
DAV:   7    -0.530891816153E+02    0.14004E-05   -0.25319E-06  7824   0.716E-03    0.698E-03
DAV:   8    -0.530891811083E+02    0.50703E-06   -0.88696E-07  5216   0.411E-03
  10 F= -.56962034E+02 E0= -.56960868E+02  d E =-.403458E-03
 trial-energy change:   -0.000403  1 .order   -0.000412   -0.000616   -0.000207
 step:   2.5660(harm=  2.3728)  dis= 0.00829  next Energy=   -56.962098 (dE=-0.467E-03)
 bond charge predicted
       N       E                     dE             d eps       ncg     rms          rms(c)
DAV:   1    -0.530895751735E+02   -0.39356E-03   -0.11841E-01  8332   0.108E+00    0.945E-02
DAV:   2    -0.530897572213E+02   -0.18205E-03   -0.20318E-03 11408   0.200E-01    0.294E-02
DAV:   3    -0.530897536299E+02    0.35914E-05   -0.49665E-05  9816   0.324E-02    0.238E-02
DAV:   4    -0.530897500745E+02    0.35554E-05   -0.67264E-06  9912   0.173E-02    0.131E-02
DAV:   5    -0.530897474937E+02    0.25808E-05   -0.26117E-06  7752   0.123E-02    0.705E-03
DAV:   6    -0.530897450893E+02    0.24044E-05   -0.14118E-06  6104   0.761E-03    0.416E-03
DAV:   7    -0.530897439567E+02    0.11326E-05   -0.11047E-06  5672   0.526E-03    0.387E-03
DAV:   8    -0.530897432662E+02    0.69048E-06   -0.68278E-07  5704   0.464E-03
  11 F= -.56962073E+02 E0= -.56960895E+02  d E =-.442492E-03
 curvature:  -1.71 expect dE=-0.382E-03 dE for cont linesearch -0.327E-05
 trial: gam= 0.60593 g(F)=  0.223E-03 g(S)=  0.000E+00 ort =-0.338E-04 (trialstep = 0.177E+01)
 search vector abs. value=  0.402E-03
 bond charge predicted
       N       E                     dE             d eps       ncg     rms          rms(c)
DAV:   1    -0.530906057001E+02   -0.86174E-03   -0.18872E-01  7918   0.133E+00    0.146E-01
DAV:   2    -0.530910210800E+02   -0.41538E-03   -0.46088E-03 10894   0.297E-01    0.459E-02
DAV:   3    -0.530910134207E+02    0.76593E-05   -0.12154E-04 10512   0.485E-02    0.406E-02
DAV:   4    -0.530910108282E+02    0.25925E-05   -0.15454E-05 10368   0.160E-02    0.248E-02
DAV:   5    -0.530910094072E+02    0.14210E-05   -0.30346E-06  7376   0.797E-03    0.148E-02
DAV:   6    -0.530910089917E+02    0.41549E-06   -0.37759E-06  7610   0.122E-02
  12 F= -.56962355E+02 E0= -.56961144E+02  d E =-.281327E-03
 trial-energy change:   -0.000281  1 .order   -0.000282   -0.000359   -0.000205
 step:   4.1476(harm=  4.1476)  dis= 0.01064  next Energy=   -56.962493 (dE=-0.419E-03)
 bond charge predicted
       N       E                     dE             d eps       ncg     rms          rms(c)
DAV:   1    -0.530917375946E+02   -0.72819E-03   -0.33836E-01  7894   0.178E+00    0.198E-01
DAV:   2    -0.530924798264E+02   -0.74223E-03   -0.82785E-03 10952   0.399E-01    0.615E-02
DAV:   3    -0.530924660559E+02    0.13771E-04   -0.21782E-04 10616   0.649E-02    0.532E-02
DAV:   4    -0.530924609984E+02    0.50575E-05   -0.27285E-05 10832   0.215E-02    0.323E-02
DAV:   5    -0.530924582255E+02    0.27729E-05   -0.56742E-06  8096   0.108E-02    0.195E-02
DAV:   6    -0.530924566165E+02    0.16090E-05   -0.68988E-06  8416   0.178E-02    0.686E-03
DAV:   7    -0.530924566863E+02   -0.69722E-07   -0.39510E-06  8168   0.908E-03
  13 F= -.56962485E+02 E0= -.56961241E+02  d E =-.411494E-03
 curvature:  -4.12 expect dE=-0.192E-02 dE for cont linesearch -0.320E-07
 trial: gam= 1.91919 g(F)=  0.465E-03 g(S)=  0.000E+00 ort =-0.177E-05 (trialstep = 0.466E+00)
 search vector abs. value=  0.194E-02
 bond charge predicted
       N       E                     dE             d eps       ncg     rms          rms(c)
DAV:   1    -0.530931794975E+02   -0.72288E-03   -0.60110E-02  8112   0.735E-01    0.805E-02
DAV:   2    -0.530933257333E+02   -0.14624E-03   -0.16495E-03 10720   0.167E-01    0.247E-02
DAV:   3    -0.530933235590E+02    0.21743E-05   -0.36965E-05 10138   0.286E-02    0.231E-02
DAV:   4    -0.530933230731E+02    0.48590E-06   -0.45428E-06  8594   0.127E-02
  14 F= -.56962687E+02 E0= -.56961437E+02  d E =-.201956E-03
 ZBRENT: can't locate minimum, use default step
 trial-energy change:   -0.000202  1 .order   -0.000203   -0.000215   -0.000191
 step:   1.8648(harm=  4.2124)  dis= 0.00947  next Energy=   -56.963457 (dE=-0.972E-03)
 bond charge predicted
       N       E                     dE             d eps       ncg     rms          rms(c)
DAV:   1    -0.530944989950E+02   -0.11754E-02   -0.54024E-01  8080   0.220E+00    0.225E-01
DAV:   2    -0.530958252340E+02   -0.13262E-02   -0.14629E-02 10794   0.504E-01    0.838E-02
DAV:   3    -0.530957992615E+02    0.25973E-04   -0.29720E-04 10680   0.820E-02    0.747E-02
DAV:   4    -0.530957927267E+02    0.65348E-05   -0.40841E-05 11464   0.314E-02    0.506E-02
DAV:   5    -0.530957875100E+02    0.52167E-05   -0.15639E-05  8492   0.180E-02    0.291E-02
DAV:   6    -0.530957878076E+02   -0.29762E-06   -0.15662E-05  9904   0.193E-02    0.869E-03
DAV:   7    -0.530957883055E+02   -0.49788E-06   -0.38026E-06  8012   0.920E-03
  15 F= -.56963160E+02 E0= -.56961922E+02  d E =-.675154E-03
 curvature:  -5.38 expect dE=-0.938E-03 dE for cont linesearch -0.208E-03
 ZBRENT: increasing intervall
 opt :   4.6619  next Energy=   -56.963545 (dE=-0.106E-02)
 bond charge predicted
       N       E                     dE             d eps       ncg     rms          rms(c)
DAV:   1    -0.530948386856E+02    0.94912E-03   -0.21632E+00  8070   0.442E+00    0.471E-01
DAV:   2    -0.531003188822E+02   -0.54802E-02   -0.60836E-02 10794   0.106E+00    0.165E-01
DAV:   3    -0.531002050266E+02    0.11386E-03   -0.12459E-03 10976   0.182E-01    0.142E-01
DAV:   4    -0.531001786922E+02    0.26334E-04   -0.16903E-04 11096   0.577E-02    0.965E-02
DAV:   5    -0.531001593475E+02    0.19345E-04   -0.52183E-05  9796   0.356E-02    0.578E-02
DAV:   6    -0.531001574873E+02    0.18602E-05   -0.52195E-05 11268   0.425E-02    0.181E-02
DAV:   7    -0.531001587348E+02   -0.12476E-05   -0.13830E-05  9490   0.173E-02    0.136E-02
DAV:   8    -0.531001585610E+02    0.17381E-06   -0.16535E-06  6552   0.832E-03
  16 F= -.56963553E+02 E0= -.56962317E+02  d E =-.106768E-02
 curvature:  -9.95 expect dE=-0.322E-02 dE for cont linesearch -0.339E-06
 trial: gam= 0.91072 g(F)=  0.324E-03 g(S)=  0.000E+00 ort = 0.813E-05 (trialstep = 0.130E+01)
 search vector abs. value=  0.195E-02
 bond charge predicted
       N       E                     dE             d eps       ncg     rms          rms(c)
DAV:   1    -0.531010814074E+02   -0.92267E-03   -0.45868E-01  8162   0.220E+00    0.211E-01
DAV:   2    -0.531023538167E+02   -0.12724E-02   -0.13917E-02 10926   0.505E-01    0.764E-02
DAV:   3    -0.531023324267E+02    0.21390E-04   -0.26033E-04 10088   0.803E-02    0.695E-02
DAV:   4    -0.531023277082E+02    0.47185E-05   -0.32641E-05 10510   0.285E-02    0.515E-02
DAV:   5    -0.531023224646E+02    0.52435E-05   -0.12234E-05  8320   0.162E-02    0.324E-02
DAV:   6    -0.531023219228E+02    0.54180E-06   -0.19086E-05  9368   0.208E-02    0.771E-03
DAV:   7    -0.531023225050E+02   -0.58216E-06   -0.56005E-06  8242   0.106E-02
  17 F= -.56963919E+02 E0= -.56962690E+02  d E =-.366309E-03
 trial-energy change:   -0.000366  1 .order   -0.000364   -0.000430   -0.000297
 step:   4.1888(harm=  4.1888)  dis= 0.02157  next Energy=   -56.964246 (dE=-0.693E-03)
 bond charge predicted
       N       E                     dE             d eps       ncg     rms          rms(c)
DAV:   1    -0.531003364774E+02    0.19854E-02   -0.22604E+00  8174   0.489E+00    0.479E-01
DAV:   2    -0.531068229546E+02   -0.64865E-02   -0.71422E-02 11094   0.119E+00    0.183E-01
DAV:   3    -0.531066910898E+02    0.13186E-03   -0.12546E-03 10784   0.198E-01    0.154E-01
DAV:   4    -0.531066602469E+02    0.30843E-04   -0.15422E-04 10872   0.583E-02    0.115E-01
DAV:   5    -0.531066258476E+02    0.34399E-04   -0.70216E-05  9714   0.439E-02    0.686E-02
DAV:   6    -0.531066178551E+02    0.79925E-05   -0.89689E-05 10312   0.531E-02    0.163E-02
DAV:   7    -0.531066187171E+02   -0.86195E-06   -0.25318E-05  9816   0.226E-02    0.127E-02
DAV:   8    -0.531066178139E+02    0.90319E-06   -0.22580E-06  7728   0.107E-02
  18 F= -.56964227E+02 E0= -.56962993E+02  d E =-.674198E-03
 curvature: -12.32 expect dE=-0.910E-02 dE for cont linesearch -0.281E-05
 trial: gam= 2.43254 g(F)=  0.738E-03 g(S)=  0.000E+00 ort =-0.211E-04 (trialstep = 0.301E+00)
 search vector abs. value=  0.122E-01
 bond charge predicted
       N       E                     dE             d eps       ncg     rms          rms(c)
DAV:   1    -0.531074205341E+02   -0.80182E-03   -0.13106E-01  8010   0.119E+00    0.131E-01
DAV:   2    -0.531078359252E+02   -0.41539E-03   -0.45657E-03 10942   0.282E-01    0.447E-02
DAV:   3    -0.531078273906E+02    0.85346E-05   -0.84555E-05 10044   0.435E-02    0.404E-02
DAV:   4    -0.531078256442E+02    0.17464E-05   -0.12261E-05  9742   0.160E-02    0.282E-02
DAV:   5    -0.531078243762E+02    0.12680E-05   -0.42726E-06  7676   0.913E-03    0.176E-02
DAV:   6    -0.531078250017E+02   -0.62554E-06   -0.53818E-06  7800   0.856E-03
  19 F= -.56964431E+02 E0= -.56963199E+02  d E =-.204562E-03
 ZBRENT: can't locate minimum, use default step
 trial-energy change:   -0.000205  1 .order   -0.000195   -0.000207   -0.000182
 step:   1.2031(harm=  2.5602)  dis= 0.01572  next Energy=   -56.965106 (dE=-0.880E-03)
 bond charge predicted
       N       E                     dE             d eps       ncg     rms          rms(c)
DAV:   1    -0.531076592720E+02    0.16510E-03   -0.11779E+00  7986   0.357E+00    0.385E-01
DAV:   2    -0.531114125283E+02   -0.37533E-02   -0.41220E-02 10812   0.871E-01    0.140E-01
DAV:   3    -0.531113330357E+02    0.79493E-04   -0.79085E-04 10082   0.136E-01    0.124E-01
DAV:   4    -0.531113154813E+02    0.17554E-04   -0.10987E-04 11036   0.463E-02    0.891E-02
DAV:   5    -0.531113001329E+02    0.15348E-04   -0.32465E-05  9584   0.272E-02    0.594E-02
DAV:   6    -0.531112982239E+02    0.19090E-05   -0.55307E-05 10612   0.310E-02    0.145E-02
DAV:   7    -0.531113001045E+02   -0.18806E-05   -0.12747E-05  8664   0.163E-02    0.805E-03
DAV:   8    -0.531113007551E+02   -0.65059E-06   -0.83764E-07  5646   0.592E-03
  20 F= -.56964902E+02 E0= -.56963682E+02  d E =-.675310E-03
 curvature: -14.48 expect dE=-0.545E-02 dE for cont linesearch -0.202E-03
 ZBRENT: increasing intervall
 opt :   3.0077  next Energy=   -56.965293 (dE=-0.107E-02)
 bond charge predicted
       N       E                     dE             d eps       ncg     rms          rms(c)
DAV:   1    -0.531025641133E+02    0.87360E-02   -0.47087E+00  7986   0.714E+00    0.787E-01
DAV:   2    -0.531181568784E+02   -0.15593E-01   -0.17203E-01 10956   0.185E+00    0.306E-01
DAV:   3    -0.531177730484E+02    0.38383E-03   -0.30862E-03 10462   0.296E-01    0.253E-01
DAV:   4    -0.531176868543E+02    0.86194E-04   -0.42912E-04 10788   0.872E-02    0.186E-01
DAV:   5    -0.531176125632E+02    0.74291E-04   -0.13733E-04 10162   0.604E-02    0.122E-01
DAV:   6    -0.531175907375E+02    0.21826E-04   -0.21875E-04 10372   0.715E-02    0.310E-02
DAV:   7    -0.531175959474E+02   -0.52099E-05   -0.51159E-05  9018   0.335E-02    0.166E-02
DAV:   8    -0.531175966822E+02   -0.73478E-06   -0.37780E-06  7696   0.115E-02
  21 F= -.56965201E+02 E0= -.56963998E+02  d E =-.973896E-03
 curvature: -28.05 expect dE=-0.848E-02 dE for cont linesearch -0.207E-04
 ZBRENT: bracketing found
 ZBRENT: interpolating
 opt :   2.6702  next Energy=   -56.965217 (dE=-0.990E-03)
 bond charge predicted
       N       E                     dE             d eps       ncg     rms          rms(c)
DAV:   1    -0.531159904677E+02    0.16055E-02   -0.16447E-01  8004   0.133E+00    0.142E-01
DAV:   2    -0.531165063341E+02   -0.51587E-03   -0.56399E-03 10984   0.312E-01    0.509E-02
DAV:   3    -0.531164982185E+02    0.81156E-05   -0.10557E-04 10264   0.499E-02    0.472E-02
DAV:   4    -0.531164967311E+02    0.14874E-05   -0.13666E-05 10048   0.169E-02    0.332E-02
DAV:   5    -0.531164960794E+02    0.65173E-06   -0.52633E-06  7802   0.934E-03
  22 F= -.56965221E+02 E0= -.56964008E+02  d E =-.993707E-03
 curvature: -21.68 expect dE=-0.584E-02 dE for cont linesearch -0.823E-06
 trial: gam= 0.12181 g(F)=  0.270E-03 g(S)=  0.000E+00 ort = 0.215E-04 (trialstep = 0.775E+00)
 search vector abs. value=  0.455E-03
 bond charge predicted
       N       E                     dE             d eps       ncg     rms          rms(c)
DAV:   1    -0.531168601065E+02   -0.36338E-03   -0.29373E-02  7782   0.580E-01    0.820E-02
DAV:   2    -0.531169831020E+02   -0.12300E-03   -0.13158E-03 11232   0.159E-01    0.249E-02
DAV:   3    -0.531169800446E+02    0.30574E-05   -0.27280E-05 10330   0.240E-02    0.231E-02
DAV:   4    -0.531169795664E+02    0.47825E-06   -0.53770E-06  8432   0.101E-02
  23 F= -.56965410E+02 E0= -.56964197E+02  d E =-.189468E-03
 trial-energy change:   -0.000189  1 .order   -0.000185   -0.000211   -0.000159
 step:   1.8315(harm=  3.1496)  dis= 0.00463  next Energy=   -56.965530 (dE=-0.309E-03)
 bond charge predicted
       N       E                     dE             d eps       ncg     rms          rms(c)
DAV:   1    -0.531173382973E+02   -0.35825E-03   -0.54254E-02  7764   0.789E-01    0.103E-01
DAV:   2    -0.531175544532E+02   -0.21616E-03   -0.23217E-03 11448   0.213E-01    0.366E-02
DAV:   3    -0.531175481465E+02    0.63068E-05   -0.43818E-05 10394   0.310E-02    0.331E-02
DAV:   4    -0.531175466840E+02    0.14624E-05   -0.97948E-06  9584   0.131E-02    0.210E-02
DAV:   5    -0.531175461866E+02    0.49747E-06   -0.24396E-06  6836   0.870E-03
  24 F= -.56965576E+02 E0= -.56964370E+02  d E =-.355210E-03
 curvature:  -1.82 expect dE=-0.323E-03 dE for cont linesearch -0.554E-04
 ZBRENT: increasing intervall
 opt :   3.9452  next Energy=   -56.965639 (dE=-0.419E-03)
 bond charge predicted
       N       E                     dE             d eps       ncg     rms          rms(c)
DAV:   1    -0.531175686933E+02   -0.22009E-04   -0.21720E-01  7752   0.158E+00    0.220E-01
DAV:   2    -0.531184386241E+02   -0.86993E-03   -0.94416E-03 11376   0.426E-01    0.641E-02
DAV:   3    -0.531184128287E+02    0.25795E-04   -0.17412E-04 10480   0.611E-02    0.594E-02
DAV:   4    -0.531184072148E+02    0.56139E-05   -0.39578E-05 10184   0.244E-02    0.360E-02
DAV:   5    -0.531184049778E+02    0.22370E-05   -0.70083E-06  8424   0.144E-02    0.197E-02
DAV:   6    -0.531184047421E+02    0.23569E-06   -0.56567E-06  8644   0.109E-02
  25 F= -.56965634E+02 E0= -.56964417E+02  d E =-.413098E-03
 curvature:  -2.09 expect dE=-0.131E-02 dE for cont linesearch -0.192E-04
 ZBRENT: bracketing found
 ZBRENT: interpolating
 opt :   3.1947  next Energy=   -56.965658 (dE=-0.437E-03)
 bond charge predicted
       N       E                     dE             d eps       ncg     rms          rms(c)
DAV:   1    -0.531180358925E+02    0.36909E-03   -0.27404E-02  7788   0.561E-01    0.762E-02
DAV:   2    -0.531181476959E+02   -0.11180E-03   -0.12111E-03 11280   0.154E-01    0.252E-02
DAV:   3    -0.531181446219E+02    0.30740E-05   -0.24574E-05 10146   0.223E-02    0.232E-02
DAV:   4    -0.531181439819E+02    0.63999E-06   -0.48970E-06  8110   0.953E-03
  26 F= -.56965657E+02 E0= -.56964447E+02  d E =-.436447E-03
 curvature:  -2.64 expect dE=-0.109E-02 dE for cont linesearch -0.174E-07
 trial: gam= 1.53539 g(F)=  0.413E-03 g(S)=  0.000E+00 ort = 0.173E-05 (trialstep = 0.384E+00)
 search vector abs. value=  0.149E-02
 bond charge predicted
       N       E                     dE             d eps       ncg     rms          rms(c)
DAV:   1    -0.531183354175E+02   -0.19080E-03   -0.33379E-02  8188   0.558E-01    0.624E-02
DAV:   2    -0.531184312026E+02   -0.95785E-04   -0.10417E-03 11144   0.134E-01    0.170E-02
DAV:   3    -0.531184303306E+02    0.87206E-06   -0.22271E-05 10064   0.210E-02    0.158E-02
DAV:   4    -0.531184297939E+02    0.53663E-06   -0.29747E-06  7892   0.631E-03
  27 F= -.56965805E+02 E0= -.56964585E+02  d E =-.148259E-03
 ZBRENT: can't locate minimum, use default step
 trial-energy change:   -0.000148  1 .order   -0.000148   -0.000160   -0.000135
 step:   1.5366(harm=  2.5354)  dis= 0.00702  next Energy=   -56.966184 (dE=-0.527E-03)
 bond charge predicted
       N       E                     dE             d eps       ncg     rms          rms(c)
DAV:   1    -0.531183259243E+02    0.10441E-03   -0.29974E-01  8176   0.167E+00    0.171E-01
DAV:   2    -0.531191872358E+02   -0.86131E-03   -0.92923E-03 11224   0.404E-01    0.629E-02
DAV:   3    -0.531191774465E+02    0.97892E-05   -0.19544E-04 10876   0.668E-02    0.557E-02
DAV:   4    -0.531191723114E+02    0.51351E-05   -0.25882E-05 10424   0.193E-02    0.357E-02
DAV:   5    -0.531191700564E+02    0.22550E-05   -0.83019E-06  8594   0.158E-02    0.138E-02
DAV:   6    -0.531191699862E+02    0.70173E-07   -0.45645E-06  9328   0.118E-02
  28 F= -.56966135E+02 E0= -.56964884E+02  d E =-.477631E-03
 curvature:  -3.57 expect dE=-0.697E-03 dE for cont linesearch -0.109E-03
 ZBRENT: increasing intervall
 opt :   3.8414  next Energy=   -56.966304 (dE=-0.647E-03)
 bond charge predicted
       N       E                     dE             d eps       ncg     rms          rms(c)
DAV:   1    -0.531165868446E+02    0.25832E-02   -0.11978E+00  8176   0.334E+00    0.363E-01
DAV:   2    -0.531202054033E+02   -0.36186E-02   -0.39354E-02 11296   0.850E-01    0.130E-01
DAV:   3    -0.531201559410E+02    0.49462E-04   -0.80108E-04 10738   0.147E-01    0.108E-01
DAV:   4    -0.531201358317E+02    0.20109E-04   -0.11027E-04 11336   0.415E-02    0.730E-02
DAV:   5    -0.531201262455E+02    0.95862E-05   -0.24852E-05 10466   0.282E-02    0.340E-02
DAV:   6    -0.531201245591E+02    0.16864E-05   -0.19016E-05 11440   0.279E-02    0.163E-02
DAV:   7    -0.531201250546E+02   -0.49553E-06   -0.90703E-06 10816   0.146E-02
  29 F= -.56966277E+02 E0= -.56964988E+02  d E =-.620125E-03
 curvature:  -5.55 expect dE=-0.297E-02 dE for cont linesearch -0.287E-04
 ZBRENT: bracketing found
 ZBRENT: interpolating
 opt :   3.1689  next Energy=   -56.966307 (dE=-0.650E-03)
 bond charge predicted
       N       E                     dE             d eps       ncg     rms          rms(c)
DAV:   1    -0.531196400384E+02    0.48452E-03   -0.10196E-01  8194   0.973E-01    0.934E-02
DAV:   2    -0.531199240849E+02   -0.28405E-03   -0.30455E-03 11306   0.234E-01    0.377E-02
DAV:   3    -0.531199209303E+02    0.31546E-05   -0.53433E-05  9622   0.339E-02    0.332E-02
DAV:   4    -0.531199197048E+02    0.12256E-05   -0.94365E-06 10478   0.137E-02    0.217E-02
DAV:   5    -0.531199196422E+02    0.62546E-07   -0.25480E-06  6924   0.993E-03
  30 F= -.56966308E+02 E0= -.56965020E+02  d E =-.650516E-03
 curvature:  -5.71 expect dE=-0.203E-02 dE for cont linesearch -0.495E-07
 trial: gam= 0.85089 g(F)=  0.355E-03 g(S)=  0.000E+00 ort = 0.359E-05 (trialstep = 0.941E+00)
 search vector abs. value=  0.144E-02
 bond charge predicted
       N       E                     dE             d eps       ncg     rms          rms(c)
DAV:   1    -0.531198635146E+02    0.56190E-04   -0.14373E-01  7752   0.126E+00    0.155E-01
DAV:   2    -0.531204052419E+02   -0.54173E-03   -0.58774E-03 10984   0.335E-01    0.557E-02
DAV:   3    -0.531203928585E+02    0.12383E-04   -0.12411E-04  9704   0.516E-02    0.493E-02
DAV:   4    -0.531203889174E+02    0.39410E-05   -0.24285E-05 10758   0.180E-02    0.322E-02
DAV:   5    -0.531203880702E+02    0.84720E-06   -0.30914E-06  7294   0.873E-03
  31 F= -.56966599E+02 E0= -.56965315E+02  d E =-.291128E-03
 trial-energy change:   -0.000291  1 .order   -0.000289   -0.000337   -0.000242
 step:   3.3393(harm=  3.3393)  dis= 0.01199  next Energy=   -56.966905 (dE=-0.597E-03)
 bond charge predicted
       N       E                     dE             d eps       ncg     rms          rms(c)
DAV:   1    -0.531177739790E+02    0.26149E-02   -0.93102E-01  7734   0.320E+00    0.395E-01
DAV:   2    -0.531212667166E+02   -0.34927E-02   -0.38067E-02 10984   0.870E-01    0.143E-01
DAV:   3    -0.531211880439E+02    0.78673E-04   -0.81510E-04 10546   0.134E-01    0.127E-01
DAV:   4    -0.531211635269E+02    0.24517E-04   -0.13737E-04 11080   0.426E-02    0.840E-02
DAV:   5    -0.531211549499E+02    0.85771E-05   -0.21871E-05 10838   0.234E-02    0.515E-02
DAV:   6    -0.531211515723E+02    0.33776E-05   -0.25802E-05 10142   0.273E-02    0.158E-02
DAV:   7    -0.531211523142E+02   -0.74191E-06   -0.11635E-05  9274   0.139E-02    0.694E-03
DAV:   8    -0.531211521332E+02    0.18097E-06   -0.91727E-07  5566   0.527E-03
  32 F= -.56966916E+02 E0= -.56965631E+02  d E =-.608648E-03
 curvature:  -6.72 expect dE=-0.810E-03 dE for cont linesearch -0.292E-07
 trial: gam= 0.33525 g(F)=  0.120E-03 g(S)=  0.000E+00 ort =-0.250E-05 (trialstep = 0.142E+01)
 search vector abs. value=  0.281E-03
 bond charge predicted
       N       E                     dE             d eps       ncg     rms          rms(c)
DAV:   1    -0.531211224481E+02    0.29866E-04   -0.10286E-01  8370   0.981E-01    0.114E-01
DAV:   2    -0.531213960208E+02   -0.27357E-03   -0.29966E-03 11840   0.237E-01    0.333E-02
DAV:   3    -0.531213921992E+02    0.38216E-05   -0.51690E-05 10424   0.340E-02    0.299E-02
DAV:   4    -0.531213898379E+02    0.23613E-05   -0.74678E-06  9544   0.122E-02    0.177E-02
DAV:   5    -0.531213880445E+02    0.17933E-05   -0.19876E-06  6672   0.107E-02    0.726E-03
DAV:   6    -0.531213871113E+02    0.93320E-06   -0.23873E-06  7368   0.861E-03
  33 F= -.56967019E+02 E0= -.56965734E+02  d E =-.102620E-03
 trial-energy change:   -0.000103  1 .order   -0.000103   -0.000170   -0.000037
 step:   1.8147(harm=  1.8147)  dis= 0.00359  next Energy=   -56.967025 (dE=-0.109E-03)
 reached required accuracy - stopping structural energy minimisation
