WP2-P02-beta001-thickness-2L-relax-500-k
           1
     3.878284    0.000000    0.000000
    -1.939142    3.358693    0.000000
     0.000000   -0.000000   41.568291
   S    In   Zn   S    In   Zn
     4     2     1     4     2     1
Direct configuration=           1
   0.00000000  0.00000000  0.24056798
   0.66666666  0.33333331  0.32567432
   0.00000000  0.00000000  0.39280541
   0.33333331  0.66666666  0.46717961
   0.66666666  0.33333331  0.26671232
   0.33333331  0.66666666  0.36236517
   0.00000000  0.00000000  0.45384415
   0.00000000  0.00000000  0.53282039
   0.66666666  0.33333331  0.61792672
   0.00000000  0.00000000  0.68505782
   0.33333331  0.66666666  0.75943202
   0.66666666  0.33333331  0.55896473
   0.33333331  0.66666666  0.65461758
   0.00000000  0.00000000  0.74609655
Direct configuration=           2
   0.00000004  0.00000002  0.24022118
   0.66666665  0.33333329  0.32540291
   0.00000002  0.99999998  0.39266429
   0.33333346  0.66666653  0.46699640
   0.66666664  0.33333336  0.26714486
   0.33333334  0.66666663  0.36261638
   0.99999975  0.00000020  0.45402820
   0.00000003  0.99999997  0.53278908
   0.66666668  0.33333332  0.61771339
   0.99999998  0.99999997  0.68490460
   0.33333342  0.66666655  0.75934974
   0.66666675  0.33333323  0.55916836
   0.33333335  0.66666661  0.65476859
   0.99999978  0.00000021  0.74629680
Direct configuration=           3
   0.00000006  0.00000003  0.24011820
   0.66666664  0.33333329  0.32532232
   0.00000002  0.99999998  0.39262238
   0.33333350  0.66666650  0.46694199
   0.66666663  0.33333337  0.26727330
   0.33333335  0.66666662  0.36269097
   0.99999967  0.00000026  0.45408285
   0.00000004  0.99999996  0.53277978
   0.66666668  0.33333332  0.61765004
   0.99999998  0.99999997  0.68485910
   0.33333346  0.66666651  0.75932530
   0.66666677  0.33333321  0.55922882
   0.33333337  0.66666659  0.65481343
   0.99999971  0.00000027  0.74635626
Direct configuration=           4
   0.00000005  0.00000003  0.24014148
   0.66666664  0.33333329  0.32534054
   0.00000002  0.99999998  0.39263186
   0.33333349  0.66666650  0.46695429
   0.66666663  0.33333337  0.26724426
   0.33333334  0.66666662  0.36267411
   0.99999969  0.00000025  0.45407050
   0.00000004  0.99999996  0.53278188
   0.66666668  0.33333332  0.61766436
   0.99999998  0.99999997  0.68486938
   0.33333345  0.66666652  0.75933083
   0.66666677  0.33333321  0.55921515
   0.33333336  0.66666660  0.65480330
   0.99999973  0.00000026  0.74634282
Direct configuration=           5
   0.00000007  0.00000001  0.23997483
   0.66666667  0.33333326  0.32546199
   0.00000004  0.99999996  0.39256959
   0.33333348  0.66666651  0.46674947
   0.66666659  0.33333344  0.26717359
   0.33333337  0.66666660  0.36276764
   0.99999958  0.00000037  0.45426223
   0.00000010  0.99999989  0.53282091
   0.66666671  0.33333329  0.61767367
   1.00000000  0.99999995  0.68478244
   0.33333347  0.66666650  0.75923477
   0.66666683  0.33333316  0.55920400
   0.33333338  0.66666658  0.65482410
   0.99999960  0.00000038  0.74656553
Direct configuration=           6
   0.00000009  0.99999998  0.23976055
   0.66666669  0.33333322  0.32561814
   0.00000006  0.99999994  0.39248953
   0.33333345  0.66666651  0.46648609
   0.66666653  0.33333353  0.26708271
   0.33333340  0.66666657  0.36288792
   0.99999944  0.00000053  0.45450876
   0.00000019  0.99999979  0.53287109
   0.66666674  0.33333324  0.61768564
   0.00000002  0.99999992  0.68467065
   0.33333350  0.66666647  0.75911126
   0.66666691  0.33333308  0.55918966
   0.33333340  0.66666656  0.65485085
   0.99999944  0.00000054  0.74685190
Direct configuration=           7
   0.00000010  0.99999997  0.23971263
   0.66666670  0.33333321  0.32565306
   0.00000006  0.99999993  0.39247163
   0.33333345  0.66666651  0.46642720
   0.66666652  0.33333355  0.26706239
   0.33333341  0.66666657  0.36291482
   0.99999941  0.00000057  0.45456389
   0.00000021  0.99999977  0.53288231
   0.66666675  0.33333323  0.61768832
   0.00000003  0.99999991  0.68464565
   0.33333350  0.66666647  0.75908364
   0.66666693  0.33333306  0.55918646
   0.33333341  0.66666655  0.65485683
   0.99999940  0.00000057  0.74691593
Direct configuration=           8
   0.00000005  0.00000002  0.23962505
   0.66666674  0.33333317  0.32555741
   0.00000008  0.99999992  0.39260381
   0.33333323  0.66666673  0.46625678
   0.66666659  0.33333349  0.26703931
   0.33333346  0.66666652  0.36288115
   0.99999960  0.00000039  0.45469633
   0.00000030  0.99999968  0.53287876
   0.66666678  0.33333317  0.61766334
   0.00000007  0.99999989  0.68469131
   0.33333334  0.66666663  0.75901395
   0.66666697  0.33333301  0.55924774
   0.33333339  0.66666656  0.65478513
   0.99999928  0.00000069  0.74712470
Direct configuration=           9
   0.00000002  0.00000006  0.23956144
   0.66666677  0.33333314  0.32548794
   0.00000010  0.99999990  0.39269980
   0.33333306  0.66666689  0.46613300
   0.66666665  0.33333344  0.26702254
   0.33333350  0.66666649  0.36285671
   0.99999973  0.00000026  0.45479252
   0.00000036  0.99999962  0.53287617
   0.66666681  0.33333314  0.61764519
   0.00000009  0.99999987  0.68472447
   0.33333322  0.66666674  0.75896334
   0.66666700  0.33333297  0.55929225
   0.33333339  0.66666657  0.65473306
   0.99999919  0.00000077  0.74727632
Direct configuration=          10
   0.00000003  0.00000006  0.23956662
   0.66666681  0.33333310  0.32540281
   0.00000013  0.99999988  0.39271604
   0.33333317  0.66666680  0.46608759
   0.66666672  0.33333336  0.26691494
   0.33333357  0.66666642  0.36287529
   0.99999964  0.00000033  0.45483304
   0.00000041  0.99999958  0.53287999
   0.66666685  0.33333308  0.61765053
   0.00000013  0.99999985  0.68472870
   0.33333300  0.66666695  0.75897140
   0.66666702  0.33333295  0.55925903
   0.33333336  0.66666660  0.65478009
   0.99999904  0.00000091  0.74739870
Direct configuration=          11
   0.00000005  0.00000006  0.23956988
   0.66666684  0.33333308  0.32534924
   0.00000016  0.99999986  0.39272626
   0.33333324  0.66666675  0.46605900
   0.66666676  0.33333332  0.26684721
   0.33333362  0.66666638  0.36288698
   0.99999959  0.00000038  0.45485854
   0.00000043  0.99999955  0.53288239
   0.66666687  0.33333305  0.61765388
   0.00000015  0.99999983  0.68473136
   0.33333287  0.66666708  0.75897648
   0.66666704  0.33333294  0.55923812
   0.33333334  0.66666663  0.65480969
   0.99999895  0.00000099  0.74747573
Direct configuration=          12
   0.00000014  0.99999997  0.23951229
   0.66666693  0.33333300  0.32527075
   0.00000024  0.99999979  0.39268290
   0.33333329  0.66666669  0.46606117
   0.66666682  0.33333326  0.26680585
   0.33333375  0.66666626  0.36286548
   0.99999950  0.00000047  0.45486640
   0.00000046  0.99999952  0.53285422
   0.66666690  0.33333301  0.61763294
   0.00000013  0.99999986  0.68476419
   0.33333260  0.66666732  0.75903765
   0.66666709  0.33333288  0.55925918
   0.33333328  0.66666669  0.65486660
   0.99999875  0.00000118  0.74758515
Direct configuration=          13
   0.00000027  0.99999984  0.23943517
   0.66666705  0.33333290  0.32516564
   0.00000035  0.99999970  0.39262483
   0.33333336  0.66666661  0.46606406
   0.66666691  0.33333317  0.26675045
   0.33333392  0.66666609  0.36283669
   0.99999938  0.00000059  0.45487693
   0.00000049  0.99999949  0.53281649
   0.66666693  0.33333295  0.61760489
   0.00000011  0.99999989  0.68480817
   0.33333225  0.66666765  0.75911958
   0.66666717  0.33333281  0.55928738
   0.33333321  0.66666677  0.65494280
   0.99999848  0.00000142  0.74773169
Direct configuration=          14
   0.00000033  0.99999978  0.23939325
   0.66666711  0.33333284  0.32514591
   0.00000042  0.99999963  0.39259478
   0.33333332  0.66666664  0.46606704
   0.66666696  0.33333312  0.26672232
   0.33333399  0.66666604  0.36280247
   0.99999936  0.00000061  0.45487665
   0.00000052  0.99999946  0.53280983
   0.66666694  0.33333294  0.61762094
   0.00000007  0.99999993  0.68483752
   0.33333211  0.66666777  0.75916499
   0.66666719  0.33333279  0.55928192
   0.33333321  0.66666678  0.65495847
   0.99999835  0.00000155  0.74778867
Direct configuration=          15
   0.00000052  0.99999960  0.23926751
   0.66666730  0.33333268  0.32508673
   0.00000063  0.99999944  0.39250462
   0.33333320  0.66666674  0.46607596
   0.66666711  0.33333298  0.26663793
   0.33333419  0.66666586  0.36269983
   0.99999932  0.00000064  0.45487580
   0.00000060  0.99999938  0.53278984
   0.66666696  0.33333290  0.61766910
   0.99999997  0.00000005  0.68492559
   0.33333170  0.66666815  0.75930122
   0.66666724  0.33333273  0.55926555
   0.33333319  0.66666681  0.65500548
   0.99999796  0.00000192  0.74795961
Direct configuration=          16
   0.00000089  0.99999924  0.23901601
   0.66666768  0.33333234  0.32496837
   0.00000105  0.99999906  0.39232429
   0.33333297  0.66666694  0.46609381
   0.66666742  0.33333270  0.26646914
   0.33333458  0.66666551  0.36249453
   0.99999923  0.00000072  0.45487410
   0.00000075  0.99999921  0.53274987
   0.66666699  0.33333282  0.61776542
   0.99999976  0.00000028  0.68510174
   0.33333088  0.66666890  0.75957368
   0.66666736  0.33333261  0.55923280
   0.33333316  0.66666686  0.65509950
   0.99999717  0.00000267  0.74830150
Direct configuration=          17
   0.00000104  0.99999909  0.23893088
   0.66666788  0.33333215  0.32488428
   0.00000127  0.99999886  0.39225765
   0.33333284  0.66666708  0.46608304
   0.66666762  0.33333251  0.26636383
   0.33333473  0.66666538  0.36239799
   0.99999910  0.00000082  0.45483893
   0.00000082  0.99999915  0.53276726
   0.66666697  0.33333285  0.61777190
   0.99999966  0.00000039  0.68518036
   0.33333055  0.66666922  0.75973479
   0.66666746  0.33333251  0.55929281
   0.33333318  0.66666684  0.65514423
   0.99999676  0.00000304  0.74841683
Direct configuration=          18
   0.00000138  0.99999876  0.23874175
   0.66666834  0.33333173  0.32469749
   0.00000177  0.99999840  0.39210961
   0.33333254  0.66666738  0.46605909
   0.66666805  0.33333209  0.26612990
   0.33333507  0.66666508  0.36218352
   0.99999882  0.00000105  0.45476079
   0.00000096  0.99999899  0.53280589
   0.66666692  0.33333290  0.61778630
   0.99999944  0.00000064  0.68535502
   0.33332982  0.66666992  0.76009267
   0.66666769  0.33333227  0.55942611
   0.33333323  0.66666679  0.65524358
   0.99999585  0.00000388  0.74867304
Direct configuration=          19
   0.00000148  0.99999866  0.23869316
   0.66666846  0.33333162  0.32463330
   0.00000188  0.99999830  0.39206933
   0.33333247  0.66666745  0.46604530
   0.66666817  0.33333198  0.26607661
   0.33333517  0.66666499  0.36213693
   0.99999872  0.00000113  0.45473358
   0.00000101  0.99999894  0.53283400
   0.66666691  0.33333291  0.61781472
   0.99999940  0.00000068  0.68539070
   0.33332962  0.66667011  0.76018719
   0.66666774  0.33333221  0.55944295
   0.33333323  0.66666680  0.65527318
   0.99999562  0.00000409  0.74873382
Direct configuration=          20
   0.00000178  0.99999838  0.23854739
   0.66666883  0.33333129  0.32444071
   0.00000222  0.99999798  0.39194849
   0.33333225  0.66666765  0.46600390
   0.66666851  0.33333165  0.26591674
   0.33333546  0.66666473  0.36199717
   0.99999845  0.00000138  0.45465194
   0.00000114  0.99999880  0.53291835
   0.66666687  0.33333297  0.61789998
   0.99999929  0.00000079  0.68549775
   0.33332902  0.66667068  0.76047074
   0.66666791  0.33333203  0.55949346
   0.33333321  0.66666682  0.65536199
   0.99999493  0.00000471  0.74891616
Direct configuration=          21
   0.00000238  0.99999781  0.23825585
   0.66666956  0.33333063  0.32405553
   0.00000291  0.99999735  0.39170680
   0.33333181  0.66666806  0.46592112
   0.66666920  0.33333100  0.26559700
   0.33333605  0.66666420  0.36171765
   0.99999791  0.00000188  0.45448867
   0.00000140  0.99999851  0.53308705
   0.66666679  0.33333308  0.61807051
   0.99999908  0.00000102  0.68571184
   0.33332783  0.66667182  0.76103784
   0.66666823  0.33333169  0.55959448
   0.33333318  0.66666685  0.65553961
   0.99999355  0.00000597  0.74928082
Direct configuration=          22
   0.00000226  0.99999792  0.23831038
   0.66666942  0.33333075  0.32412757
   0.00000278  0.99999747  0.39175201
   0.33333190  0.66666799  0.46593660
   0.66666907  0.33333112  0.26565680
   0.33333594  0.66666430  0.36176993
   0.99999801  0.00000179  0.45451921
   0.00000135  0.99999857  0.53305550
   0.66666680  0.33333306  0.61803862
   0.99999912  0.00000098  0.68567179
   0.33332805  0.66667161  0.76093178
   0.66666817  0.33333175  0.55957558
   0.33333319  0.66666685  0.65550639
   0.99999381  0.00000574  0.74921262
Direct configuration=          23
   0.00000236  0.99999783  0.23828229
   0.66666946  0.33333072  0.32412795
   0.00000275  0.99999750  0.39172121
   0.33333186  0.66666800  0.46590757
   0.66666909  0.33333110  0.26563606
   0.33333603  0.66666420  0.36176288
   0.99999799  0.00000183  0.45449730
   0.00000140  0.99999852  0.53307909
   0.66666680  0.33333307  0.61808575
   0.99999920  0.00000089  0.68567117
   0.33332791  0.66667172  0.76093944
   0.66666816  0.33333176  0.55959217
   0.33333310  0.66666694  0.65553299
   0.99999377  0.00000579  0.74922890
Direct configuration=          24
   0.00000250  0.99999771  0.23824395
   0.66666950  0.33333068  0.32412847
   0.00000270  0.99999755  0.39167919
   0.33333180  0.66666802  0.46586796
   0.66666912  0.33333107  0.26560777
   0.33333616  0.66666407  0.36175328
   0.99999797  0.00000189  0.45446741
   0.00000145  0.99999846  0.53311128
   0.66666681  0.33333307  0.61815005
   0.99999930  0.00000077  0.68567031
   0.33332773  0.66667186  0.76094989
   0.66666815  0.33333178  0.55961480
   0.33333297  0.66666707  0.65556930
   0.99999372  0.00000587  0.74925112
Direct configuration=          25
   0.00000277  0.99999747  0.23816729
   0.66666960  0.33333058  0.32412951
   0.00000261  0.99999765  0.39159514
   0.33333170  0.66666805  0.46578875
   0.66666917  0.33333102  0.26555118
   0.33333643  0.66666382  0.36173406
   0.99999793  0.00000201  0.45440763
   0.00000157  0.99999834  0.53317566
   0.66666681  0.33333309  0.61827864
   0.99999950  0.00000054  0.68566859
   0.33332736  0.66667216  0.76097080
   0.66666812  0.33333180  0.55966005
   0.33333271  0.66666733  0.65564190
   0.99999361  0.00000602  0.74929556
Direct configuration=          26
   0.00000267  0.99999755  0.23819451
   0.66666957  0.33333062  0.32412914
   0.00000264  0.99999761  0.39162498
   0.33333173  0.66666804  0.46581687
   0.66666915  0.33333104  0.26557127
   0.33333633  0.66666391  0.36174088
   0.99999795  0.00000197  0.45442885
   0.00000153  0.99999839  0.53315280
   0.66666681  0.33333308  0.61823298
   0.99999943  0.00000062  0.68566920
   0.33332749  0.66667205  0.76096338
   0.66666813  0.33333179  0.55964398
   0.33333281  0.66666724  0.65561612
   0.99999365  0.00000597  0.74927978
Direct configuration=          27
   0.00000274  0.99999749  0.23817044
   0.66666960  0.33333058  0.32411992
   0.00000263  0.99999763  0.39160661
   0.33333171  0.66666806  0.46578583
   0.66666919  0.33333100  0.26556503
   0.33333639  0.66666386  0.36173054
   0.99999793  0.00000200  0.45440464
   0.00000155  0.99999837  0.53317257
   0.66666680  0.33333310  0.61825605
   0.99999947  0.00000057  0.68568123
   0.33332740  0.66667213  0.76095898
   0.66666813  0.33333179  0.55968617
   0.33333275  0.66666729  0.65563872
   0.99999359  0.00000603  0.74928802
Direct configuration=          28
   0.00000295  0.99999729  0.23809823
   0.66666971  0.33333048  0.32409226
   0.00000258  0.99999767  0.39155149
   0.33333165  0.66666813  0.46569269
   0.66666931  0.33333088  0.26554632
   0.33333655  0.66666370  0.36169950
   0.99999786  0.00000207  0.45433200
   0.00000160  0.99999831  0.53323189
   0.66666678  0.33333314  0.61832527
   0.99999958  0.00000043  0.68571731
   0.33332713  0.66667236  0.76094577
   0.66666815  0.33333177  0.55981275
   0.33333260  0.66666743  0.65570653
   0.99999342  0.00000622  0.74931274
Direct configuration=          29
   0.00000338  0.99999690  0.23795381
   0.66666992  0.33333028  0.32403694
   0.00000250  0.99999776  0.39144125
   0.33333152  0.66666827  0.46550641
   0.66666954  0.33333065  0.26550891
   0.33333687  0.66666338  0.36163742
   0.99999774  0.00000223  0.45418672
   0.00000171  0.99999819  0.53335053
   0.66666675  0.33333321  0.61846370
   0.99999980  0.00000014  0.68578947
   0.33332660  0.66667283  0.76091937
   0.66666819  0.33333173  0.56006591
   0.33333229  0.66666772  0.65584215
   0.99999307  0.00000660  0.74936218
Direct configuration=          30
   0.00000325  0.99999701  0.23799594
   0.66666986  0.33333034  0.32405308
   0.00000252  0.99999773  0.39147341
   0.33333156  0.66666823  0.46556076
   0.66666947  0.33333072  0.26551982
   0.33333678  0.66666348  0.36165553
   0.99999777  0.00000218  0.45422911
   0.00000168  0.99999822  0.53331592
   0.66666676  0.33333319  0.61842331
   0.99999973  0.00000022  0.68576842
   0.33332675  0.66667269  0.76092707
   0.66666818  0.33333174  0.55999205
   0.33333238  0.66666764  0.65580258
   0.99999317  0.00000649  0.74934776
Direct configuration=          31
   0.00000332  0.99999694  0.23797910
   0.66666997  0.33333023  0.32400343
   0.00000264  0.99999761  0.39145694
   0.33333154  0.66666832  0.46548574
   0.66666968  0.33333053  0.26548726
   0.33333672  0.66666354  0.36161430
   0.99999769  0.00000222  0.45417019
   0.00000165  0.99999825  0.53339718
   0.66666670  0.33333326  0.61848363
   0.99999960  0.00000034  0.68583747
   0.33332670  0.66667279  0.76089925
   0.66666827  0.33333164  0.56004518
   0.33333250  0.66666750  0.65584777
   0.99999289  0.00000672  0.74935733
Direct configuration=          32
   0.00000348  0.99999677  0.23793617
   0.66667025  0.33332996  0.32387689
   0.00000295  0.99999731  0.39141496
   0.33333149  0.66666854  0.46529456
   0.66667021  0.33333005  0.26540429
   0.33333656  0.66666370  0.36150923
   0.99999749  0.00000232  0.45402004
   0.00000159  0.99999831  0.53360425
   0.66666656  0.33333342  0.61863733
   0.99999926  0.00000065  0.68601345
   0.33332655  0.66667303  0.76082836
   0.66666852  0.33333138  0.56018058
   0.33333278  0.66666714  0.65596293
   0.99999218  0.00000730  0.74938173
Direct configuration=          33
   0.00000361  0.99999666  0.23795249
   0.66667028  0.33332992  0.32386109
   0.00000302  0.99999724  0.39137215
   0.33333140  0.66666853  0.46528040
   0.66667030  0.33332996  0.26534463
   0.33333652  0.66666373  0.36148838
   0.99999752  0.00000240  0.45399068
   0.00000167  0.99999824  0.53363708
   0.66666654  0.33333343  0.61866066
   0.99999915  0.00000076  0.68605069
   0.33332636  0.66667320  0.76082075
   0.66666851  0.33333139  0.56020549
   0.33333285  0.66666706  0.65603060
   0.99999215  0.00000736  0.74936970
