beta_001_t07                            
   1.0000000000000000     
     3.8782842923155867    0.0000000000000000    0.0000000000000000
    -1.9391421461577933    3.3586927202930394    0.0000000000000000
     0.0000000000000000    0.0000000000000000   29.4198582101956134
   S    In   Zn
     4     2     1
Direct
     0.0000000000000000    0.0000000000000000    0.3399064648290704
     0.6666666570000004    0.3333333129999971    0.4601560235977828
     0.0000000000000000    0.0000000000000000    0.5550077658629888
     0.3333333129999971    0.6666666570000004    0.6600935351709296
     0.6666666570000004    0.3333333129999971    0.3768466671263297
     0.3333333129999971    0.6666666570000004    0.5119977448354049
     0.0000000000000000    0.0000000000000000    0.6412514132556169

  0.00000000E+00  0.00000000E+00  0.00000000E+00
  0.00000000E+00  0.00000000E+00  0.00000000E+00
  0.00000000E+00  0.00000000E+00  0.00000000E+00
  0.00000000E+00  0.00000000E+00  0.00000000E+00
  0.00000000E+00  0.00000000E+00  0.00000000E+00
  0.00000000E+00  0.00000000E+00  0.00000000E+00
  0.00000000E+00  0.00000000E+00  0.00000000E+00
