   7   7   0   0
  0.5474601E+02  0.3878284E-09  0.3878284E-09  0.2941986E-08  0.5000000E-15
   1.0000000000000000E-004
  CAR 
 WP2-P01-A0-beta001-static-no-dipole     
      5.57542811    -18.75977319  301     -1.04834265      1.00000000
    -18.760  0.0000E+00  0.0000E+00
    -18.679  0.0000E+00  0.0000E+00
    -18.598  0.0000E+00  0.0000E+00
    -18.516  0.0000E+00  0.0000E+00
    -18.435  0.0000E+00  0.0000E+00
    -18.354  0.0000E+00  0.0000E+00
    -18.273  0.0000E+00  0.0000E+00
    -18.192  0.0000E+00  0.0000E+00
    -18.111  0.0000E+00  0.0000E+00
    -18.030  0.0000E+00  0.0000E+00
    -17.949  0.0000E+00  0.0000E+00
    -17.867  0.3317E-08  0.2691E-09
    -17.786  0.4772E-03  0.3871E-04
    -17.705  0.5301E+00  0.4304E-01
    -17.624  0.8757E+01  0.7533E+00
    -17.543  0.8529E+01  0.1445E+01
    -17.462  0.4079E+01  0.1776E+01
    -17.381  0.2442E+01  0.1974E+01
    -17.300  0.2492E+01  0.2176E+01
    -17.219  0.2072E+02  0.3857E+01
    -17.137  0.2277E+02  0.5704E+01
    -17.056  0.2874E+02  0.8036E+01
    -16.975  0.2293E+02  0.9896E+01
    -16.894  0.1286E+01  0.1000E+02
    -16.813  0.1295E-02  0.1000E+02
    -16.732  0.4215E-01  0.1000E+02
    -16.651  0.2434E+01  0.1020E+02
    -16.570  0.9304E+01  0.1096E+02
    -16.488  0.6888E+01  0.1151E+02
    -16.407  0.3803E+01  0.1182E+02
    -16.326  0.5995E+01  0.1231E+02
    -16.245  0.1385E+02  0.1343E+02
    -16.164  0.2356E+02  0.1534E+02
    -16.083  0.4173E+02  0.1873E+02
    -16.002  0.1612E+02  0.2004E+02
    -15.921  0.1228E+01  0.2014E+02
    -15.840  0.6964E-01  0.2014E+02
    -15.758  0.8276E+00  0.2021E+02
    -15.677  0.1158E+01  0.2030E+02
    -15.596  0.9100E+00  0.2038E+02
    -15.515  0.3827E-01  0.2038E+02
    -15.434  0.3154E+00  0.2041E+02
    -15.353  0.2210E+01  0.2058E+02
    -15.272  0.7665E+00  0.2065E+02
    -15.191  0.1927E+01  0.2080E+02
    -15.109  0.1005E+01  0.2088E+02
    -15.028  0.1803E+01  0.2103E+02
    -14.947  0.4330E+01  0.2138E+02
    -14.866  0.1450E+01  0.2150E+02
    -14.785  0.2895E+01  0.2173E+02
    -14.704  0.2254E+01  0.2192E+02
    -14.623  0.5305E+01  0.2235E+02
    -14.542  0.2450E+01  0.2255E+02
    -14.461  0.4986E+01  0.2295E+02
    -14.379  0.3172E+01  0.2321E+02
    -14.298  0.1949E+01  0.2337E+02
    -14.217  0.3734E+01  0.2367E+02
    -14.136  0.2135E+01  0.2384E+02
    -14.055  0.2193E+01  0.2402E+02
    -13.974  0.1688E+01  0.2416E+02
    -13.893  0.1755E+01  0.2430E+02
    -13.812  0.9551E+00  0.2438E+02
    -13.730  0.7127E+00  0.2444E+02
    -13.649  0.2289E+01  0.2462E+02
    -13.568  0.1401E+01  0.2473E+02
    -13.487  0.2562E+01  0.2494E+02
    -13.406  0.5194E+01  0.2536E+02
    -13.325  0.7044E+01  0.2593E+02
    -13.244  0.7996E+00  0.2600E+02
    -13.163  0.2433E-02  0.2600E+02
    -13.082  0.9022E-07  0.2600E+02
    -13.000  0.3793E-04  0.2600E+02
    -12.919  0.2627E-01  0.2600E+02
    -12.838  0.6011E+00  0.2605E+02
    -12.757  0.1230E+01  0.2615E+02
    -12.676  0.1796E+01  0.2630E+02
    -12.595  0.1231E+01  0.2640E+02
    -12.514  0.2389E+01  0.2659E+02
    -12.433  0.1863E+01  0.2674E+02
    -12.352  0.3182E+01  0.2700E+02
    -12.270  0.4091E+01  0.2733E+02
    -12.189  0.6208E+01  0.2783E+02
    -12.108  0.1980E+01  0.2800E+02
    -12.027  0.5685E-01  0.2800E+02
    -11.946  0.2423E-04  0.2800E+02
    -11.865  0.7623E-10  0.2800E+02
    -11.784  0.0000E+00  0.2800E+02
    -11.703  0.0000E+00  0.2800E+02
    -11.621  0.0000E+00  0.2800E+02
    -11.540  0.0000E+00  0.2800E+02
    -11.459  0.0000E+00  0.2800E+02
    -11.378  0.0000E+00  0.2800E+02
    -11.297  0.0000E+00  0.2800E+02
    -11.216  0.0000E+00  0.2800E+02
    -11.135  0.0000E+00  0.2800E+02
    -11.054  0.0000E+00  0.2800E+02
    -10.973  0.0000E+00  0.2800E+02
    -10.891  0.0000E+00  0.2800E+02
    -10.810  0.0000E+00  0.2800E+02
    -10.729  0.0000E+00  0.2800E+02
    -10.648  0.0000E+00  0.2800E+02
    -10.567  0.0000E+00  0.2800E+02
    -10.486  0.0000E+00  0.2800E+02
    -10.405  0.0000E+00  0.2800E+02
    -10.324  0.0000E+00  0.2800E+02
    -10.242  0.0000E+00  0.2800E+02
    -10.161  0.0000E+00  0.2800E+02
    -10.080  0.0000E+00  0.2800E+02
     -9.999  0.0000E+00  0.2800E+02
     -9.918  0.0000E+00  0.2800E+02
     -9.837  0.0000E+00  0.2800E+02
     -9.756  0.0000E+00  0.2800E+02
     -9.675  0.0000E+00  0.2800E+02
     -9.594  0.0000E+00  0.2800E+02
     -9.512  0.0000E+00  0.2800E+02
     -9.431  0.0000E+00  0.2800E+02
     -9.350  0.0000E+00  0.2800E+02
     -9.269  0.0000E+00  0.2800E+02
     -9.188  0.1046E-11  0.2800E+02
     -9.107  0.1002E-05  0.2800E+02
     -9.026  0.6108E-02  0.2800E+02
     -8.945  0.3414E+00  0.2803E+02
     -8.863  0.1423E+01  0.2814E+02
     -8.782  0.3329E+01  0.2841E+02
     -8.701  0.2875E+01  0.2865E+02
     -8.620  0.2863E+01  0.2888E+02
     -8.539  0.4657E+00  0.2892E+02
     -8.458  0.2153E+01  0.2909E+02
     -8.377  0.1267E+01  0.2919E+02
     -8.296  0.1409E+01  0.2931E+02
     -8.215  0.2181E+01  0.2949E+02
     -8.133  0.5073E+01  0.2990E+02
     -8.052  0.1335E+01  0.3001E+02
     -7.971  0.1863E+01  0.3016E+02
     -7.890  0.4346E+01  0.3051E+02
     -7.809  0.2431E+01  0.3071E+02
     -7.728  0.2328E+01  0.3089E+02
     -7.647  0.1973E+00  0.3091E+02
     -7.566  0.2020E+01  0.3107E+02
     -7.484  0.1073E+01  0.3116E+02
     -7.403  0.1101E+01  0.3125E+02
     -7.322  0.7507E+00  0.3131E+02
     -7.241  0.8137E+00  0.3138E+02
     -7.160  0.5960E+00  0.3143E+02
     -7.079  0.7191E+01  0.3201E+02
     -6.998  0.1198E+02  0.3298E+02
     -6.917  0.2215E+02  0.3478E+02
     -6.836  0.1902E+02  0.3632E+02
     -6.754  0.1298E+02  0.3737E+02
     -6.673  0.2219E+02  0.3917E+02
     -6.592  0.1849E+02  0.4067E+02
     -6.511  0.7625E+01  0.4129E+02
     -6.430  0.4291E+01  0.4164E+02
     -6.349  0.3535E+01  0.4193E+02
     -6.268  0.8190E+01  0.4259E+02
     -6.187  0.8871E+01  0.4331E+02
     -6.105  0.4169E+01  0.4365E+02
     -6.024  0.1357E+01  0.4376E+02
     -5.943  0.5028E+01  0.4417E+02
     -5.862  0.4503E+01  0.4453E+02
     -5.781  0.2621E+01  0.4475E+02
     -5.700  0.6094E+01  0.4524E+02
     -5.619  0.3167E+01  0.4550E+02
     -5.538  0.2696E+01  0.4572E+02
     -5.457  0.4742E+01  0.4610E+02
     -5.375  0.7080E+01  0.4667E+02
     -5.294  0.3280E+01  0.4694E+02
     -5.213  0.4675E+01  0.4732E+02
     -5.132  0.5652E+01  0.4778E+02
     -5.051  0.5354E+01  0.4821E+02
     -4.970  0.4310E+01  0.4856E+02
     -4.889  0.4753E+01  0.4895E+02
     -4.808  0.5697E+01  0.4941E+02
     -4.726  0.5745E+01  0.4988E+02
     -4.645  0.6667E+01  0.5042E+02
     -4.564  0.5501E+01  0.5086E+02
     -4.483  0.4496E+01  0.5123E+02
     -4.402  0.3435E+01  0.5151E+02
     -4.321  0.7129E+01  0.5208E+02
     -4.240  0.5693E+01  0.5255E+02
     -4.159  0.3992E+01  0.5287E+02
     -4.078  0.1583E+01  0.5300E+02
     -3.996  0.2276E+01  0.5318E+02
     -3.915  0.6207E+01  0.5369E+02
     -3.834  0.1956E+01  0.5385E+02
     -3.753  0.2349E+01  0.5404E+02
     -3.672  0.2057E+01  0.5420E+02
     -3.591  0.3444E+01  0.5448E+02
     -3.510  0.3851E+01  0.5479E+02
     -3.429  0.2421E+01  0.5499E+02
     -3.347  0.3070E+01  0.5524E+02
     -3.266  0.6522E+01  0.5577E+02
     -3.185  0.1040E+02  0.5661E+02
     -3.104  0.3968E+01  0.5693E+02
     -3.023  0.3124E+01  0.5719E+02
     -2.942  0.6382E+01  0.5771E+02
     -2.861  0.4093E+01  0.5804E+02
     -2.780  0.7622E+00  0.5810E+02
     -2.699  0.4270E-02  0.5810E+02
     -2.617  0.7434E-02  0.5810E+02
     -2.536  0.5958E+00  0.5815E+02
     -2.455  0.2367E+01  0.5834E+02
     -2.374  0.2768E+01  0.5857E+02
     -2.293  0.2814E+00  0.5859E+02
     -2.212  0.2780E+01  0.5881E+02
     -2.131  0.2343E+01  0.5900E+02
     -2.050  0.1005E+01  0.5909E+02
     -1.968  0.1082E+01  0.5917E+02
     -1.887  0.1350E+01  0.5928E+02
     -1.806  0.2613E+01  0.5949E+02
     -1.725  0.2246E+01  0.5968E+02
     -1.644  0.2035E+01  0.5984E+02
     -1.563  0.2185E+01  0.6002E+02
     -1.482  0.7308E+01  0.6061E+02
     -1.401  0.1069E+02  0.6148E+02
     -1.320  0.4525E+01  0.6185E+02
     -1.238  0.1739E+00  0.6186E+02
     -1.157  0.9981E-02  0.6186E+02
     -1.076  0.8695E+00  0.6193E+02
     -0.995  0.1942E+01  0.6209E+02
     -0.914  0.4570E+00  0.6213E+02
     -0.833  0.1713E+00  0.6214E+02
     -0.752  0.2692E-02  0.6214E+02
     -0.671  0.2444E+00  0.6216E+02
     -0.589  0.2428E+01  0.6236E+02
     -0.508  0.2224E+01  0.6254E+02
     -0.427  0.1181E+01  0.6263E+02
     -0.346  0.2276E+01  0.6282E+02
     -0.265  0.3540E+01  0.6310E+02
     -0.184  0.4265E+01  0.6345E+02
     -0.103  0.1705E+01  0.6359E+02
     -0.022  0.2533E+01  0.6379E+02
      0.059  0.2086E+01  0.6396E+02
      0.141  0.5666E+01  0.6442E+02
      0.222  0.6006E+01  0.6491E+02
      0.303  0.4146E+01  0.6525E+02
      0.384  0.1020E+01  0.6533E+02
      0.465  0.2897E+01  0.6556E+02
      0.546  0.4033E+01  0.6589E+02
      0.627  0.2289E+01  0.6608E+02
      0.708  0.1257E+01  0.6618E+02
      0.790  0.1587E+01  0.6631E+02
      0.871  0.1907E+01  0.6646E+02
      0.952  0.1849E+01  0.6661E+02
      1.033  0.1958E+01  0.6677E+02
      1.114  0.1028E+00  0.6678E+02
      1.195  0.6555E-02  0.6678E+02
      1.276  0.6312E+00  0.6683E+02
      1.357  0.3386E+01  0.6711E+02
      1.438  0.1886E+01  0.6726E+02
      1.520  0.2810E+01  0.6749E+02
      1.601  0.1931E+01  0.6764E+02
      1.682  0.2545E+01  0.6785E+02
      1.763  0.1740E+01  0.6799E+02
      1.844  0.1046E+00  0.6800E+02
      1.925  0.4358E-03  0.6800E+02
      2.006  0.1642E+00  0.6801E+02
      2.087  0.1110E+01  0.6810E+02
      2.168  0.6914E+00  0.6816E+02
      2.250  0.1218E+01  0.6826E+02
      2.331  0.1143E+01  0.6835E+02
      2.412  0.3580E+01  0.6864E+02
      2.493  0.6699E+01  0.6918E+02
      2.574  0.2920E+01  0.6942E+02
      2.655  0.3406E+01  0.6970E+02
      2.736  0.2454E+01  0.6990E+02
      2.817  0.5140E+01  0.7031E+02
      2.899  0.5316E+01  0.7075E+02
      2.980  0.4451E+01  0.7111E+02
      3.061  0.3608E+01  0.7140E+02
      3.142  0.3540E+01  0.7169E+02
      3.223  0.4045E+01  0.7201E+02
      3.304  0.5373E+01  0.7245E+02
      3.385  0.5723E+01  0.7291E+02
      3.466  0.7391E+01  0.7351E+02
      3.547  0.6610E+01  0.7405E+02
      3.629  0.4484E+01  0.7441E+02
      3.710  0.4992E+01  0.7482E+02
      3.791  0.4675E+01  0.7520E+02
      3.872  0.1116E+01  0.7529E+02
      3.953  0.1851E+01  0.7544E+02
      4.034  0.9923E+00  0.7552E+02
      4.115  0.1288E-01  0.7552E+02
      4.196  0.1190E-02  0.7552E+02
      4.278  0.5259E+00  0.7556E+02
      4.359  0.3308E+01  0.7583E+02
      4.440  0.9003E+00  0.7590E+02
      4.521  0.1075E+01  0.7599E+02
      4.602  0.1066E+00  0.7600E+02
      4.683  0.1285E-03  0.7600E+02
      4.764  0.1080E-08  0.7600E+02
      4.845  0.0000E+00  0.7600E+02
      4.926  0.0000E+00  0.7600E+02
      5.008  0.0000E+00  0.7600E+02
      5.089  0.0000E+00  0.7600E+02
      5.170  0.0000E+00  0.7600E+02
      5.251  0.0000E+00  0.7600E+02
      5.332  0.0000E+00  0.7600E+02
      5.413  0.0000E+00  0.7600E+02
      5.494  0.0000E+00  0.7600E+02
      5.575  0.0000E+00  0.7600E+02
