    7    7    1    1
  0.5474601E+02  0.3878284E-09  0.3878284E-09  0.2941986E-08  0.5000000E-15
   1.0000000000000000E-004
  CAR 
 WP2-P01-A0-beta001-static-no-dipole     
     62     52     38

  0.1262379E-14  0.1262379E-14  0.1262379E-14  0.1000000E-01
      1        -17.397864   1.000000
      2        -17.225529   1.000000
      3        -17.225529   1.000000
      4        -17.043379   1.000000
      5        -17.043378   1.000000
      6        -16.264010   1.000000
      7        -16.264010   1.000000
      8        -16.261203   1.000000
      9        -16.117547   1.000000
     10        -16.117547   1.000000
     11        -16.114097   1.000000
     12        -15.253959   1.000000
     13        -14.218141   1.000000
     14        -12.872809   1.000000
     15         -8.240624   1.000000
     16         -7.107862   1.000000
     17         -7.107860   1.000000
     18         -6.878665   1.000000
     19         -6.671918   1.000000
     20         -6.671918   1.000000
     21         -5.903431   1.000000
     22         -4.402503   1.000000
     23         -4.402503   1.000000
     24         -4.280419   1.000000
     25         -3.404304   1.000000
     26         -3.404303   1.000000
     27         -2.980812   1.000000
     28         -2.980812   1.000000
     29         -2.229227   1.000000
     30         -1.381495   1.000000
     31         -0.927519   0.000316
     32         -0.927518   0.000316
     33          0.098084   0.000000
     34          1.266476   0.000000
     35          2.205976   0.000000
     36          2.494912   0.000000
     37          2.623898   0.000000
     38          2.623898   0.000000

  0.1000000E+00  0.1262879E-14  0.1262379E-14  0.2000000E-01
      1        -17.417041   1.000000
      2        -17.244697   1.000000
      3        -17.216099   1.000000
      4        -17.053217   1.000000
      5        -17.043051   1.000000
      6        -16.319507   1.000000
      7        -16.256226   1.000000
      8        -16.231524   1.000000
      9        -16.127085   1.000000
     10        -16.116029   1.000000
     11        -15.987341   1.000000
     12        -15.187011   1.000000
     13        -14.120963   1.000000
     14        -12.818067   1.000000
     15         -8.202434   1.000000
     16         -7.106219   1.000000
     17         -7.087129   1.000000
     18         -6.876451   1.000000
     19         -6.685551   1.000000
     20         -6.672184   1.000000
     21         -5.957123   1.000000
     22         -4.900529   1.000000
     23         -4.521000   1.000000
     24         -4.277302   1.000000
     25         -3.938501   1.000000
     26         -3.597084   1.000000
     27         -3.333420   1.000000
     28         -2.940106   1.000000
     29         -1.948266   1.000000
     30         -1.503087   1.000000
     31         -1.068376   0.714512
     32         -1.044083   0.452052
     33          0.397441   0.000000
     34          1.668561   0.000000
     35          2.049408   0.000000
     36          2.634955   0.000000
     37          2.733649   0.000000
     38          2.796912   0.000000

  0.1262379E-14  0.1000000E+00  0.1262379E-14  0.2000000E-01
      1        -17.417041   1.000000
      2        -17.244697   1.000000
      3        -17.216099   1.000000
      4        -17.053217   1.000000
      5        -17.043051   1.000000
      6        -16.319507   1.000000
      7        -16.256226   1.000000
      8        -16.231524   1.000000
      9        -16.127085   1.000000
     10        -16.116029   1.000000
     11        -15.987341   1.000000
     12        -15.187011   1.000000
     13        -14.120963   1.000000
     14        -12.818067   1.000000
     15         -8.202434   1.000000
     16         -7.106219   1.000000
     17         -7.087129   1.000000
     18         -6.876451   1.000000
     19         -6.685551   1.000000
     20         -6.672184   1.000000
     21         -5.957123   1.000000
     22         -4.900529   1.000000
     23         -4.521000   1.000000
     24         -4.277302   1.000000
     25         -3.938501   1.000000
     26         -3.597083   1.000000
     27         -3.333420   1.000000
     28         -2.940106   1.000000
     29         -1.948266   1.000000
     30         -1.503088   1.000000
     31         -1.068375   0.714511
     32         -1.044083   0.452052
     33          0.397441   0.000000
     34          1.668561   0.000000
     35          2.049408   0.000000
     36          2.634954   0.000000
     37          2.733651   0.000000
     38          2.796963   0.000000

 -0.1000000E+00  0.1000000E+00  0.1262379E-14  0.2000000E-01
      1        -17.417041   1.000000
      2        -17.244697   1.000000
      3        -17.216099   1.000000
      4        -17.053218   1.000000
      5        -17.043051   1.000000
      6        -16.319507   1.000000
      7        -16.256226   1.000000
      8        -16.231524   1.000000
      9        -16.127085   1.000000
     10        -16.116029   1.000000
     11        -15.987341   1.000000
     12        -15.187011   1.000000
     13        -14.120963   1.000000
     14        -12.818067   1.000000
     15         -8.202434   1.000000
     16         -7.106220   1.000000
     17         -7.087128   1.000000
     18         -6.876451   1.000000
     19         -6.685551   1.000000
     20         -6.672184   1.000000
     21         -5.957123   1.000000
     22         -4.900529   1.000000
     23         -4.521000   1.000000
     24         -4.277302   1.000000
     25         -3.938501   1.000000
     26         -3.597084   1.000000
     27         -3.333420   1.000000
     28         -2.940106   1.000000
     29         -1.948266   1.000000
     30         -1.503088   1.000000
     31         -1.068375   0.714505
     32         -1.044083   0.452052
     33          0.397441   0.000000
     34          1.668561   0.000000
     35          2.049408   0.000000
     36          2.634955   0.000000
     37          2.733652   0.000000
     38          2.796831   0.000000

  0.2000000E+00  0.1249001E-14  0.1262379E-14  0.2000000E-01
      1        -17.483864   1.000000
      2        -17.260732   1.000000
      3        -17.192710   1.000000
      4        -17.069939   1.000000
      5        -17.040679   1.000000
      6        -16.433867   1.000000
      7        -16.238803   1.000000
      8        -16.188276   1.000000
      9        -16.136889   1.000000
     10        -16.108855   1.000000
     11        -15.665206   1.000000
     12        -14.989059   1.000000
     13        -13.881397   1.000000
     14        -12.669678   1.000000
     15         -8.146077   1.000000
     16         -7.091644   1.000000
     17         -7.032182   1.000000
     18         -6.915932   1.000000
     19         -6.719401   1.000000
     20         -6.671240   1.000000
     21         -6.289874   1.000000
     22         -5.671232   1.000000
     23         -4.835833   1.000000
     24         -4.807007   1.000000
     25         -4.234561   1.000000
     26         -3.978844   1.000000
     27         -3.973085   1.000000
     28         -2.940136   1.000000
     29         -2.526406   1.000000
     30         -1.680483   1.000000
     31         -1.406568   1.000000
     32         -0.538411   0.000000
     33          0.531431   0.000000
     34          1.333730   0.000000
     35          2.400669   0.000000
     36          2.931110   0.000000
     37          3.160886   0.000000
     38          3.214517   0.000000

  0.1262379E-14  0.2000000E+00  0.1262379E-14  0.2000000E-01
      1        -17.483864   1.000000
      2        -17.260732   1.000000
      3        -17.192710   1.000000
      4        -17.069939   1.000000
      5        -17.040679   1.000000
      6        -16.433867   1.000000
      7        -16.238803   1.000000
      8        -16.188276   1.000000
      9        -16.136889   1.000000
     10        -16.108855   1.000000
     11        -15.665206   1.000000
     12        -14.989059   1.000000
     13        -13.881397   1.000000
     14        -12.669678   1.000000
     15         -8.146077   1.000000
     16         -7.091644   1.000000
     17         -7.032182   1.000000
     18         -6.915932   1.000000
     19         -6.719401   1.000000
     20         -6.671240   1.000000
     21         -6.289874   1.000000
     22         -5.671232   1.000000
     23         -4.835834   1.000000
     24         -4.807008   1.000000
     25         -4.234562   1.000000
     26         -3.978844   1.000000
     27         -3.973085   1.000000
     28         -2.940136   1.000000
     29         -2.526406   1.000000
     30         -1.680483   1.000000
     31         -1.406568   1.000000
     32         -0.538411   0.000000
     33          0.531431   0.000000
     34          1.333730   0.000000
     35          2.400669   0.000000
     36          2.931110   0.000000
     37          3.160886   0.000000
     38          3.214521   0.000000

 -0.2000000E+00  0.2000000E+00  0.1262379E-14  0.2000000E-01
      1        -17.483864   1.000000
      2        -17.260732   1.000000
      3        -17.192709   1.000000
      4        -17.069939   1.000000
      5        -17.040679   1.000000
      6        -16.433867   1.000000
      7        -16.238803   1.000000
      8        -16.188276   1.000000
      9        -16.136889   1.000000
     10        -16.108855   1.000000
     11        -15.665206   1.000000
     12        -14.989059   1.000000
     13        -13.881397   1.000000
     14        -12.669678   1.000000
     15         -8.146077   1.000000
     16         -7.091645   1.000000
     17         -7.032180   1.000000
     18         -6.915932   1.000000
     19         -6.719401   1.000000
     20         -6.671240   1.000000
     21         -6.289874   1.000000
     22         -5.671232   1.000000
     23         -4.835833   1.000000
     24         -4.807007   1.000000
     25         -4.234562   1.000000
     26         -3.978844   1.000000
     27         -3.973085   1.000000
     28         -2.940136   1.000000
     29         -2.526407   1.000000
     30         -1.680483   1.000000
     31         -1.406567   1.000000
     32         -0.538411   0.000000
     33          0.531431   0.000000
     34          1.333730   0.000000
     35          2.400670   0.000000
     36          2.931110   0.000000
     37          3.160886   0.000000
     38          3.214511   0.000000

  0.3000000E+00  0.1221245E-14  0.1262379E-14  0.2000000E-01
      1        -17.568802   1.000000
      2        -17.256292   1.000000
      3        -17.167618   1.000000
      4        -17.084508   1.000000
      5        -17.033386   1.000000
      6        -16.552836   1.000000
      7        -16.224351   1.000000
      8        -16.172493   1.000000
      9        -16.123470   1.000000
     10        -16.092303   1.000000
     11        -15.237559   1.000000
     12        -14.699083   1.000000
     13        -13.609018   1.000000
     14        -12.475270   1.000000
     15         -8.287090   1.000000
     16         -7.316345   1.000000
     17         -7.024528   1.000000
     18         -6.964379   1.000000
     19         -6.764538   1.000000
     20         -6.664734   1.000000
     21         -6.656036   1.000000
     22         -6.109340   1.000000
     23         -5.438091   1.000000
     24         -5.123344   1.000000
     25         -4.595608   1.000000
     26         -4.343311   1.000000
     27         -4.300050   1.000000
     28         -3.295219   1.000000
     29         -2.999597   1.000000
     30         -1.779165   1.000000
     31         -1.557278   1.000000
     32         -0.434181   0.000000
     33          0.168510   0.000000
     34          0.882455   0.000000
     35          2.659475   0.000000
     36          3.266582   0.000000
     37          3.401613   0.000000
     38          3.497101   0.000000

  0.1262379E-14  0.3000000E+00  0.1262379E-14  0.2000000E-01
      1        -17.568801   1.000000
      2        -17.256292   1.000000
      3        -17.167618   1.000000
      4        -17.084508   1.000000
      5        -17.033386   1.000000
      6        -16.552836   1.000000
      7        -16.224351   1.000000
      8        -16.172493   1.000000
      9        -16.123470   1.000000
     10        -16.092303   1.000000
     11        -15.237559   1.000000
     12        -14.699083   1.000000
     13        -13.609018   1.000000
     14        -12.475270   1.000000
     15         -8.287090   1.000000
     16         -7.316345   1.000000
     17         -7.024528   1.000000
     18         -6.964379   1.000000
     19         -6.764538   1.000000
     20         -6.664734   1.000000
     21         -6.656036   1.000000
     22         -6.109340   1.000000
     23         -5.438091   1.000000
     24         -5.123344   1.000000
     25         -4.595608   1.000000
     26         -4.343311   1.000000
     27         -4.300050   1.000000
     28         -3.295219   1.000000
     29         -2.999597   1.000000
     30         -1.779165   1.000000
     31         -1.557278   1.000000
     32         -0.434181   0.000000
     33          0.168510   0.000000
     34          0.882455   0.000000
     35          2.659475   0.000000
     36          3.266582   0.000000
     37          3.401613   0.000000
     38          3.497101   0.000000

 -0.3000000E+00  0.3000000E+00  0.1262379E-14  0.2000000E-01
      1        -17.568802   1.000000
      2        -17.256292   1.000000
      3        -17.167618   1.000000
      4        -17.084508   1.000000
      5        -17.033385   1.000000
      6        -16.552836   1.000000
      7        -16.224351   1.000000
      8        -16.172493   1.000000
      9        -16.123470   1.000000
     10        -16.092303   1.000000
     11        -15.237559   1.000000
     12        -14.699083   1.000000
     13        -13.609018   1.000000
     14        -12.475270   1.000000
     15         -8.287090   1.000000
     16         -7.316345   1.000000
     17         -7.024530   1.000000
     18         -6.964378   1.000000
     19         -6.764538   1.000000
     20         -6.664734   1.000000
     21         -6.656036   1.000000
     22         -6.109340   1.000000
     23         -5.438091   1.000000
     24         -5.123344   1.000000
     25         -4.595609   1.000000
     26         -4.343311   1.000000
     27         -4.300050   1.000000
     28         -3.295219   1.000000
     29         -2.999597   1.000000
     30         -1.779165   1.000000
     31         -1.557278   1.000000
     32         -0.434180   0.000000
     33          0.168510   0.000000
     34          0.882455   0.000000
     35          2.659475   0.000000
     36          3.266582   0.000000
     37          3.401613   0.000000
     38          3.497101   0.000000

  0.4000000E+00  0.1221245E-14  0.1262379E-14  0.2000000E-01
      1        -17.631268   1.000000
      2        -17.249212   1.000000
      3        -17.151804   1.000000
      4        -17.094328   1.000000
      5        -17.022567   1.000000
      6        -16.636122   1.000000
      7        -16.218360   1.000000
      8        -16.178842   1.000000
      9        -16.098809   1.000000
     10        -16.072728   1.000000
     11        -14.825749   1.000000
     12        -14.430128   1.000000
     13        -13.412340   1.000000
     14        -12.308280   1.000000
     15         -8.712032   1.000000
     16         -7.805689   1.000000
     17         -6.969130   1.000000
     18         -6.912535   1.000000
     19         -6.850793   1.000000
     20         -6.651468   1.000000
     21         -6.635526   1.000000
     22         -6.250440   1.000000
     23         -5.740907   1.000000
     24         -5.356732   1.000000
     25         -5.116645   1.000000
     26         -4.603801   1.000000
     27         -4.558873   1.000000
     28         -3.530839   1.000000
     29         -3.065992   1.000000
     30         -2.053441   1.000000
     31         -1.499586   1.000000
     32         -0.595471   0.000000
     33         -0.138856   0.000000
     34          0.595615   0.000000
     35          2.616275   0.000000
     36          3.116006   0.000000
     37          3.444119   0.000000
     38          3.481397   0.000000

  0.1262379E-14  0.4000000E+00  0.1262379E-14  0.2000000E-01
      1        -17.631268   1.000000
      2        -17.249212   1.000000
      3        -17.151804   1.000000
      4        -17.094328   1.000000
      5        -17.022567   1.000000
      6        -16.636122   1.000000
      7        -16.218360   1.000000
      8        -16.178842   1.000000
      9        -16.098809   1.000000
     10        -16.072728   1.000000
     11        -14.825749   1.000000
     12        -14.430128   1.000000
     13        -13.412340   1.000000
     14        -12.308280   1.000000
     15         -8.712032   1.000000
     16         -7.805689   1.000000
     17         -6.969130   1.000000
     18         -6.912535   1.000000
     19         -6.850793   1.000000
     20         -6.651468   1.000000
     21         -6.635526   1.000000
     22         -6.250440   1.000000
     23         -5.740907   1.000000
     24         -5.356732   1.000000
     25         -5.116645   1.000000
     26         -4.603801   1.000000
     27         -4.558873   1.000000
     28         -3.530839   1.000000
     29         -3.065992   1.000000
     30         -2.053441   1.000000
     31         -1.499586   1.000000
     32         -0.595471   0.000000
     33         -0.138856   0.000000
     34          0.595615   0.000000
     35          2.616275   0.000000
     36          3.116007   0.000000
     37          3.444119   0.000000
     38          3.481397   0.000000

 -0.4000000E+00  0.4000000E+00  0.1262379E-14  0.2000000E-01
      1        -17.631268   1.000000
      2        -17.249212   1.000000
      3        -17.151803   1.000000
      4        -17.094328   1.000000
      5        -17.022567   1.000000
      6        -16.636122   1.000000
      7        -16.218360   1.000000
      8        -16.178841   1.000000
      9        -16.098809   1.000000
     10        -16.072728   1.000000
     11        -14.825749   1.000000
     12        -14.430127   1.000000
     13        -13.412340   1.000000
     14        -12.308280   1.000000
     15         -8.712032   1.000000
     16         -7.805689   1.000000
     17         -6.969130   1.000000
     18         -6.912534   1.000000
     19         -6.850793   1.000000
     20         -6.651468   1.000000
     21         -6.635527   1.000000
     22         -6.250440   1.000000
     23         -5.740907   1.000000
     24         -5.356732   1.000000
     25         -5.116646   1.000000
     26         -4.603801   1.000000
     27         -4.558873   1.000000
     28         -3.530839   1.000000
     29         -3.065992   1.000000
     30         -2.053440   1.000000
     31         -1.499586   1.000000
     32         -0.595471   0.000000
     33         -0.138856   0.000000
     34          0.595615   0.000000
     35          2.616275   0.000000
     36          3.116008   0.000000
     37          3.444119   0.000000
     38          3.481398   0.000000

  0.5000000E+00  0.1221245E-14  0.1262379E-14  0.1000000E-01
      1        -17.653628   1.000000
      2        -17.246641   1.000000
      3        -17.147010   1.000000
      4        -17.097792   1.000000
      5        -17.017083   1.000000
      6        -16.665343   1.000000
      7        -16.217183   1.000000
      8        -16.182234   1.000000
      9        -16.089344   1.000000
     10        -16.064023   1.000000
     11        -14.633269   1.000000
     12        -14.327108   1.000000
     13        -13.346542   1.000000
     14        -12.242049   1.000000
     15         -8.940936   1.000000
     16         -8.004719   1.000000
     17         -6.963859   1.000000
     18         -6.894394   1.000000
     19         -6.880616   1.000000
     20         -6.643380   1.000000
     21         -6.498207   1.000000
     22         -6.341582   1.000000
     23         -5.816382   1.000000
     24         -5.441557   1.000000
     25         -5.345763   1.000000
     26         -4.702687   1.000000
     27         -4.696865   1.000000
     28         -3.548647   1.000000
     29         -3.094242   1.000000
     30         -2.152837   1.000000
     31         -1.491299   1.000000
     32         -0.643605   0.000000
     33         -0.286891   0.000000
     34          0.499299   0.000000
     35          2.555757   0.000000
     36          3.011003   0.000000
     37          3.421163   0.000000
     38          3.434867   0.000000

  0.1262379E-14  0.5000000E+00  0.1262379E-14  0.1000000E-01
      1        -17.653628   1.000000
      2        -17.246641   1.000000
      3        -17.147010   1.000000
      4        -17.097792   1.000000
      5        -17.017083   1.000000
      6        -16.665343   1.000000
      7        -16.217183   1.000000
      8        -16.182234   1.000000
      9        -16.089344   1.000000
     10        -16.064023   1.000000
     11        -14.633269   1.000000
     12        -14.327108   1.000000
     13        -13.346541   1.000000
     14        -12.242049   1.000000
     15         -8.940936   1.000000
     16         -8.004719   1.000000
     17         -6.963859   1.000000
     18         -6.894394   1.000000
     19         -6.880616   1.000000
     20         -6.643380   1.000000
     21         -6.498207   1.000000
     22         -6.341582   1.000000
     23         -5.816382   1.000000
     24         -5.441557   1.000000
     25         -5.345763   1.000000
     26         -4.702687   1.000000
     27         -4.696865   1.000000
     28         -3.548647   1.000000
     29         -3.094242   1.000000
     30         -2.152837   1.000000
     31         -1.491299   1.000000
     32         -0.643605   0.000000
     33         -0.286891   0.000000
     34          0.499299   0.000000
     35          2.555757   0.000000
     36          3.011003   0.000000
     37          3.421163   0.000000
     38          3.434867   0.000000

  0.5000000E+00  0.5000000E+00  0.1262379E-14  0.1000000E-01
      1        -17.653628   1.000000
      2        -17.246641   1.000000
      3        -17.147009   1.000000
      4        -17.097793   1.000000
      5        -17.017083   1.000000
      6        -16.665344   1.000000
      7        -16.217183   1.000000
      8        -16.182234   1.000000
      9        -16.089344   1.000000
     10        -16.064023   1.000000
     11        -14.633269   1.000000
     12        -14.327108   1.000000
     13        -13.346542   1.000000
     14        -12.242049   1.000000
     15         -8.940937   1.000000
     16         -8.004719   1.000000
     17         -6.963859   1.000000
     18         -6.894393   1.000000
     19         -6.880615   1.000000
     20         -6.643379   1.000000
     21         -6.498210   1.000000
     22         -6.341581   1.000000
     23         -5.816383   1.000000
     24         -5.441557   1.000000
     25         -5.345764   1.000000
     26         -4.702687   1.000000
     27         -4.696865   1.000000
     28         -3.548647   1.000000
     29         -3.094242   1.000000
     30         -2.152836   1.000000
     31         -1.491299   1.000000
     32         -0.643605   0.000000
     33         -0.286891   0.000000
     34          0.499299   0.000000
     35          2.555757   0.000000
     36          3.011004   0.000000
     37          3.421164   0.000000
     38          3.434867   0.000000

  0.1000000E+00  0.1000000E+00  0.1262379E-14  0.2000000E-01
      1        -17.461320   1.000000
      2        -17.259660   1.000000
      3        -17.199988   1.000000
      4        -17.064894   1.000000
      5        -17.042362   1.000000
      6        -16.391769   1.000000
      7        -16.262428   1.000000
      8        -16.190276   1.000000
      9        -16.135639   1.000000
     10        -16.111760   1.000000
     11        -15.764906   1.000000
     12        -15.051977   1.000000
     13        -13.954119   1.000000
     14        -12.716396   1.000000
     15         -8.152837   1.000000
     16         -7.098049   1.000000
     17         -7.048624   1.000000
     18         -6.890208   1.000000
     19         -6.708281   1.000000
     20         -6.672430   1.000000
     21         -6.147469   1.000000
     22         -5.465749   1.000000
     23         -4.794582   1.000000
     24         -4.439895   1.000000
     25         -4.394686   1.000000
     26         -4.136109   1.000000
     27         -3.361883   1.000000
     28         -3.156885   1.000000
     29         -2.220290   1.000000
     30         -1.719261   1.000000
     31         -1.368696   1.000000
     32         -0.607738   0.000000
     33          0.642433   0.000000
     34          1.637675   0.000000
     35          2.311166   0.000000
     36          2.411511   0.000000
     37          3.002623   0.000000
     38          3.214121   0.000000

 -0.1000000E+00  0.2000000E+00  0.1262379E-14  0.2000000E-01
      1        -17.461320   1.000000
      2        -17.259660   1.000000
      3        -17.199988   1.000000
      4        -17.064894   1.000000
      5        -17.042361   1.000000
      6        -16.391769   1.000000
      7        -16.262428   1.000000
      8        -16.190277   1.000000
      9        -16.135640   1.000000
     10        -16.111760   1.000000
     11        -15.764906   1.000000
     12        -15.051977   1.000000
     13        -13.954119   1.000000
     14        -12.716396   1.000000
     15         -8.152837   1.000000
     16         -7.098051   1.000000
     17         -7.048622   1.000000
     18         -6.890209   1.000000
     19         -6.708282   1.000000
     20         -6.672429   1.000000
     21         -6.147469   1.000000
     22         -5.465749   1.000000
     23         -4.794582   1.000000
     24         -4.439895   1.000000
     25         -4.394685   1.000000
     26         -4.136109   1.000000
     27         -3.361884   1.000000
     28         -3.156885   1.000000
     29         -2.220290   1.000000
     30         -1.719261   1.000000
     31         -1.368695   1.000000
     32         -0.607738   0.000000
     33          0.642433   0.000000
     34          1.637675   0.000000
     35          2.311166   0.000000
     36          2.411511   0.000000
     37          3.002620   0.000000
     38          3.214076   0.000000

 -0.2000000E+00  0.1000000E+00  0.1262379E-14  0.2000000E-01
      1        -17.461320   1.000000
      2        -17.259660   1.000000
      3        -17.199988   1.000000
      4        -17.064894   1.000000
      5        -17.042361   1.000000
      6        -16.391769   1.000000
      7        -16.262428   1.000000
      8        -16.190277   1.000000
      9        -16.135640   1.000000
     10        -16.111760   1.000000
     11        -15.764906   1.000000
     12        -15.051977   1.000000
     13        -13.954119   1.000000
     14        -12.716396   1.000000
     15         -8.152837   1.000000
     16         -7.098051   1.000000
     17         -7.048622   1.000000
     18         -6.890209   1.000000
     19         -6.708282   1.000000
     20         -6.672429   1.000000
     21         -6.147469   1.000000
     22         -5.465749   1.000000
     23         -4.794582   1.000000
     24         -4.439895   1.000000
     25         -4.394686   1.000000
     26         -4.136109   1.000000
     27         -3.361884   1.000000
     28         -3.156885   1.000000
     29         -2.220290   1.000000
     30         -1.719261   1.000000
     31         -1.368695   1.000000
     32         -0.607738   0.000000
     33          0.642433   0.000000
     34          1.637675   0.000000
     35          2.311166   0.000000
     36          2.411511   0.000000
     37          3.002622   0.000000
     38          3.214087   0.000000

  0.2000000E+00  0.1000000E+00  0.1262379E-14  0.2000000E-01
      1        -17.537400   1.000000
      2        -17.260126   1.000000
      3        -17.177478   1.000000
      4        -17.077695   1.000000
      5        -17.039052   1.000000
      6        -16.495710   1.000000
      7        -16.261379   1.000000
      8        -16.160578   1.000000
      9        -16.138551   1.000000
     10        -16.097812   1.000000
     11        -15.389988   1.000000
     12        -14.795863   1.000000
     13        -13.704355   1.000000
     14        -12.544262   1.000000
     15         -8.180614   1.000000
     16         -7.115844   1.000000
     17         -7.031853   1.000000
     18         -6.983831   1.000000
     19         -6.744049   1.000000
     20         -6.669411   1.000000
     21         -6.542173   1.000000
     22         -5.973880   1.000000
     23         -5.209038   1.000000
     24         -5.144472   1.000000
     25         -4.709242   1.000000
     26         -4.350029   1.000000
     27         -3.790662   1.000000
     28         -3.250947   1.000000
     29         -2.987673   1.000000
     30         -1.844924   1.000000
     31         -1.553031   1.000000
     32         -0.237507   0.000000
     33          0.487978   0.000000
     34          1.314584   0.000000
     35          2.475048   0.000000
     36          2.876179   0.000000
     37          3.423499   0.000000
     38          3.609178   0.000000

 -0.1000000E+00  0.3000000E+00  0.1262379E-14  0.2000000E-01
      1        -17.537400   1.000000
      2        -17.260126   1.000000
      3        -17.177478   1.000000
      4        -17.077695   1.000000
      5        -17.039052   1.000000
      6        -16.495710   1.000000
      7        -16.261379   1.000000
      8        -16.160578   1.000000
      9        -16.138551   1.000000
     10        -16.097812   1.000000
     11        -15.389988   1.000000
     12        -14.795863   1.000000
     13        -13.704355   1.000000
     14        -12.544262   1.000000
     15         -8.180614   1.000000
     16         -7.115844   1.000000
     17         -7.031854   1.000000
     18         -6.983831   1.000000
     19         -6.744049   1.000000
     20         -6.669411   1.000000
     21         -6.542173   1.000000
     22         -5.973880   1.000000
     23         -5.209038   1.000000
     24         -5.144472   1.000000
     25         -4.709241   1.000000
     26         -4.350029   1.000000
     27         -3.790662   1.000000
     28         -3.250947   1.000000
     29         -2.987673   1.000000
     30         -1.844924   1.000000
     31         -1.553031   1.000000
     32         -0.237507   0.000000
     33          0.487978   0.000000
     34          1.314584   0.000000
     35          2.475049   0.000000
     36          2.876179   0.000000
     37          3.423499   0.000000
     38          3.609178   0.000000

 -0.3000000E+00  0.2000000E+00  0.1262379E-14  0.2000000E-01
      1        -17.537400   1.000000
      2        -17.260126   1.000000
      3        -17.177478   1.000000
      4        -17.077695   1.000000
      5        -17.039052   1.000000
      6        -16.495710   1.000000
      7        -16.261379   1.000000
      8        -16.160578   1.000000
      9        -16.138551   1.000000
     10        -16.097812   1.000000
     11        -15.389988   1.000000
     12        -14.795863   1.000000
     13        -13.704355   1.000000
     14        -12.544262   1.000000
     15         -8.180615   1.000000
     16         -7.115844   1.000000
     17         -7.031854   1.000000
     18         -6.983830   1.000000
     19         -6.744049   1.000000
     20         -6.669411   1.000000
     21         -6.542173   1.000000
     22         -5.973880   1.000000
     23         -5.209038   1.000000
     24         -5.144472   1.000000
     25         -4.709241   1.000000
     26         -4.350029   1.000000
     27         -3.790662   1.000000
     28         -3.250948   1.000000
     29         -2.987673   1.000000
     30         -1.844923   1.000000
     31         -1.553031   1.000000
     32         -0.237507   0.000000
     33          0.487979   0.000000
     34          1.314584   0.000000
     35          2.475048   0.000000
     36          2.876179   0.000000
     37          3.423499   0.000000
     38          3.609178   0.000000

 -0.2000000E+00  0.3000000E+00  0.1262379E-14  0.2000000E-01
      1        -17.537400   1.000000
      2        -17.260126   1.000000
      3        -17.177478   1.000000
      4        -17.077695   1.000000
      5        -17.039052   1.000000
      6        -16.495710   1.000000
      7        -16.261379   1.000000
      8        -16.160578   1.000000
      9        -16.138551   1.000000
     10        -16.097812   1.000000
     11        -15.389988   1.000000
     12        -14.795863   1.000000
     13        -13.704355   1.000000
     14        -12.544262   1.000000
     15         -8.180615   1.000000
     16         -7.115844   1.000000
     17         -7.031854   1.000000
     18         -6.983830   1.000000
     19         -6.744049   1.000000
     20         -6.669411   1.000000
     21         -6.542173   1.000000
     22         -5.973880   1.000000
     23         -5.209038   1.000000
     24         -5.144472   1.000000
     25         -4.709241   1.000000
     26         -4.350029   1.000000
     27         -3.790662   1.000000
     28         -3.250948   1.000000
     29         -2.987673   1.000000
     30         -1.844923   1.000000
     31         -1.553031   1.000000
     32         -0.237507   0.000000
     33          0.487979   0.000000
     34          1.314584   0.000000
     35          2.475048   0.000000
     36          2.876179   0.000000
     37          3.423499   0.000000
     38          3.609178   0.000000

  0.1000000E+00  0.2000000E+00  0.1262379E-14  0.2000000E-01
      1        -17.537400   1.000000
      2        -17.260126   1.000000
      3        -17.177478   1.000000
      4        -17.077695   1.000000
      5        -17.039052   1.000000
      6        -16.495710   1.000000
      7        -16.261379   1.000000
      8        -16.160578   1.000000
      9        -16.138551   1.000000
     10        -16.097812   1.000000
     11        -15.389988   1.000000
     12        -14.795863   1.000000
     13        -13.704355   1.000000
     14        -12.544262   1.000000
     15         -8.180614   1.000000
     16         -7.115844   1.000000
     17         -7.031853   1.000000
     18         -6.983831   1.000000
     19         -6.744049   1.000000
     20         -6.669411   1.000000
     21         -6.542173   1.000000
     22         -5.973880   1.000000
     23         -5.209038   1.000000
     24         -5.144472   1.000000
     25         -4.709242   1.000000
     26         -4.350029   1.000000
     27         -3.790662   1.000000
     28         -3.250947   1.000000
     29         -2.987673   1.000000
     30         -1.844924   1.000000
     31         -1.553031   1.000000
     32         -0.237507   0.000000
     33          0.487978   0.000000
     34          1.314584   0.000000
     35          2.475048   0.000000
     36          2.876179   0.000000
     37          3.423499   0.000000
     38          3.609178   0.000000

  0.3000000E+00 -0.1000000E+00  0.1262379E-14  0.2000000E-01
      1        -17.537400   1.000000
      2        -17.260126   1.000000
      3        -17.177478   1.000000
      4        -17.077695   1.000000
      5        -17.039052   1.000000
      6        -16.495710   1.000000
      7        -16.261379   1.000000
      8        -16.160578   1.000000
      9        -16.138551   1.000000
     10        -16.097812   1.000000
     11        -15.389988   1.000000
     12        -14.795863   1.000000
     13        -13.704355   1.000000
     14        -12.544262   1.000000
     15         -8.180614   1.000000
     16         -7.115844   1.000000
     17         -7.031854   1.000000
     18         -6.983831   1.000000
     19         -6.744049   1.000000
     20         -6.669411   1.000000
     21         -6.542173   1.000000
     22         -5.973880   1.000000
     23         -5.209038   1.000000
     24         -5.144472   1.000000
     25         -4.709241   1.000000
     26         -4.350029   1.000000
     27         -3.790662   1.000000
     28         -3.250947   1.000000
     29         -2.987673   1.000000
     30         -1.844924   1.000000
     31         -1.553031   1.000000
     32         -0.237507   0.000000
     33          0.487978   0.000000
     34          1.314584   0.000000
     35          2.475048   0.000000
     36          2.876179   0.000000
     37          3.423499   0.000000
     38          3.609178   0.000000

  0.3000000E+00  0.1000000E+00  0.1262379E-14  0.2000000E-01
      1        -17.607717   1.000000
      2        -17.252013   1.000000
      3        -17.160132   1.000000
      4        -17.087608   1.000000
      5        -17.031242   1.000000
      6        -16.588535   1.000000
      7        -16.257185   1.000000
      8        -16.166067   1.000000
      9        -16.115549   1.000000
     10        -16.080277   1.000000
     11        -14.962897   1.000000
     12        -14.493604   1.000000
     13        -13.481320   1.000000
     14        -12.361955   1.000000
     15         -8.486880   1.000000
     16         -7.587045   1.000000
     17         -6.983518   1.000000
     18         -6.925523   1.000000
     19         -6.793875   1.000000
     20         -6.692307   1.000000
     21         -6.640117   1.000000
     22         -6.203518   1.000000
     23         -5.703753   1.000000
     24         -5.449534   1.000000
     25         -4.965279   1.000000
     26         -4.763562   1.000000
     27         -4.208339   1.000000
     28         -3.508408   1.000000
     29         -3.216494   1.000000
     30         -2.221490   1.000000
     31         -1.476190   1.000000
     32         -0.253879   0.000000
     33          0.168382   0.000000
     34          0.968690   0.000000
     35          2.819520   0.000000
     36          2.958690   0.000000
     37          3.500574   0.000000
     38          3.770381   0.000000

 -0.1000000E+00  0.4000000E+00  0.1262379E-14  0.2000000E-01
      1        -17.607717   1.000000
      2        -17.252013   1.000000
      3        -17.160132   1.000000
      4        -17.087608   1.000000
      5        -17.031242   1.000000
      6        -16.588535   1.000000
      7        -16.257185   1.000000
      8        -16.166067   1.000000
      9        -16.115548   1.000000
     10        -16.080277   1.000000
     11        -14.962897   1.000000
     12        -14.493604   1.000000
     13        -13.481320   1.000000
     14        -12.361955   1.000000
     15         -8.486880   1.000000
     16         -7.587046   1.000000
     17         -6.983518   1.000000
     18         -6.925523   1.000000
     19         -6.793875   1.000000
     20         -6.692308   1.000000
     21         -6.640117   1.000000
     22         -6.203518   1.000000
     23         -5.703753   1.000000
     24         -5.449534   1.000000
     25         -4.965279   1.000000
     26         -4.763562   1.000000
     27         -4.208339   1.000000
     28         -3.508408   1.000000
     29         -3.216494   1.000000
     30         -2.221490   1.000000
     31         -1.476190   1.000000
     32         -0.253879   0.000000
     33          0.168382   0.000000
     34          0.968690   0.000000
     35          2.819520   0.000000
     36          2.958690   0.000000
     37          3.500574   0.000000
     38          3.770381   0.000000

 -0.4000000E+00  0.3000000E+00  0.1262379E-14  0.2000000E-01
      1        -17.607717   1.000000
      2        -17.252013   1.000000
      3        -17.160132   1.000000
      4        -17.087608   1.000000
      5        -17.031242   1.000000
      6        -16.588535   1.000000
      7        -16.257184   1.000000
      8        -16.166067   1.000000
      9        -16.115549   1.000000
     10        -16.080277   1.000000
     11        -14.962897   1.000000
     12        -14.493603   1.000000
     13        -13.481320   1.000000
     14        -12.361955   1.000000
     15         -8.486880   1.000000
     16         -7.587046   1.000000
     17         -6.983518   1.000000
     18         -6.925522   1.000000
     19         -6.793875   1.000000
     20         -6.692308   1.000000
     21         -6.640118   1.000000
     22         -6.203518   1.000000
     23         -5.703753   1.000000
     24         -5.449534   1.000000
     25         -4.965279   1.000000
     26         -4.763562   1.000000
     27         -4.208339   1.000000
     28         -3.508408   1.000000
     29         -3.216494   1.000000
     30         -2.221489   1.000000
     31         -1.476190   1.000000
     32         -0.253879   0.000000
     33          0.168382   0.000000
     34          0.968690   0.000000
     35          2.819520   0.000000
     36          2.958690   0.000000
     37          3.500575   0.000000
     38          3.770382   0.000000

 -0.3000000E+00  0.4000000E+00  0.1262379E-14  0.2000000E-01
      1        -17.607717   1.000000
      2        -17.252013   1.000000
      3        -17.160132   1.000000
      4        -17.087608   1.000000
      5        -17.031242   1.000000
      6        -16.588535   1.000000
      7        -16.257184   1.000000
      8        -16.166067   1.000000
      9        -16.115549   1.000000
     10        -16.080277   1.000000
     11        -14.962897   1.000000
     12        -14.493603   1.000000
     13        -13.481320   1.000000
     14        -12.361955   1.000000
     15         -8.486880   1.000000
     16         -7.587046   1.000000
     17         -6.983518   1.000000
     18         -6.925522   1.000000
     19         -6.793875   1.000000
     20         -6.692308   1.000000
     21         -6.640118   1.000000
     22         -6.203518   1.000000
     23         -5.703753   1.000000
     24         -5.449534   1.000000
     25         -4.965279   1.000000
     26         -4.763562   1.000000
     27         -4.208339   1.000000
     28         -3.508408   1.000000
     29         -3.216494   1.000000
     30         -2.221489   1.000000
     31         -1.476190   1.000000
     32         -0.253879   0.000000
     33          0.168382   0.000000
     34          0.968690   0.000000
     35          2.819520   0.000000
     36          2.958690   0.000000
     37          3.500575   0.000000
     38          3.770381   0.000000

  0.1000000E+00  0.3000000E+00  0.1262379E-14  0.2000000E-01
      1        -17.607717   1.000000
      2        -17.252013   1.000000
      3        -17.160132   1.000000
      4        -17.087608   1.000000
      5        -17.031242   1.000000
      6        -16.588535   1.000000
      7        -16.257185   1.000000
      8        -16.166067   1.000000
      9        -16.115549   1.000000
     10        -16.080277   1.000000
     11        -14.962897   1.000000
     12        -14.493604   1.000000
     13        -13.481320   1.000000
     14        -12.361955   1.000000
     15         -8.486880   1.000000
     16         -7.587046   1.000000
     17         -6.983518   1.000000
     18         -6.925523   1.000000
     19         -6.793875   1.000000
     20         -6.692307   1.000000
     21         -6.640117   1.000000
     22         -6.203518   1.000000
     23         -5.703753   1.000000
     24         -5.449534   1.000000
     25         -4.965279   1.000000
     26         -4.763562   1.000000
     27         -4.208339   1.000000
     28         -3.508408   1.000000
     29         -3.216494   1.000000
     30         -2.221490   1.000000
     31         -1.476190   1.000000
     32         -0.253879   0.000000
     33          0.168382   0.000000
     34          0.968690   0.000000
     35          2.819520   0.000000
     36          2.958690   0.000000
     37          3.500574   0.000000
     38          3.770381   0.000000

  0.4000000E+00 -0.1000000E+00  0.1262379E-14  0.2000000E-01
      1        -17.607717   1.000000
      2        -17.252013   1.000000
      3        -17.160132   1.000000
      4        -17.087608   1.000000
      5        -17.031242   1.000000
      6        -16.588535   1.000000
      7        -16.257185   1.000000
      8        -16.166067   1.000000
      9        -16.115548   1.000000
     10        -16.080277   1.000000
     11        -14.962897   1.000000
     12        -14.493603   1.000000
     13        -13.481320   1.000000
     14        -12.361955   1.000000
     15         -8.486880   1.000000
     16         -7.587046   1.000000
     17         -6.983518   1.000000
     18         -6.925523   1.000000
     19         -6.793875   1.000000
     20         -6.692308   1.000000
     21         -6.640117   1.000000
     22         -6.203518   1.000000
     23         -5.703753   1.000000
     24         -5.449534   1.000000
     25         -4.965278   1.000000
     26         -4.763562   1.000000
     27         -4.208339   1.000000
     28         -3.508408   1.000000
     29         -3.216494   1.000000
     30         -2.221490   1.000000
     31         -1.476190   1.000000
     32         -0.253879   0.000000
     33          0.168382   0.000000
     34          0.968690   0.000000
     35          2.819520   0.000000
     36          2.958690   0.000000
     37          3.500574   0.000000
     38          3.770381   0.000000

  0.4000000E+00  0.1000000E+00  0.1262379E-14  0.2000000E-01
      1        -17.647654   1.000000
      2        -17.246285   1.000000
      3        -17.152262   1.000000
      4        -17.092923   1.000000
      5        -17.023588   1.000000
      6        -16.640682   1.000000
      7        -16.255557   1.000000
      8        -16.172864   1.000000
      9        -16.094285   1.000000
     10        -16.073031   1.000000
     11        -14.640305   1.000000
     12        -14.288579   1.000000
     13        -13.365644   1.000000
     14        -12.243816   1.000000
     15         -8.845979   1.000000
     16         -7.937810   1.000000
     17         -6.956570   1.000000
     18         -6.898118   1.000000
     19         -6.847395   1.000000
     20         -6.660925   1.000000
     21         -6.525889   1.000000
     22         -6.288183   1.000000
     23         -5.919882   1.000000
     24         -5.575891   1.000000
     25         -5.384005   1.000000
     26         -4.865608   1.000000
     27         -4.547515   1.000000
     28         -3.638896   1.000000
     29         -3.218876   1.000000
     30         -2.430009   1.000000
     31         -1.449871   1.000000
     32         -0.351444   0.000000
     33         -0.060373   0.000000
     34          0.786694   0.000000
     35          2.801144   0.000000
     36          3.074933   0.000000
     37          3.245943   0.000000
     38          3.735981   0.000000

 -0.1000000E+00  0.5000000E+00  0.1262379E-14  0.2000000E-01
      1        -17.647654   1.000000
      2        -17.246285   1.000000
      3        -17.152262   1.000000
      4        -17.092923   1.000000
      5        -17.023588   1.000000
      6        -16.640682   1.000000
      7        -16.255557   1.000000
      8        -16.172864   1.000000
      9        -16.094285   1.000000
     10        -16.073031   1.000000
     11        -14.640305   1.000000
     12        -14.288579   1.000000
     13        -13.365644   1.000000
     14        -12.243816   1.000000
     15         -8.845979   1.000000
     16         -7.937810   1.000000
     17         -6.956570   1.000000
     18         -6.898117   1.000000
     19         -6.847395   1.000000
     20         -6.660925   1.000000
     21         -6.525889   1.000000
     22         -6.288183   1.000000
     23         -5.919882   1.000000
     24         -5.575891   1.000000
     25         -5.384005   1.000000
     26         -4.865608   1.000000
     27         -4.547515   1.000000
     28         -3.638896   1.000000
     29         -3.218876   1.000000
     30         -2.430009   1.000000
     31         -1.449871   1.000000
     32         -0.351444   0.000000
     33         -0.060373   0.000000
     34          0.786694   0.000000
     35          2.801144   0.000000
     36          3.074933   0.000000
     37          3.245943   0.000000
     38          3.735982   0.000000

  0.5000000E+00  0.4000000E+00  0.1262379E-14  0.2000000E-01
      1        -17.647654   1.000000
      2        -17.246285   1.000000
      3        -17.152262   1.000000
      4        -17.092923   1.000000
      5        -17.023588   1.000000
      6        -16.640682   1.000000
      7        -16.255557   1.000000
      8        -16.172864   1.000000
      9        -16.094286   1.000000
     10        -16.073031   1.000000
     11        -14.640305   1.000000
     12        -14.288579   1.000000
     13        -13.365644   1.000000
     14        -12.243816   1.000000
     15         -8.845979   1.000000
     16         -7.937811   1.000000
     17         -6.956570   1.000000
     18         -6.898117   1.000000
     19         -6.847394   1.000000
     20         -6.660924   1.000000
     21         -6.525891   1.000000
     22         -6.288183   1.000000
     23         -5.919882   1.000000
     24         -5.575891   1.000000
     25         -5.384006   1.000000
     26         -4.865608   1.000000
     27         -4.547515   1.000000
     28         -3.638896   1.000000
     29         -3.218876   1.000000
     30         -2.430008   1.000000
     31         -1.449871   1.000000
     32         -0.351444   0.000000
     33         -0.060373   0.000000
     34          0.786694   0.000000
     35          2.801145   0.000000
     36          3.074933   0.000000
     37          3.245943   0.000000
     38          3.735983   0.000000

 -0.4000000E+00  0.5000000E+00  0.1262379E-14  0.2000000E-01
      1        -17.647654   1.000000
      2        -17.246285   1.000000
      3        -17.152262   1.000000
      4        -17.092923   1.000000
      5        -17.023588   1.000000
      6        -16.640682   1.000000
      7        -16.255557   1.000000
      8        -16.172864   1.000000
      9        -16.094286   1.000000
     10        -16.073031   1.000000
     11        -14.640305   1.000000
     12        -14.288579   1.000000
     13        -13.365644   1.000000
     14        -12.243816   1.000000
     15         -8.845979   1.000000
     16         -7.937811   1.000000
     17         -6.956570   1.000000
     18         -6.898117   1.000000
     19         -6.847394   1.000000
     20         -6.660924   1.000000
     21         -6.525891   1.000000
     22         -6.288183   1.000000
     23         -5.919882   1.000000
     24         -5.575891   1.000000
     25         -5.384006   1.000000
     26         -4.865608   1.000000
     27         -4.547515   1.000000
     28         -3.638896   1.000000
     29         -3.218876   1.000000
     30         -2.430008   1.000000
     31         -1.449871   1.000000
     32         -0.351444   0.000000
     33         -0.060373   0.000000
     34          0.786694   0.000000
     35          2.801145   0.000000
     36          3.074933   0.000000
     37          3.245943   0.000000
     38          3.735983   0.000000

  0.1000000E+00  0.4000000E+00  0.1262379E-14  0.2000000E-01
      1        -17.647654   1.000000
      2        -17.246285   1.000000
      3        -17.152262   1.000000
      4        -17.092923   1.000000
      5        -17.023588   1.000000
      6        -16.640682   1.000000
      7        -16.255557   1.000000
      8        -16.172864   1.000000
      9        -16.094285   1.000000
     10        -16.073031   1.000000
     11        -14.640305   1.000000
     12        -14.288579   1.000000
     13        -13.365644   1.000000
     14        -12.243816   1.000000
     15         -8.845979   1.000000
     16         -7.937810   1.000000
     17         -6.956570   1.000000
     18         -6.898118   1.000000
     19         -6.847395   1.000000
     20         -6.660925   1.000000
     21         -6.525889   1.000000
     22         -6.288183   1.000000
     23         -5.919882   1.000000
     24         -5.575891   1.000000
     25         -5.384005   1.000000
     26         -4.865608   1.000000
     27         -4.547515   1.000000
     28         -3.638896   1.000000
     29         -3.218876   1.000000
     30         -2.430009   1.000000
     31         -1.449871   1.000000
     32         -0.351444   0.000000
     33         -0.060373   0.000000
     34          0.786694   0.000000
     35          2.801144   0.000000
     36          3.074933   0.000000
     37          3.245943   0.000000
     38          3.735982   0.000000

  0.5000000E+00 -0.1000000E+00  0.1262379E-14  0.2000000E-01
      1        -17.647654   1.000000
      2        -17.246285   1.000000
      3        -17.152262   1.000000
      4        -17.092923   1.000000
      5        -17.023588   1.000000
      6        -16.640682   1.000000
      7        -16.255557   1.000000
      8        -16.172864   1.000000
      9        -16.094285   1.000000
     10        -16.073031   1.000000
     11        -14.640305   1.000000
     12        -14.288579   1.000000
     13        -13.365644   1.000000
     14        -12.243816   1.000000
     15         -8.845979   1.000000
     16         -7.937810   1.000000
     17         -6.956570   1.000000
     18         -6.898117   1.000000
     19         -6.847395   1.000000
     20         -6.660925   1.000000
     21         -6.525889   1.000000
     22         -6.288183   1.000000
     23         -5.919882   1.000000
     24         -5.575891   1.000000
     25         -5.384004   1.000000
     26         -4.865608   1.000000
     27         -4.547515   1.000000
     28         -3.638896   1.000000
     29         -3.218876   1.000000
     30         -2.430009   1.000000
     31         -1.449871   1.000000
     32         -0.351444   0.000000
     33         -0.060373   0.000000
     34          0.786694   0.000000
     35          2.801144   0.000000
     36          3.074933   0.000000
     37          3.245943   0.000000
     38          3.735982   0.000000

  0.2000000E+00  0.2000000E+00  0.1262379E-14  0.2000000E-01
      1        -17.595454   1.000000
      2        -17.254029   1.000000
      3        -17.165567   1.000000
      4        -17.081964   1.000000
      5        -17.037952   1.000000
      6        -16.548386   1.000000
      7        -16.302536   1.000000
      8        -16.146797   1.000000
      9        -16.136524   1.000000
     10        -16.082183   1.000000
     11        -15.011334   1.000000
     12        -14.505816   1.000000
     13        -13.514624   1.000000
     14        -12.382780   1.000000
     15         -8.372184   1.000000
     16         -7.452882   1.000000
     17         -6.991811   1.000000
     18         -6.925829   1.000000
     19         -6.766119   1.000000
     20         -6.682268   1.000000
     21         -6.626476   1.000000
     22         -6.203482   1.000000
     23         -5.774092   1.000000
     24         -5.508180   1.000000
     25         -5.093426   1.000000
     26         -4.671360   1.000000
     27         -3.937193   1.000000
     28         -3.704856   1.000000
     29         -3.240540   1.000000
     30         -2.459954   1.000000
     31         -1.458065   1.000000
     32          0.032809   0.000000
     33          0.438861   0.000000
     34          1.562760   0.000000
     35          2.186554   0.000000
     36          3.336051   0.000000
     37          3.586391   0.000000
     38          3.927645   0.000000

 -0.2000000E+00  0.4000000E+00  0.1262379E-14  0.2000000E-01
      1        -17.595454   1.000000
      2        -17.254029   1.000000
      3        -17.165567   1.000000
      4        -17.081964   1.000000
      5        -17.037952   1.000000
      6        -16.548386   1.000000
      7        -16.302535   1.000000
      8        -16.146797   1.000000
      9        -16.136524   1.000000
     10        -16.082183   1.000000
     11        -15.011334   1.000000
     12        -14.505816   1.000000
     13        -13.514624   1.000000
     14        -12.382779   1.000000
     15         -8.372184   1.000000
     16         -7.452882   1.000000
     17         -6.991812   1.000000
     18         -6.925828   1.000000
     19         -6.766119   1.000000
     20         -6.682267   1.000000
     21         -6.626476   1.000000
     22         -6.203481   1.000000
     23         -5.774092   1.000000
     24         -5.508180   1.000000
     25         -5.093426   1.000000
     26         -4.671360   1.000000
     27         -3.937193   1.000000
     28         -3.704856   1.000000
     29         -3.240540   1.000000
     30         -2.459953   1.000000
     31         -1.458065   1.000000
     32          0.032809   0.000000
     33          0.438861   0.000000
     34          1.562760   0.000000
     35          2.186554   0.000000
     36          3.336051   0.000000
     37          3.586391   0.000000
     38          3.927646   0.000000

 -0.4000000E+00  0.2000000E+00  0.1262379E-14  0.2000000E-01
      1        -17.595454   1.000000
      2        -17.254029   1.000000
      3        -17.165567   1.000000
      4        -17.081964   1.000000
      5        -17.037952   1.000000
      6        -16.548386   1.000000
      7        -16.302535   1.000000
      8        -16.146797   1.000000
      9        -16.136524   1.000000
     10        -16.082183   1.000000
     11        -15.011334   1.000000
     12        -14.505816   1.000000
     13        -13.514624   1.000000
     14        -12.382779   1.000000
     15         -8.372184   1.000000
     16         -7.452882   1.000000
     17         -6.991812   1.000000
     18         -6.925828   1.000000
     19         -6.766119   1.000000
     20         -6.682267   1.000000
     21         -6.626476   1.000000
     22         -6.203481   1.000000
     23         -5.774092   1.000000
     24         -5.508180   1.000000
     25         -5.093426   1.000000
     26         -4.671360   1.000000
     27         -3.937193   1.000000
     28         -3.704856   1.000000
     29         -3.240540   1.000000
     30         -2.459953   1.000000
     31         -1.458065   1.000000
     32          0.032809   0.000000
     33          0.438861   0.000000
     34          1.562761   0.000000
     35          2.186554   0.000000
     36          3.336051   0.000000
     37          3.586391   0.000000
     38          3.927646   0.000000

  0.3000000E+00  0.2000000E+00  0.1262379E-14  0.2000000E-01
      1        -17.637594   1.000000
      2        -17.246288   1.000000
      3        -17.160655   1.000000
      4        -17.082463   1.000000
      5        -17.036741   1.000000
      6        -16.585748   1.000000
      7        -16.333373   1.000000
      8        -16.150795   1.000000
      9        -16.115466   1.000000
     10        -16.079489   1.000000
     11        -14.650124   1.000000
     12        -14.226210   1.000000
     13        -13.399199   1.000000
     14        -12.246673   1.000000
     15         -8.668633   1.000000
     16         -7.805448   1.000000
     17         -6.943170   1.000000
     18         -6.899081   1.000000
     19         -6.786620   1.000000
     20         -6.699039   1.000000
     21         -6.539383   1.000000
     22         -6.323359   1.000000
     23         -6.209082   1.000000
     24         -5.750059   1.000000
     25         -5.235467   1.000000
     26         -5.008252   1.000000
     27         -4.382603   1.000000
     28         -3.939166   1.000000
     29         -3.262176   1.000000
     30         -2.885025   1.000000
     31         -1.415407   1.000000
     32          0.098856   0.000000
     33          0.241069   0.000000
     34          1.488565   0.000000
     35          2.418872   0.000000
     36          3.353701   0.000000
     37          3.656837   0.000000
     38          4.316679   0.000000

 -0.2000000E+00  0.5000000E+00  0.1262379E-14  0.2000000E-01
      1        -17.637594   1.000000
      2        -17.246288   1.000000
      3        -17.160655   1.000000
      4        -17.082463   1.000000
      5        -17.036741   1.000000
      6        -16.585748   1.000000
      7        -16.333373   1.000000
      8        -16.150795   1.000000
      9        -16.115465   1.000000
     10        -16.079489   1.000000
     11        -14.650124   1.000000
     12        -14.226210   1.000000
     13        -13.399199   1.000000
     14        -12.246673   1.000000
     15         -8.668633   1.000000
     16         -7.805448   1.000000
     17         -6.943170   1.000000
     18         -6.899081   1.000000
     19         -6.786621   1.000000
     20         -6.699038   1.000000
     21         -6.539384   1.000000
     22         -6.323359   1.000000
     23         -6.209082   1.000000
     24         -5.750059   1.000000
     25         -5.235467   1.000000
     26         -5.008252   1.000000
     27         -4.382603   1.000000
     28         -3.939166   1.000000
     29         -3.262176   1.000000
     30         -2.885025   1.000000
     31         -1.415407   1.000000
     32          0.098856   0.000000
     33          0.241069   0.000000
     34          1.488565   0.000000
     35          2.418872   0.000000
     36          3.353701   0.000000
     37          3.656837   0.000000
     38          4.316679   0.000000

  0.5000000E+00  0.3000000E+00  0.1262379E-14  0.2000000E-01
      1        -17.637594   1.000000
      2        -17.246288   1.000000
      3        -17.160655   1.000000
      4        -17.082463   1.000000
      5        -17.036741   1.000000
      6        -16.585748   1.000000
      7        -16.333373   1.000000
      8        -16.150795   1.000000
      9        -16.115466   1.000000
     10        -16.079489   1.000000
     11        -14.650124   1.000000
     12        -14.226210   1.000000
     13        -13.399199   1.000000
     14        -12.246673   1.000000
     15         -8.668634   1.000000
     16         -7.805448   1.000000
     17         -6.943170   1.000000
     18         -6.899080   1.000000
     19         -6.786620   1.000000
     20         -6.699038   1.000000
     21         -6.539385   1.000000
     22         -6.323359   1.000000
     23         -6.209082   1.000000
     24         -5.750059   1.000000
     25         -5.235467   1.000000
     26         -5.008252   1.000000
     27         -4.382603   1.000000
     28         -3.939166   1.000000
     29         -3.262176   1.000000
     30         -2.885025   1.000000
     31         -1.415407   1.000000
     32          0.098856   0.000000
     33          0.241069   0.000000
     34          1.488565   0.000000
     35          2.418872   0.000000
     36          3.353701   0.000000
     37          3.656837   0.000000
     38          4.316680   0.000000

 -0.3000000E+00  0.5000000E+00  0.1262379E-14  0.2000000E-01
      1        -17.637594   1.000000
      2        -17.246288   1.000000
      3        -17.160655   1.000000
      4        -17.082463   1.000000
      5        -17.036741   1.000000
      6        -16.585748   1.000000
      7        -16.333373   1.000000
      8        -16.150795   1.000000
      9        -16.115466   1.000000
     10        -16.079489   1.000000
     11        -14.650124   1.000000
     12        -14.226210   1.000000
     13        -13.399199   1.000000
     14        -12.246673   1.000000
     15         -8.668634   1.000000
     16         -7.805448   1.000000
     17         -6.943170   1.000000
     18         -6.899080   1.000000
     19         -6.786620   1.000000
     20         -6.699038   1.000000
     21         -6.539385   1.000000
     22         -6.323359   1.000000
     23         -6.209082   1.000000
     24         -5.750059   1.000000
     25         -5.235467   1.000000
     26         -5.008252   1.000000
     27         -4.382603   1.000000
     28         -3.939166   1.000000
     29         -3.262176   1.000000
     30         -2.885025   1.000000
     31         -1.415407   1.000000
     32          0.098856   0.000000
     33          0.241069   0.000000
     34          1.488565   0.000000
     35          2.418872   0.000000
     36          3.353701   0.000000
     37          3.656837   0.000000
     38          4.316680   0.000000

  0.2000000E+00  0.3000000E+00  0.1262379E-14  0.2000000E-01
      1        -17.637594   1.000000
      2        -17.246288   1.000000
      3        -17.160655   1.000000
      4        -17.082463   1.000000
      5        -17.036741   1.000000
      6        -16.585748   1.000000
      7        -16.333373   1.000000
      8        -16.150795   1.000000
      9        -16.115466   1.000000
     10        -16.079489   1.000000
     11        -14.650124   1.000000
     12        -14.226210   1.000000
     13        -13.399199   1.000000
     14        -12.246673   1.000000
     15         -8.668633   1.000000
     16         -7.805448   1.000000
     17         -6.943170   1.000000
     18         -6.899081   1.000000
     19         -6.786620   1.000000
     20         -6.699039   1.000000
     21         -6.539383   1.000000
     22         -6.323359   1.000000
     23         -6.209082   1.000000
     24         -5.750059   1.000000
     25         -5.235467   1.000000
     26         -5.008252   1.000000
     27         -4.382603   1.000000
     28         -3.939166   1.000000
     29         -3.262176   1.000000
     30         -2.885025   1.000000
     31         -1.415407   1.000000
     32          0.098856   0.000000
     33          0.241069   0.000000
     34          1.488565   0.000000
     35          2.418872   0.000000
     36          3.353701   0.000000
     37          3.656837   0.000000
     38          4.316679   0.000000

  0.5000000E+00 -0.2000000E+00  0.1262379E-14  0.2000000E-01
      1        -17.637594   1.000000
      2        -17.246288   1.000000
      3        -17.160655   1.000000
      4        -17.082463   1.000000
      5        -17.036741   1.000000
      6        -16.585748   1.000000
      7        -16.333373   1.000000
      8        -16.150795   1.000000
      9        -16.115465   1.000000
     10        -16.079489   1.000000
     11        -14.650124   1.000000
     12        -14.226210   1.000000
     13        -13.399199   1.000000
     14        -12.246673   1.000000
     15         -8.668633   1.000000
     16         -7.805448   1.000000
     17         -6.943170   1.000000
     18         -6.899081   1.000000
     19         -6.786621   1.000000
     20         -6.699038   1.000000
     21         -6.539384   1.000000
     22         -6.323359   1.000000
     23         -6.209082   1.000000
     24         -5.750058   1.000000
     25         -5.235467   1.000000
     26         -5.008252   1.000000
     27         -4.382603   1.000000
     28         -3.939166   1.000000
     29         -3.262176   1.000000
     30         -2.885025   1.000000
     31         -1.415407   1.000000
     32          0.098856   0.000000
     33          0.241069   0.000000
     34          1.488565   0.000000
     35          2.418872   0.000000
     36          3.353701   0.000000
     37          3.656837   0.000000
     38          4.316679   0.000000

  0.4000000E+00  0.2000000E+00  0.1262379E-14  0.2000000E-01
      1        -17.652775   1.000000
      2        -17.242900   1.000000
      3        -17.159739   1.000000
      4        -17.082006   1.000000
      5        -17.036170   1.000000
      6        -16.599584   1.000000
      7        -16.344286   1.000000
      8        -16.153138   1.000000
      9        -16.094240   1.000000
     10        -16.091282   1.000000
     11        -14.489158   1.000000
     12        -14.106432   1.000000
     13        -13.372323   1.000000
     14        -12.193361   1.000000
     15         -8.814310   1.000000
     16         -7.958157   1.000000
     17         -6.941868   1.000000
     18         -6.889488   1.000000
     19         -6.803294   1.000000
     20         -6.681525   1.000000
     21         -6.458423   1.000000
     22         -6.416990   1.000000
     23         -6.250529   1.000000
     24         -5.878519   1.000000
     25         -5.436231   1.000000
     26         -4.907559   1.000000
     27         -4.660487   1.000000
     28         -4.047779   1.000000
     29         -3.267122   1.000000
     30         -2.996776   1.000000
     31         -1.410284   1.000000
     32          0.102236   0.000000
     33          0.131572   0.000000
     34          1.422569   0.000000
     35          2.502559   0.000000
     36          3.320476   0.000000
     37          3.685859   0.000000
     38          4.325423   0.000000

 -0.2000000E+00 -0.4000000E+00  0.1262379E-14  0.2000000E-01
      1        -17.652775   1.000000
      2        -17.242900   1.000000
      3        -17.159739   1.000000
      4        -17.082006   1.000000
      5        -17.036170   1.000000
      6        -16.599584   1.000000
      7        -16.344286   1.000000
      8        -16.153138   1.000000
      9        -16.094240   1.000000
     10        -16.091282   1.000000
     11        -14.489158   1.000000
     12        -14.106432   1.000000
     13        -13.372323   1.000000
     14        -12.193361   1.000000
     15         -8.814310   1.000000
     16         -7.958157   1.000000
     17         -6.941868   1.000000
     18         -6.889488   1.000000
     19         -6.803294   1.000000
     20         -6.681525   1.000000
     21         -6.458423   1.000000
     22         -6.416990   1.000000
     23         -6.250529   1.000000
     24         -5.878519   1.000000
     25         -5.436231   1.000000
     26         -4.907559   1.000000
     27         -4.660488   1.000000
     28         -4.047779   1.000000
     29         -3.267122   1.000000
     30         -2.996776   1.000000
     31         -1.410284   1.000000
     32          0.102236   0.000000
     33          0.131572   0.000000
     34          1.422569   0.000000
     35          2.502559   0.000000
     36          3.320476   0.000000
     37          3.685859   0.000000
     38          4.325423   0.000000

  0.4000000E+00  0.4000000E+00  0.1262379E-14  0.2000000E-01
      1        -17.652775   1.000000
      2        -17.242900   1.000000
      3        -17.159738   1.000000
      4        -17.082006   1.000000
      5        -17.036170   1.000000
      6        -16.599584   1.000000
      7        -16.344285   1.000000
      8        -16.153138   1.000000
      9        -16.094240   1.000000
     10        -16.091282   1.000000
     11        -14.489158   1.000000
     12        -14.106432   1.000000
     13        -13.372323   1.000000
     14        -12.193361   1.000000
     15         -8.814311   1.000000
     16         -7.958158   1.000000
     17         -6.941868   1.000000
     18         -6.889487   1.000000
     19         -6.803293   1.000000
     20         -6.681525   1.000000
     21         -6.458422   1.000000
     22         -6.416992   1.000000
     23         -6.250528   1.000000
     24         -5.878519   1.000000
     25         -5.436231   1.000000
     26         -4.907559   1.000000
     27         -4.660488   1.000000
     28         -4.047779   1.000000
     29         -3.267122   1.000000
     30         -2.996775   1.000000
     31         -1.410284   1.000000
     32          0.102236   0.000000
     33          0.131572   0.000000
     34          1.422569   0.000000
     35          2.502559   0.000000
     36          3.320476   0.000000
     37          3.685859   0.000000
     38          4.325424   0.000000

  0.3000000E+00  0.3000000E+00  0.1262379E-14  0.2000000E-01
      1        -17.652997   1.000000
      2        -17.241338   1.000000
      3        -17.164001   1.000000
      4        -17.070406   1.000000
      5        -17.048931   1.000000
      6        -16.555900   1.000000
      7        -16.408957   1.000000
      8        -16.130963   1.000000
      9        -16.114350   1.000000
     10        -16.093410   1.000000
     11        -14.433881   1.000000
     12        -14.011078   1.000000
     13        -13.393971   1.000000
     14        -12.174533   1.000000
     15         -8.749614   1.000000
     16         -7.939753   1.000000
     17         -6.931200   1.000000
     18         -6.893520   1.000000
     19         -6.805014   1.000000
     20         -6.710293   1.000000
     21         -6.693966   1.000000
     22         -6.370083   1.000000
     23         -6.289006   1.000000
     24         -5.988500   1.000000
     25         -5.256964   1.000000
     26         -5.069881   1.000000
     27         -4.656829   1.000000
     28         -4.267386   1.000000
     29         -3.394761   1.000000
     30         -3.141430   1.000000
     31         -1.402171   1.000000
     32          0.225134   0.000000
     33          0.271014   0.000000
     34          1.709878   0.000000
     35          2.451855   0.000000
     36          3.514432   0.000000
     37          3.948063   0.000000
     38          4.469283   0.000000

 -0.3000000E+00 -0.4000000E+00  0.1262379E-14  0.2000000E-01
      1        -17.652997   1.000000
      2        -17.241338   1.000000
      3        -17.164001   1.000000
      4        -17.070406   1.000000
      5        -17.048931   1.000000
      6        -16.555900   1.000000
      7        -16.408957   1.000000
      8        -16.130963   1.000000
      9        -16.114349   1.000000
     10        -16.093411   1.000000
     11        -14.433881   1.000000
     12        -14.011078   1.000000
     13        -13.393971   1.000000
     14        -12.174533   1.000000
     15         -8.749614   1.000000
     16         -7.939753   1.000000
     17         -6.931200   1.000000
     18         -6.893520   1.000000
     19         -6.805015   1.000000
     20         -6.710293   1.000000
     21         -6.693965   1.000000
     22         -6.370084   1.000000
     23         -6.289006   1.000000
     24         -5.988499   1.000000
     25         -5.256964   1.000000
     26         -5.069881   1.000000
     27         -4.656829   1.000000
     28         -4.267386   1.000000
     29         -3.394760   1.000000
     30         -3.141430   1.000000
     31         -1.402171   1.000000
     32          0.225134   0.000000
     33          0.271014   0.000000
     34          1.709878   0.000000
     35          2.451855   0.000000
     36          3.514433   0.000000
     37          3.948064   0.000000
     38          4.469282   0.000000

  0.4000000E+00  0.3000000E+00  0.1262379E-14  0.2000000E-01
      1        -17.652997   1.000000
      2        -17.241338   1.000000
      3        -17.164001   1.000000
      4        -17.070406   1.000000
      5        -17.048931   1.000000
      6        -16.555900   1.000000
      7        -16.408957   1.000000
      8        -16.130963   1.000000
      9        -16.114349   1.000000
     10        -16.093411   1.000000
     11        -14.433881   1.000000
     12        -14.011078   1.000000
     13        -13.393971   1.000000
     14        -12.174533   1.000000
     15         -8.749614   1.000000
     16         -7.939753   1.000000
     17         -6.931200   1.000000
     18         -6.893520   1.000000
     19         -6.805015   1.000000
     20         -6.710293   1.000000
     21         -6.693965   1.000000
     22         -6.370084   1.000000
     23         -6.289006   1.000000
     24         -5.988499   1.000000
     25         -5.256964   1.000000
     26         -5.069881   1.000000
     27         -4.656829   1.000000
     28         -4.267386   1.000000
     29         -3.394760   1.000000
     30         -3.141430   1.000000
     31         -1.402171   1.000000
     32          0.225134   0.000000
     33          0.271014   0.000000
     34          1.709878   0.000000
     35          2.451855   0.000000
     36          3.514433   0.000000
     37          3.948064   0.000000
     38          4.469282   0.000000
