       N       E                     dE             d eps       ncg     rms          rms(c)
DAV:   1     0.531457333221E+03    0.53146E+03   -0.25838E+04  4168   0.141E+03
DAV:   2     0.454985907978E+02   -0.48596E+03   -0.47323E+03  4642   0.345E+02
DAV:   3    -0.252114317726E+02   -0.70710E+02   -0.69772E+02  5168   0.155E+02
DAV:   4    -0.283946507925E+02   -0.31832E+01   -0.31708E+01  4782   0.366E+01
DAV:   5    -0.285235607462E+02   -0.12891E+00   -0.12888E+00  6110   0.737E+00    0.131E+01
DAV:   6    -0.264504537539E+02    0.20731E+01   -0.37189E+00  6552   0.419E+01    0.100E+01
DAV:   7    -0.267102794843E+02   -0.25983E+00   -0.55466E+00  5752   0.131E+01    0.524E+00
DAV:   8    -0.268812462114E+02   -0.17097E+00   -0.11841E+01  6104   0.224E+01    0.238E+00
DAV:   9    -0.266090618681E+02    0.27218E+00   -0.49977E-01  5644   0.119E+01    0.124E+00
DAV:  10    -0.264677238440E+02    0.14134E+00   -0.44448E-01  6584   0.737E+00    0.680E-01
DAV:  11    -0.264877290525E+02   -0.20005E-01   -0.38569E-01  5936   0.254E+00    0.117E+00
DAV:  12    -0.264835374512E+02    0.41916E-02   -0.26813E-02  4700   0.117E+00    0.935E-01
DAV:  13    -0.264714034659E+02    0.12134E-01   -0.12689E-02  6608   0.963E-01    0.419E-01
DAV:  14    -0.264735840491E+02   -0.21806E-02   -0.23720E-02  5376   0.814E-01    0.480E-01
DAV:  15    -0.264715589507E+02    0.20251E-02   -0.28053E-02  6144   0.985E-01    0.287E-01
DAV:  16    -0.264710320879E+02    0.52686E-03   -0.59512E-03  4860   0.337E-01    0.546E-02
DAV:  17    -0.264711358705E+02   -0.10378E-03   -0.35472E-04  5480   0.115E-01    0.631E-02
DAV:  18    -0.264714987545E+02   -0.36288E-03   -0.15244E-03  5448   0.218E-01    0.188E-01
DAV:  19    -0.264712043794E+02    0.29438E-03   -0.89004E-04  5992   0.155E-01    0.395E-02
DAV:  20    -0.264712483655E+02   -0.43986E-04   -0.44351E-05  4552   0.263E-02    0.337E-02
DAV:  21    -0.264712667294E+02   -0.18364E-04   -0.97201E-06  4488   0.264E-02    0.105E-02
DAV:  22    -0.264713178695E+02   -0.51140E-04   -0.69232E-06  3646   0.167E-02    0.219E-02
DAV:  23    -0.264713289552E+02   -0.11086E-04   -0.39543E-06  3616   0.242E-02    0.315E-03
DAV:  24    -0.264713524928E+02   -0.23538E-04   -0.25648E-06  3336   0.846E-03    0.484E-03
DAV:  25    -0.264713637031E+02   -0.11210E-04   -0.98037E-07  3360   0.672E-03    0.106E-02
DAV:  26    -0.264713703381E+02   -0.66351E-05   -0.66363E-07  3048   0.491E-03    0.796E-03
DAV:  27    -0.264713714404E+02   -0.11023E-05   -0.33300E-07  2912   0.540E-03    0.147E-03
DAV:  28    -0.264713739202E+02   -0.24798E-05   -0.48615E-07  3096   0.510E-03    0.434E-03
DAV:  29    -0.264713748074E+02   -0.88727E-06   -0.34565E-07  2936   0.651E-03
   1 F= -.28235939E+02 E0= -.28234377E+02  d E =-.312353E-02
