       N       E                     dE             d eps       ncg     rms          rms(c)
DAV:   1     0.531583547298E+03    0.53158E+03   -0.25817E+04  4160   0.141E+03
DAV:   2     0.458194506666E+02   -0.48576E+03   -0.47299E+03  4698   0.345E+02
DAV:   3    -0.249660952875E+02   -0.70786E+02   -0.69792E+02  5120   0.155E+02
DAV:   4    -0.283328911807E+02   -0.33668E+01   -0.33547E+01  4854   0.374E+01
DAV:   5    -0.284632578324E+02   -0.13037E+00   -0.13034E+00  5932   0.735E+00    0.132E+01
DAV:   6    -0.264948792032E+02    0.19684E+01   -0.36824E+00  6476   0.420E+01    0.100E+01
DAV:   7    -0.266235802976E+02   -0.12870E+00   -0.42027E+00  5496   0.113E+01    0.363E+00
DAV:   8    -0.266319945048E+02   -0.84142E-02   -0.24766E+00  5530   0.104E+01    0.188E+00
DAV:   9    -0.265308163588E+02    0.10118E+00   -0.61206E-01  6456   0.123E+01    0.104E+00
DAV:  10    -0.265356180980E+02   -0.48017E-02   -0.11214E-01  5206   0.177E+00    0.716E-01
DAV:  11    -0.265345176655E+02    0.11004E-02   -0.15139E-02  6326   0.820E-01    0.344E-01
DAV:  12    -0.265350461804E+02   -0.52851E-03   -0.75671E-03  5224   0.584E-01    0.179E-01
DAV:  13    -0.265350409319E+02    0.52485E-05   -0.13581E-03  5160   0.352E-01    0.623E-02
DAV:  14    -0.265350707464E+02   -0.29815E-04   -0.20658E-04  4992   0.819E-02    0.458E-02
DAV:  15    -0.265350834660E+02   -0.12720E-04   -0.35060E-05  6288   0.448E-02    0.315E-02
DAV:  16    -0.265351041670E+02   -0.20701E-04   -0.32244E-05  4706   0.444E-02    0.181E-02
DAV:  17    -0.265351180997E+02   -0.13933E-04   -0.61666E-06  4460   0.161E-02    0.885E-03
DAV:  18    -0.265351337965E+02   -0.15697E-04   -0.11363E-06  3308   0.124E-02    0.409E-03
DAV:  19    -0.265351470122E+02   -0.13216E-04   -0.14191E-06  3382   0.903E-03    0.413E-03
DAV:  20    -0.265351612526E+02   -0.14240E-04   -0.55770E-07  3200   0.425E-03    0.100E-03
DAV:  21    -0.265351798601E+02   -0.18608E-04   -0.76681E-07  3266   0.363E-03    0.231E-03
DAV:  22    -0.265351808022E+02   -0.94207E-06   -0.69215E-08  2976   0.180E-03
   1 F= -.28280997E+02 E0= -.28280711E+02  d E =-.572019E-03
