   7   7   0   0
  0.2260644E+02  0.3878284E-09  0.3878284E-09  0.1214843E-08  0.5000000E-15
  1.000000000000000E-004
  CAR 
 ZnIn2S4 bulk k-point convergence        
     13.73649655    -13.13671163  301      4.53242275      1.00000000
    -13.137  0.0000E+00  0.0000E+00
    -13.047  0.0000E+00  0.0000E+00
    -12.958  0.0000E+00  0.0000E+00
    -12.868  0.0000E+00  0.0000E+00
    -12.778  0.0000E+00  0.0000E+00
    -12.689  0.0000E+00  0.0000E+00
    -12.599  0.0000E+00  0.0000E+00
    -12.510  0.0000E+00  0.0000E+00
    -12.420  0.0000E+00  0.0000E+00
    -12.331  0.0000E+00  0.0000E+00
    -12.241  0.0000E+00  0.0000E+00
    -12.151  0.0000E+00  0.0000E+00
    -12.062  0.0000E+00  0.0000E+00
    -11.972  0.0000E+00  0.0000E+00
    -11.883  0.0000E+00  0.0000E+00
    -11.793  0.0000E+00  0.0000E+00
    -11.703  0.0000E+00  0.0000E+00
    -11.614  0.0000E+00  0.0000E+00
    -11.524  0.0000E+00  0.0000E+00
    -11.435  0.0000E+00  0.0000E+00
    -11.345  0.0000E+00  0.0000E+00
    -11.256  0.0000E+00  0.0000E+00
    -11.166  0.0000E+00  0.0000E+00
    -11.076  0.7894E+01  0.1188E+01
    -10.987  0.4363E+01  0.1686E+01
    -10.897  0.0000E+00  0.2000E+01
    -10.808  0.4123E+02  0.2440E+01
    -10.718  0.1641E+01  0.3996E+01
    -10.629  0.0000E+00  0.6000E+01
    -10.539  0.1640E+03  0.9016E+01
    -10.449  0.4191E+01  0.1150E+02
    -10.360  0.2353E+01  0.1178E+02
    -10.270  0.8465E+01  0.1232E+02
    -10.181  0.3956E+01  0.1410E+02
    -10.091  0.3645E+02  0.1676E+02
    -10.002  0.0000E+00  0.2000E+02
     -9.912  0.0000E+00  0.2000E+02
     -9.822  0.0000E+00  0.2000E+02
     -9.733  0.0000E+00  0.2000E+02
     -9.643  0.4024E+00  0.2000E+02
     -9.554  0.6761E+00  0.2006E+02
     -9.464  0.6802E+00  0.2012E+02
     -9.374  0.7140E+00  0.2018E+02
     -9.285  0.7721E+00  0.2025E+02
     -9.195  0.7988E+00  0.2032E+02
     -9.106  0.9678E+00  0.2039E+02
     -9.016  0.1829E+01  0.2054E+02
     -8.927  0.1894E+01  0.2071E+02
     -8.837  0.1969E+01  0.2088E+02
     -8.747  0.2044E+01  0.2106E+02
     -8.658  0.2181E+01  0.2124E+02
     -8.568  0.2333E+01  0.2145E+02
     -8.479  0.2543E+01  0.2166E+02
     -8.389  0.2881E+01  0.2191E+02
     -8.300  0.3566E+01  0.2219E+02
     -8.210  0.3862E+01  0.2255E+02
     -8.120  0.4002E+01  0.2288E+02
     -8.031  0.6046E+01  0.2332E+02
     -7.941  0.4272E+01  0.2378E+02
     -7.852  0.2808E+01  0.2412E+02
     -7.762  0.1401E+01  0.2434E+02
     -7.672  0.1415E+01  0.2446E+02
     -7.583  0.1691E+01  0.2459E+02
     -7.493  0.2250E+01  0.2477E+02
     -7.404  0.7160E+01  0.2508E+02
     -7.314  0.8993E+01  0.2608E+02
     -7.225  0.1565E+01  0.2624E+02
     -7.135  0.1783E+01  0.2639E+02
     -7.045  0.2124E+01  0.2656E+02
     -6.956  0.2723E+01  0.2678E+02
     -6.866  0.4034E+01  0.2708E+02
     -6.777  0.6838E+01  0.2770E+02
     -6.687  0.0000E+00  0.2800E+02
     -6.598  0.0000E+00  0.2800E+02
     -6.508  0.0000E+00  0.2800E+02
     -6.418  0.0000E+00  0.2800E+02
     -6.329  0.0000E+00  0.2800E+02
     -6.239  0.0000E+00  0.2800E+02
     -6.150  0.0000E+00  0.2800E+02
     -6.060  0.0000E+00  0.2800E+02
     -5.971  0.0000E+00  0.2800E+02
     -5.881  0.0000E+00  0.2800E+02
     -5.791  0.0000E+00  0.2800E+02
     -5.702  0.0000E+00  0.2800E+02
     -5.612  0.0000E+00  0.2800E+02
     -5.523  0.0000E+00  0.2800E+02
     -5.433  0.0000E+00  0.2800E+02
     -5.343  0.0000E+00  0.2800E+02
     -5.254  0.0000E+00  0.2800E+02
     -5.164  0.0000E+00  0.2800E+02
     -5.075  0.0000E+00  0.2800E+02
     -4.985  0.0000E+00  0.2800E+02
     -4.896  0.0000E+00  0.2800E+02
     -4.806  0.0000E+00  0.2800E+02
     -4.716  0.0000E+00  0.2800E+02
     -4.627  0.0000E+00  0.2800E+02
     -4.537  0.0000E+00  0.2800E+02
     -4.448  0.0000E+00  0.2800E+02
     -4.358  0.0000E+00  0.2800E+02
     -4.269  0.0000E+00  0.2800E+02
     -4.179  0.0000E+00  0.2800E+02
     -4.089  0.0000E+00  0.2800E+02
     -4.000  0.0000E+00  0.2800E+02
     -3.910  0.0000E+00  0.2800E+02
     -3.821  0.0000E+00  0.2800E+02
     -3.731  0.0000E+00  0.2800E+02
     -3.642  0.0000E+00  0.2800E+02
     -3.552  0.0000E+00  0.2800E+02
     -3.462  0.0000E+00  0.2800E+02
     -3.373  0.0000E+00  0.2800E+02
     -3.283  0.0000E+00  0.2800E+02
     -3.194  0.0000E+00  0.2800E+02
     -3.104  0.0000E+00  0.2800E+02
     -3.014  0.0000E+00  0.2800E+02
     -2.925  0.0000E+00  0.2800E+02
     -2.835  0.0000E+00  0.2800E+02
     -2.746  0.0000E+00  0.2800E+02
     -2.656  0.0000E+00  0.2800E+02
     -2.567  0.0000E+00  0.2800E+02
     -2.477  0.0000E+00  0.2800E+02
     -2.387  0.2088E+01  0.2810E+02
     -2.298  0.3126E+01  0.2833E+02
     -2.208  0.3142E+01  0.2875E+02
     -2.119  0.2324E+01  0.2898E+02
     -2.029  0.3386E+01  0.2919E+02
     -1.940  0.6322E+01  0.2973E+02
     -1.850  0.4246E+01  0.3037E+02
     -1.760  0.2177E+01  0.3062E+02
     -1.671  0.1660E+01  0.3079E+02
     -1.581  0.1698E+01  0.3094E+02
     -1.492  0.1702E+02  0.3194E+02
     -1.402  0.1064E+02  0.3266E+02
     -1.313  0.5075E+01  0.3524E+02
     -1.223  0.1761E+02  0.3598E+02
     -1.133  0.9572E+01  0.3751E+02
     -1.044  0.3205E+01  0.3998E+02
     -0.954  0.5132E+01  0.4062E+02
     -0.865  0.5119E+01  0.4108E+02
     -0.775  0.2309E+01  0.4135E+02
     -0.685  0.6173E+00  0.4143E+02
     -0.596  0.5861E+00  0.4148E+02
     -0.506  0.5613E+00  0.4153E+02
     -0.417  0.8891E+00  0.4159E+02
     -0.327  0.2996E+01  0.4175E+02
     -0.238  0.4026E+01  0.4216E+02
     -0.148  0.4114E+01  0.4251E+02
     -0.058  0.5335E+01  0.4296E+02
      0.031  0.6328E+01  0.4351E+02
      0.121  0.4313E+01  0.4398E+02
      0.210  0.3714E+01  0.4434E+02
      0.300  0.3374E+01  0.4465E+02
      0.389  0.3173E+01  0.4494E+02
      0.479  0.4161E+01  0.4526E+02
      0.569  0.4794E+01  0.4566E+02
      0.658  0.6183E+01  0.4612E+02
      0.748  0.4329E+01  0.4657E+02
      0.837  0.4088E+01  0.4694E+02
      0.927  0.3384E+01  0.4728E+02
      1.017  0.3908E+01  0.4759E+02
      1.106  0.3924E+01  0.4796E+02
      1.196  0.5562E+01  0.4839E+02
      1.285  0.5432E+01  0.4889E+02
      1.375  0.5600E+01  0.4937E+02
      1.464  0.5354E+01  0.4992E+02
      1.554  0.5112E+01  0.5037E+02
      1.644  0.7525E+01  0.5093E+02
      1.733  0.6207E+01  0.5158E+02
      1.823  0.5569E+01  0.5209E+02
      1.912  0.5232E+01  0.5258E+02
      2.002  0.4179E+01  0.5300E+02
      2.091  0.3943E+01  0.5336E+02
      2.181  0.3258E+01  0.5369E+02
      2.271  0.3234E+01  0.5398E+02
      2.360  0.3994E+01  0.5430E+02
      2.450  0.5125E+01  0.5472E+02
      2.539  0.4088E+01  0.5517E+02
      2.629  0.3586E+01  0.5551E+02
      2.718  0.4597E+01  0.5586E+02
      2.808  0.5154E+01  0.5627E+02
      2.898  0.1128E+02  0.5690E+02
      2.987  0.6343E+01  0.5764E+02
      3.077  0.4745E+01  0.5819E+02
      3.166  0.1892E+01  0.5844E+02
      3.256  0.1749E+01  0.5861E+02
      3.346  0.2353E+01  0.5878E+02
      3.435  0.1990E+01  0.5899E+02
      3.525  0.1601E+01  0.5915E+02
      3.614  0.1592E+01  0.5929E+02
      3.704  0.1234E+01  0.5942E+02
      3.793  0.1806E+01  0.5955E+02
      3.883  0.3662E+01  0.5976E+02
      3.973  0.9481E+01  0.6062E+02
      4.062  0.7667E+01  0.6133E+02
      4.152  0.1143E+01  0.6172E+02
      4.241  0.8349E+00  0.6181E+02
      4.331  0.6821E+00  0.6188E+02
      4.420  0.6565E+00  0.6194E+02
      4.510  0.4382E+00  0.6200E+02
      4.600  0.0000E+00  0.6200E+02
      4.689  0.0000E+00  0.6200E+02
      4.779  0.0000E+00  0.6200E+02
      4.868  0.6249E-03  0.6200E+02
      4.958  0.9063E-02  0.6200E+02
      5.047  0.2785E-01  0.6200E+02
      5.137  0.5785E-01  0.6201E+02
      5.227  0.8087E-01  0.6201E+02
      5.316  0.1143E+00  0.6202E+02
      5.406  0.1581E+00  0.6203E+02
      5.495  0.2440E+00  0.6205E+02
      5.585  0.5675E+00  0.6208E+02
      5.675  0.1034E+01  0.6215E+02
      5.764  0.1584E+01  0.6227E+02
      5.854  0.1859E+01  0.6243E+02
      5.943  0.2306E+01  0.6261E+02
      6.033  0.3986E+01  0.6288E+02
      6.122  0.2554E+01  0.6316E+02
      6.212  0.2707E+01  0.6339E+02
      6.302  0.4052E+01  0.6369E+02
      6.391  0.6050E+01  0.6413E+02
      6.481  0.3506E+01  0.6453E+02
      6.570  0.3721E+01  0.6484E+02
      6.660  0.8331E+01  0.6534E+02
      6.749  0.3431E+01  0.6581E+02
      6.839  0.1741E+00  0.6600E+02
      6.929  0.6132E+00  0.6603E+02
      7.018  0.1045E+01  0.6611E+02
      7.108  0.1034E+01  0.6620E+02
      7.197  0.1109E+01  0.6630E+02
      7.287  0.1134E+01  0.6640E+02
      7.377  0.1309E+01  0.6651E+02
      7.466  0.1358E+01  0.6663E+02
      7.556  0.1460E+01  0.6676E+02
      7.645  0.1613E+01  0.6689E+02
      7.735  0.1842E+01  0.6705E+02
      7.824  0.2264E+01  0.6723E+02
      7.914  0.3146E+01  0.6746E+02
      8.004  0.2773E+01  0.6780E+02
      8.093  0.1314E+01  0.6798E+02
      8.183  0.8020E+00  0.6806E+02
      8.272  0.6889E+00  0.6812E+02
      8.362  0.5992E+00  0.6818E+02
      8.451  0.6593E+00  0.6824E+02
      8.541  0.1629E+01  0.6833E+02
      8.631  0.3606E+01  0.6855E+02
      8.720  0.6608E+01  0.6905E+02
      8.810  0.7471E+01  0.6967E+02
      8.899  0.5536E+01  0.7038E+02
      8.989  0.3038E+01  0.7069E+02
      9.078  0.3320E+01  0.7097E+02
      9.168  0.3306E+01  0.7134E+02
      9.258  0.2948E+01  0.7160E+02
      9.347  0.2685E+01  0.7185E+02
      9.437  0.5465E+01  0.7220E+02
      9.526  0.6389E+01  0.7274E+02
      9.616  0.5416E+01  0.7330E+02
      9.706  0.5860E+01  0.7383E+02
      9.795  0.6408E+01  0.7438E+02
      9.885  0.6960E+01  0.7495E+02
      9.974  0.5402E+01  0.7549E+02
     10.064  0.2470E+01  0.7589E+02
     10.153  0.2147E+01  0.7609E+02
     10.243  0.2204E+01  0.7628E+02
     10.333  0.3619E+01  0.7652E+02
     10.422  0.4557E+01  0.7693E+02
     10.512  0.5218E+01  0.7733E+02
     10.601  0.4796E+01  0.7784E+02
     10.691  0.3831E+01  0.7822E+02
     10.780  0.3230E+01  0.7853E+02
     10.870  0.3183E+01  0.7881E+02
     10.960  0.3593E+01  0.7910E+02
     11.049  0.4011E+01  0.7947E+02
     11.139  0.1813E+01  0.7973E+02
     11.228  0.6634E+00  0.7982E+02
     11.318  0.5409E+00  0.7987E+02
     11.407  0.4531E+00  0.7992E+02
     11.497  0.4391E+00  0.7995E+02
     11.587  0.2429E+00  0.7999E+02
     11.676  0.4171E-01  0.8000E+02
     11.766  0.0000E+00  0.8000E+02
     11.855  0.0000E+00  0.8000E+02
     11.945  0.0000E+00  0.8000E+02
     12.035  0.0000E+00  0.8000E+02
     12.124  0.0000E+00  0.8000E+02
     12.214  0.0000E+00  0.8000E+02
     12.303  0.0000E+00  0.8000E+02
     12.393  0.0000E+00  0.8000E+02
     12.482  0.0000E+00  0.8000E+02
     12.572  0.0000E+00  0.8000E+02
     12.662  0.0000E+00  0.8000E+02
     12.751  0.0000E+00  0.8000E+02
     12.841  0.0000E+00  0.8000E+02
     12.930  0.0000E+00  0.8000E+02
     13.020  0.0000E+00  0.8000E+02
     13.109  0.0000E+00  0.8000E+02
     13.199  0.0000E+00  0.8000E+02
     13.289  0.0000E+00  0.8000E+02
     13.378  0.0000E+00  0.8000E+02
     13.468  0.0000E+00  0.8000E+02
     13.557  0.0000E+00  0.8000E+02
     13.647  0.0000E+00  0.8000E+02
     13.736  0.0000E+00  0.8000E+02
