       N       E                     dE             d eps       ncg     rms          rms(c)
DAV:   1     0.585984333878E+03    0.58598E+03   -0.27447E+04 16160   0.174E+03
DAV:   2     0.583113774759E+02   -0.52767E+03   -0.50501E+03 16296   0.446E+02
DAV:   3    -0.236196054152E+02   -0.81931E+02   -0.79827E+02 19968   0.174E+02
DAV:   4    -0.282093251445E+02   -0.45897E+01   -0.45642E+01 19728   0.418E+01
DAV:   5    -0.284063100720E+02   -0.19698E+00   -0.19692E+00 24080   0.917E+00    0.133E+01
DAV:   6    -0.266579331457E+02    0.17484E+01   -0.30617E+00 25936   0.391E+01    0.967E+00
DAV:   7    -0.266761704616E+02   -0.18237E-01   -0.28728E+00 22768   0.115E+01    0.301E+00
DAV:   8    -0.266365258518E+02    0.39645E-01   -0.37633E-01 22832   0.535E+00    0.203E+00
DAV:   9    -0.266391192267E+02   -0.25934E-02   -0.44878E-02 20376   0.103E+00    0.850E-01
DAV:  10    -0.266385336875E+02    0.58554E-03   -0.58607E-03 22344   0.851E-01    0.598E-01
DAV:  11    -0.266389115752E+02   -0.37789E-03   -0.19855E-03 19824   0.244E-01    0.160E-01
DAV:  12    -0.266388735645E+02    0.38011E-04   -0.34510E-04 23248   0.145E-01    0.115E-01
DAV:  13    -0.266388809785E+02   -0.74140E-05   -0.61915E-05 19288   0.451E-02    0.454E-02
DAV:  14    -0.266388825451E+02   -0.15667E-05   -0.17799E-05 20376   0.309E-02    0.125E-02
DAV:  15    -0.266388828833E+02   -0.33819E-06   -0.33212E-06 26040   0.138E-02    0.793E-03
DAV:  16    -0.266388828326E+02    0.50733E-07   -0.57980E-07 17480   0.426E-03
   1 F= -.28755131E+02 E0= -.28755131E+02  d E =0.000000E+00
