    7    7    1    1
  0.6411772E+02  0.3878284E-09  0.3878284E-09  0.3445611E-08  0.5000000E-15
   1.0000000000000000E-004
  CAR 
 WP2-P02-beta001-vacuum-25A-500-k10      
     62     52     38

  0.1262379E-14  0.1262379E-14  0.1262379E-14  0.1000000E-01
      1        -17.860880   1.000000
      2        -17.671924   1.000000
      3        -17.671924   1.000000
      4        -17.509728   1.000000
      5        -17.509728   1.000000
      6        -16.746133   1.000000
      7        -16.745861   1.000000
      8        -16.745861   1.000000
      9        -16.598451   1.000000
     10        -16.598450   1.000000
     11        -16.503416   1.000000
     12        -15.657556   1.000000
     13        -14.659087   1.000000
     14        -13.687315   1.000000
     15         -8.712548   1.000000
     16         -7.845485   1.000000
     17         -7.845484   1.000000
     18         -7.348103   1.000000
     19         -7.292977   1.000000
     20         -7.292975   1.000000
     21         -6.371267   1.000000
     22         -4.779305   1.000000
     23         -4.779304   1.000000
     24         -4.669613   1.000000
     25         -3.774636   1.000000
     26         -3.774632   1.000000
     27         -3.476784   1.000000
     28         -3.476784   1.000000
     29         -2.898568   1.000000
     30         -1.879498   1.000000
     31         -1.633142   0.498502
     32         -1.633132   0.498390
     33         -0.401441   0.000000
     34          0.808868   0.000000
     35          1.430198   0.000000
     36          1.926613   0.000000
     37          2.231148   0.000000
     38          2.263184   0.000000

  0.1000000E+00  0.1255940E-14  0.1262379E-14  0.2000000E-01
      1        -17.866705   1.000000
      2        -17.702401   1.000000
      3        -17.662934   1.000000
      4        -17.520262   1.000000
      5        -17.509550   1.000000
      6        -16.809908   1.000000
      7        -16.738169   1.000000
      8        -16.709227   1.000000
      9        -16.606522   1.000000
     10        -16.596751   1.000000
     11        -16.378812   1.000000
     12        -15.587763   1.000000
     13        -14.566345   1.000000
     14        -13.629972   1.000000
     15         -8.669783   1.000000
     16         -7.845403   1.000000
     17         -7.819121   1.000000
     18         -7.346839   1.000000
     19         -7.306112   1.000000
     20         -7.294306   1.000000
     21         -6.433028   1.000000
     22         -5.265918   1.000000
     23         -4.892688   1.000000
     24         -4.665524   1.000000
     25         -4.345862   1.000000
     26         -3.989162   1.000000
     27         -3.800441   1.000000
     28         -3.415604   1.000000
     29         -2.632906   1.000000
     30         -2.258302   1.000000
     31         -1.793586   0.999997
     32         -1.517343   0.000521
     33         -0.074922   0.000000
     34          1.226854   0.000000
     35          1.597441   0.000000
     36          1.923327   0.000000
     37          2.137272   0.000000
     38          2.365833   0.000000

  0.1262379E-14  0.1000000E+00  0.1262379E-14  0.2000000E-01
      1        -17.866705   1.000000
      2        -17.702401   1.000000
      3        -17.662934   1.000000
      4        -17.520262   1.000000
      5        -17.509550   1.000000
      6        -16.809908   1.000000
      7        -16.738169   1.000000
      8        -16.709227   1.000000
      9        -16.606522   1.000000
     10        -16.596751   1.000000
     11        -16.378812   1.000000
     12        -15.587763   1.000000
     13        -14.566345   1.000000
     14        -13.629972   1.000000
     15         -8.669783   1.000000
     16         -7.845403   1.000000
     17         -7.819121   1.000000
     18         -7.346839   1.000000
     19         -7.306112   1.000000
     20         -7.294306   1.000000
     21         -6.433028   1.000000
     22         -5.265918   1.000000
     23         -4.892688   1.000000
     24         -4.665524   1.000000
     25         -4.345863   1.000000
     26         -3.989162   1.000000
     27         -3.800441   1.000000
     28         -3.415604   1.000000
     29         -2.632906   1.000000
     30         -2.258302   1.000000
     31         -1.793586   0.999997
     32         -1.517343   0.000521
     33         -0.074922   0.000000
     34          1.226854   0.000000
     35          1.597441   0.000000
     36          1.923327   0.000000
     37          2.137273   0.000000
     38          2.365897   0.000000

 -0.1000000E+00  0.1000000E+00  0.1262379E-14  0.2000000E-01
      1        -17.866705   1.000000
      2        -17.702401   1.000000
      3        -17.662934   1.000000
      4        -17.520262   1.000000
      5        -17.509550   1.000000
      6        -16.809908   1.000000
      7        -16.738169   1.000000
      8        -16.709227   1.000000
      9        -16.606522   1.000000
     10        -16.596750   1.000000
     11        -16.378812   1.000000
     12        -15.587763   1.000000
     13        -14.566345   1.000000
     14        -13.629972   1.000000
     15         -8.669783   1.000000
     16         -7.845403   1.000000
     17         -7.819121   1.000000
     18         -7.346839   1.000000
     19         -7.306111   1.000000
     20         -7.294306   1.000000
     21         -6.433028   1.000000
     22         -5.265917   1.000000
     23         -4.892689   1.000000
     24         -4.665524   1.000000
     25         -4.345862   1.000000
     26         -3.989164   1.000000
     27         -3.800440   1.000000
     28         -3.415604   1.000000
     29         -2.632906   1.000000
     30         -2.258296   1.000000
     31         -1.793592   0.999997
     32         -1.517343   0.000521
     33         -0.074922   0.000000
     34          1.226854   0.000000
     35          1.597441   0.000000
     36          1.923326   0.000000
     37          2.137270   0.000000
     38          2.365338   0.000000

  0.2000000E+00  0.1249001E-14  0.1262379E-14  0.2000000E-01
      1        -17.904404   1.000000
      2        -17.745495   1.000000
      3        -17.640739   1.000000
      4        -17.537114   1.000000
      5        -17.507568   1.000000
      6        -16.920302   1.000000
      7        -16.720964   1.000000
      8        -16.669456   1.000000
      9        -16.616736   1.000000
     10        -16.589136   1.000000
     11        -16.061659   1.000000
     12        -15.385007   1.000000
     13        -14.334965   1.000000
     14        -13.474315   1.000000
     15         -8.598072   1.000000
     16         -7.832694   1.000000
     17         -7.747489   1.000000
     18         -7.372389   1.000000
     19         -7.330081   1.000000
     20         -7.297247   1.000000
     21         -6.782322   1.000000
     22         -6.046516   1.000000
     23         -5.283464   1.000000
     24         -5.167242   1.000000
     25         -4.615249   1.000000
     26         -4.417639   1.000000
     27         -4.375283   1.000000
     28         -3.408268   1.000000
     29         -3.291414   1.000000
     30         -2.382743   1.000000
     31         -2.176542   1.000000
     32         -1.005462   0.000000
     33          0.061186   0.000000
     34          0.914631   0.000000
     35          1.909509   0.000000
     36          2.375536   0.000000
     37          2.565900   0.000000
     38          2.698281   0.000000

  0.1262379E-14  0.2000000E+00  0.1262379E-14  0.2000000E-01
      1        -17.904404   1.000000
      2        -17.745495   1.000000
      3        -17.640739   1.000000
      4        -17.537114   1.000000
      5        -17.507568   1.000000
      6        -16.920302   1.000000
      7        -16.720964   1.000000
      8        -16.669456   1.000000
      9        -16.616736   1.000000
     10        -16.589136   1.000000
     11        -16.061659   1.000000
     12        -15.385007   1.000000
     13        -14.334964   1.000000
     14        -13.474315   1.000000
     15         -8.598072   1.000000
     16         -7.832695   1.000000
     17         -7.747488   1.000000
     18         -7.372389   1.000000
     19         -7.330081   1.000000
     20         -7.297247   1.000000
     21         -6.782322   1.000000
     22         -6.046516   1.000000
     23         -5.283464   1.000000
     24         -5.167242   1.000000
     25         -4.615250   1.000000
     26         -4.417639   1.000000
     27         -4.375282   1.000000
     28         -3.408268   1.000000
     29         -3.291414   1.000000
     30         -2.382743   1.000000
     31         -2.176542   1.000000
     32         -1.005461   0.000000
     33          0.061186   0.000000
     34          0.914631   0.000000
     35          1.909509   0.000000
     36          2.375533   0.000000
     37          2.565883   0.000000
     38          2.752839   0.000000

 -0.2000000E+00  0.2000000E+00  0.1262379E-14  0.2000000E-01
      1        -17.904404   1.000000
      2        -17.745495   1.000000
      3        -17.640739   1.000000
      4        -17.537114   1.000000
      5        -17.507568   1.000000
      6        -16.920302   1.000000
      7        -16.720964   1.000000
      8        -16.669455   1.000000
      9        -16.616736   1.000000
     10        -16.589135   1.000000
     11        -16.061659   1.000000
     12        -15.385007   1.000000
     13        -14.334965   1.000000
     14        -13.474316   1.000000
     15         -8.598072   1.000000
     16         -7.832694   1.000000
     17         -7.747489   1.000000
     18         -7.372389   1.000000
     19         -7.330080   1.000000
     20         -7.297247   1.000000
     21         -6.782322   1.000000
     22         -6.046515   1.000000
     23         -5.283464   1.000000
     24         -5.167243   1.000000
     25         -4.615251   1.000000
     26         -4.417636   1.000000
     27         -4.375284   1.000000
     28         -3.408268   1.000000
     29         -3.291407   1.000000
     30         -2.382743   1.000000
     31         -2.176546   1.000000
     32         -1.005462   0.000000
     33          0.061186   0.000000
     34          0.914629   0.000000
     35          1.909508   0.000000
     36          2.375534   0.000000
     37          2.565884   0.000000
     38          2.737776   0.000000

  0.3000000E+00  0.1221245E-14  0.1262379E-14  0.2000000E-01
      1        -17.975800   1.000000
      2        -17.753415   1.000000
      3        -17.617323   1.000000
      4        -17.551327   1.000000
      5        -17.500625   1.000000
      6        -17.034850   1.000000
      7        -16.706618   1.000000
      8        -16.654438   1.000000
      9        -16.605010   1.000000
     10        -16.572213   1.000000
     11        -15.644579   1.000000
     12        -15.092843   1.000000
     13        -14.066356   1.000000
     14        -13.269945   1.000000
     15         -8.702264   1.000000
     16         -7.782179   1.000000
     17         -7.660626   1.000000
     18         -7.653547   1.000000
     19         -7.390667   1.000000
     20         -7.298996   1.000000
     21         -7.201566   1.000000
     22         -6.521962   1.000000
     23         -5.933658   1.000000
     24         -5.472048   1.000000
     25         -5.032040   1.000000
     26         -4.799255   1.000000
     27         -4.748370   1.000000
     28         -3.941782   1.000000
     29         -3.468298   1.000000
     30         -2.596229   1.000000
     31         -2.204785   1.000000
     32         -0.900392   0.000000
     33         -0.319393   0.000000
     34          0.460965   0.000000
     35          2.126170   0.000000
     36          2.655931   0.000000
     37          2.885211   0.000000
     38          2.896753   0.000000

  0.1262379E-14  0.3000000E+00  0.1262379E-14  0.2000000E-01
      1        -17.975800   1.000000
      2        -17.753415   1.000000
      3        -17.617323   1.000000
      4        -17.551327   1.000000
      5        -17.500625   1.000000
      6        -17.034850   1.000000
      7        -16.706618   1.000000
      8        -16.654438   1.000000
      9        -16.605010   1.000000
     10        -16.572213   1.000000
     11        -15.644579   1.000000
     12        -15.092843   1.000000
     13        -14.066356   1.000000
     14        -13.269945   1.000000
     15         -8.702264   1.000000
     16         -7.782179   1.000000
     17         -7.660626   1.000000
     18         -7.653547   1.000000
     19         -7.390667   1.000000
     20         -7.298996   1.000000
     21         -7.201566   1.000000
     22         -6.521963   1.000000
     23         -5.933658   1.000000
     24         -5.472048   1.000000
     25         -5.032041   1.000000
     26         -4.799255   1.000000
     27         -4.748370   1.000000
     28         -3.941782   1.000000
     29         -3.468298   1.000000
     30         -2.596229   1.000000
     31         -2.204785   1.000000
     32         -0.900392   0.000000
     33         -0.319393   0.000000
     34          0.460965   0.000000
     35          2.126170   0.000000
     36          2.655931   0.000000
     37          2.885211   0.000000
     38          2.896753   0.000000

 -0.3000000E+00  0.3000000E+00  0.1262379E-14  0.2000000E-01
      1        -17.975800   1.000000
      2        -17.753415   1.000000
      3        -17.617323   1.000000
      4        -17.551327   1.000000
      5        -17.500625   1.000000
      6        -17.034850   1.000000
      7        -16.706618   1.000000
      8        -16.654437   1.000000
      9        -16.605011   1.000000
     10        -16.572212   1.000000
     11        -15.644579   1.000000
     12        -15.092842   1.000000
     13        -14.066357   1.000000
     14        -13.269946   1.000000
     15         -8.702264   1.000000
     16         -7.782177   1.000000
     17         -7.660625   1.000000
     18         -7.653548   1.000000
     19         -7.390665   1.000000
     20         -7.298997   1.000000
     21         -7.201567   1.000000
     22         -6.521961   1.000000
     23         -5.933659   1.000000
     24         -5.472049   1.000000
     25         -5.032037   1.000000
     26         -4.799257   1.000000
     27         -4.748371   1.000000
     28         -3.941776   1.000000
     29         -3.468299   1.000000
     30         -2.596230   1.000000
     31         -2.204787   1.000000
     32         -0.900392   0.000000
     33         -0.319393   0.000000
     34          0.460963   0.000000
     35          2.126168   0.000000
     36          2.655927   0.000000
     37          2.885211   0.000000
     38          2.896751   0.000000

  0.4000000E+00  0.1221245E-14  0.1262379E-14  0.2000000E-01
      1        -18.034133   1.000000
      2        -17.749312   1.000000
      3        -17.603141   1.000000
      4        -17.560975   1.000000
      5        -17.489861   1.000000
      6        -17.115574   1.000000
      7        -16.700533   1.000000
      8        -16.660588   1.000000
      9        -16.581663   1.000000
     10        -16.552519   1.000000
     11        -15.247443   1.000000
     12        -14.824121   1.000000
     13        -13.865071   1.000000
     14        -13.094111   1.000000
     15         -9.073492   1.000000
     16         -8.208556   1.000000
     17         -7.682266   1.000000
     18         -7.573784   1.000000
     19         -7.423802   1.000000
     20         -7.297044   1.000000
     21         -7.210930   1.000000
     22         -6.707029   1.000000
     23         -6.262746   1.000000
     24         -5.697511   1.000000
     25         -5.693837   1.000000
     26         -5.070962   1.000000
     27         -5.009630   1.000000
     28         -4.035439   1.000000
     29         -3.539224   1.000000
     30         -2.902995   1.000000
     31         -2.077995   1.000000
     32         -1.079626   0.000000
     33         -0.623323   0.000000
     34          0.171755   0.000000
     35          2.062025   0.000000
     36          2.524693   0.000000
     37          2.901392   0.000000
     38          3.012126   0.000000

  0.1262379E-14  0.4000000E+00  0.1262379E-14  0.2000000E-01
      1        -18.034133   1.000000
      2        -17.749312   1.000000
      3        -17.603141   1.000000
      4        -17.560975   1.000000
      5        -17.489861   1.000000
      6        -17.115574   1.000000
      7        -16.700533   1.000000
      8        -16.660588   1.000000
      9        -16.581663   1.000000
     10        -16.552519   1.000000
     11        -15.247443   1.000000
     12        -14.824121   1.000000
     13        -13.865071   1.000000
     14        -13.094111   1.000000
     15         -9.073492   1.000000
     16         -8.208557   1.000000
     17         -7.682266   1.000000
     18         -7.573784   1.000000
     19         -7.423802   1.000000
     20         -7.297044   1.000000
     21         -7.210930   1.000000
     22         -6.707029   1.000000
     23         -6.262746   1.000000
     24         -5.697511   1.000000
     25         -5.693837   1.000000
     26         -5.070962   1.000000
     27         -5.009630   1.000000
     28         -4.035438   1.000000
     29         -3.539224   1.000000
     30         -2.902994   1.000000
     31         -2.077995   1.000000
     32         -1.079626   0.000000
     33         -0.623323   0.000000
     34          0.171756   0.000000
     35          2.062025   0.000000
     36          2.524693   0.000000
     37          2.901392   0.000000
     38          3.012126   0.000000

 -0.4000000E+00  0.4000000E+00  0.1262379E-14  0.2000000E-01
      1        -18.034133   1.000000
      2        -17.749312   1.000000
      3        -17.603141   1.000000
      4        -17.560975   1.000000
      5        -17.489861   1.000000
      6        -17.115574   1.000000
      7        -16.700533   1.000000
      8        -16.660588   1.000000
      9        -16.581663   1.000000
     10        -16.552519   1.000000
     11        -15.247443   1.000000
     12        -14.824120   1.000000
     13        -13.865072   1.000000
     14        -13.094113   1.000000
     15         -9.073492   1.000000
     16         -8.208554   1.000000
     17         -7.682264   1.000000
     18         -7.573785   1.000000
     19         -7.423799   1.000000
     20         -7.297044   1.000000
     21         -7.210932   1.000000
     22         -6.707030   1.000000
     23         -6.262745   1.000000
     24         -5.697511   1.000000
     25         -5.693834   1.000000
     26         -5.070962   1.000000
     27         -5.009631   1.000000
     28         -4.035433   1.000000
     29         -3.539225   1.000000
     30         -2.902995   1.000000
     31         -2.078001   1.000000
     32         -1.079625   0.000000
     33         -0.623323   0.000000
     34          0.171753   0.000000
     35          2.062023   0.000000
     36          2.524687   0.000000
     37          2.901392   0.000000
     38          3.012127   0.000000

  0.5000000E+00  0.1276756E-14  0.1262379E-14  0.1000000E-01
      1        -18.055454   1.000000
      2        -17.747194   1.000000
      3        -17.599028   1.000000
      4        -17.564419   1.000000
      5        -17.484359   1.000000
      6        -17.144062   1.000000
      7        -16.699289   1.000000
      8        -16.663975   1.000000
      9        -16.572496   1.000000
     10        -16.543805   1.000000
     11        -15.065263   1.000000
     12        -14.719898   1.000000
     13        -13.794181   1.000000
     14        -13.024360   1.000000
     15         -9.281385   1.000000
     16         -8.428709   1.000000
     17         -7.631559   1.000000
     18         -7.542951   1.000000
     19         -7.438036   1.000000
     20         -7.294673   1.000000
     21         -7.109757   1.000000
     22         -6.850118   1.000000
     23         -6.322199   1.000000
     24         -5.952618   1.000000
     25         -5.779558   1.000000
     26         -5.211703   1.000000
     27         -5.102832   1.000000
     28         -4.024574   1.000000
     29         -3.571160   1.000000
     30         -3.012752   1.000000
     31         -2.035940   1.000000
     32         -1.138894   0.000000
     33         -0.769973   0.000000
     34          0.077110   0.000000
     35          1.996858   0.000000
     36          2.451195   0.000000
     37          2.885574   0.000000
     38          2.902728   0.000000

  0.1262379E-14  0.5000000E+00  0.1262379E-14  0.1000000E-01
      1        -18.055454   1.000000
      2        -17.747194   1.000000
      3        -17.599028   1.000000
      4        -17.564419   1.000000
      5        -17.484359   1.000000
      6        -17.144062   1.000000
      7        -16.699289   1.000000
      8        -16.663975   1.000000
      9        -16.572496   1.000000
     10        -16.543805   1.000000
     11        -15.065263   1.000000
     12        -14.719898   1.000000
     13        -13.794180   1.000000
     14        -13.024360   1.000000
     15         -9.281385   1.000000
     16         -8.428710   1.000000
     17         -7.631559   1.000000
     18         -7.542951   1.000000
     19         -7.438036   1.000000
     20         -7.294673   1.000000
     21         -7.109757   1.000000
     22         -6.850118   1.000000
     23         -6.322199   1.000000
     24         -5.952619   1.000000
     25         -5.779557   1.000000
     26         -5.211703   1.000000
     27         -5.102832   1.000000
     28         -4.024574   1.000000
     29         -3.571160   1.000000
     30         -3.012752   1.000000
     31         -2.035940   1.000000
     32         -1.138894   0.000000
     33         -0.769973   0.000000
     34          0.077111   0.000000
     35          1.996858   0.000000
     36          2.451196   0.000000
     37          2.885574   0.000000
     38          2.902728   0.000000

  0.5000000E+00  0.5000000E+00  0.1262379E-14  0.1000000E-01
      1        -18.055454   1.000000
      2        -17.747194   1.000000
      3        -17.599028   1.000000
      4        -17.564420   1.000000
      5        -17.484359   1.000000
      6        -17.144062   1.000000
      7        -16.699289   1.000000
      8        -16.663975   1.000000
      9        -16.572497   1.000000
     10        -16.543805   1.000000
     11        -15.065263   1.000000
     12        -14.719897   1.000000
     13        -13.794182   1.000000
     14        -13.024362   1.000000
     15         -9.281385   1.000000
     16         -8.428707   1.000000
     17         -7.631556   1.000000
     18         -7.542953   1.000000
     19         -7.438032   1.000000
     20         -7.294673   1.000000
     21         -7.109758   1.000000
     22         -6.850122   1.000000
     23         -6.322195   1.000000
     24         -5.952617   1.000000
     25         -5.779558   1.000000
     26         -5.211703   1.000000
     27         -5.102833   1.000000
     28         -4.024569   1.000000
     29         -3.571160   1.000000
     30         -3.012752   1.000000
     31         -2.035948   1.000000
     32         -1.138892   0.000000
     33         -0.769973   0.000000
     34          0.077108   0.000000
     35          1.996855   0.000000
     36          2.451189   0.000000
     37          2.885574   0.000000
     38          2.902731   0.000000

  0.1000000E+00  0.1000000E+00  0.1262379E-14  0.2000000E-01
      1        -17.888874   1.000000
      2        -17.737465   1.000000
      3        -17.647994   1.000000
      4        -17.532118   1.000000
      5        -17.509132   1.000000
      6        -16.881639   1.000000
      7        -16.740083   1.000000
      8        -16.672608   1.000000
      9        -16.615361   1.000000
     10        -16.592096   1.000000
     11        -16.159670   1.000000
     12        -15.449319   1.000000
     13        -14.405565   1.000000
     14        -13.523355   1.000000
     15         -8.610316   1.000000
     16         -7.840202   1.000000
     17         -7.768551   1.000000
     18         -7.358998   1.000000
     19         -7.321206   1.000000
     20         -7.297115   1.000000
     21         -6.634794   1.000000
     22         -5.830847   1.000000
     23         -5.156674   1.000000
     24         -4.893548   1.000000
     25         -4.802081   1.000000
     26         -4.499727   1.000000
     27         -3.758227   1.000000
     28         -3.667453   1.000000
     29         -2.980128   1.000000
     30         -2.430266   1.000000
     31         -2.126614   1.000000
     32         -1.079940   0.000000
     33          0.179456   0.000000
     34          1.199058   0.000000
     35          1.885140   0.000000
     36          1.961782   0.000000
     37          2.343736   0.000000
     38          2.553928   0.000000

 -0.1000000E+00  0.2000000E+00  0.1262379E-14  0.2000000E-01
      1        -17.888874   1.000000
      2        -17.737465   1.000000
      3        -17.647994   1.000000
      4        -17.532118   1.000000
      5        -17.509131   1.000000
      6        -16.881639   1.000000
      7        -16.740083   1.000000
      8        -16.672608   1.000000
      9        -16.615361   1.000000
     10        -16.592095   1.000000
     11        -16.159670   1.000000
     12        -15.449318   1.000000
     13        -14.405566   1.000000
     14        -13.523355   1.000000
     15         -8.610316   1.000000
     16         -7.840203   1.000000
     17         -7.768550   1.000000
     18         -7.358998   1.000000
     19         -7.321205   1.000000
     20         -7.297116   1.000000
     21         -6.634794   1.000000
     22         -5.830847   1.000000
     23         -5.156675   1.000000
     24         -4.893547   1.000000
     25         -4.802081   1.000000
     26         -4.499727   1.000000
     27         -3.758228   1.000000
     28         -3.667452   1.000000
     29         -2.980121   1.000000
     30         -2.430265   1.000000
     31         -2.126621   1.000000
     32         -1.079940   0.000000
     33          0.179456   0.000000
     34          1.199057   0.000000
     35          1.885141   0.000000
     36          1.961781   0.000000
     37          2.343736   0.000000
     38          2.553928   0.000000

 -0.2000000E+00  0.1000000E+00  0.1262379E-14  0.2000000E-01
      1        -17.888874   1.000000
      2        -17.737465   1.000000
      3        -17.647994   1.000000
      4        -17.532118   1.000000
      5        -17.509131   1.000000
      6        -16.881639   1.000000
      7        -16.740083   1.000000
      8        -16.672608   1.000000
      9        -16.615361   1.000000
     10        -16.592095   1.000000
     11        -16.159670   1.000000
     12        -15.449318   1.000000
     13        -14.405566   1.000000
     14        -13.523355   1.000000
     15         -8.610316   1.000000
     16         -7.840203   1.000000
     17         -7.768550   1.000000
     18         -7.358998   1.000000
     19         -7.321205   1.000000
     20         -7.297116   1.000000
     21         -6.634794   1.000000
     22         -5.830846   1.000000
     23         -5.156675   1.000000
     24         -4.893546   1.000000
     25         -4.802081   1.000000
     26         -4.499727   1.000000
     27         -3.758229   1.000000
     28         -3.667452   1.000000
     29         -2.980121   1.000000
     30         -2.430265   1.000000
     31         -2.126621   1.000000
     32         -1.079940   0.000000
     33          0.179456   0.000000
     34          1.199057   0.000000
     35          1.885141   0.000000
     36          1.961781   0.000000
     37          2.343736   0.000000
     38          2.553928   0.000000

  0.2000000E+00  0.1000000E+00  0.1262379E-14  0.2000000E-01
      1        -17.947350   1.000000
      2        -17.754092   1.000000
      3        -17.627185   1.000000
      4        -17.544554   1.000000
      5        -17.506185   1.000000
      6        -16.982064   1.000000
      7        -16.738219   1.000000
      8        -16.643574   1.000000
      9        -16.619194   1.000000
     10        -16.578019   1.000000
     11        -15.793526   1.000000
     12        -15.191075   1.000000
     13        -14.160912   1.000000
     14        -13.342542   1.000000
     15         -8.613427   1.000000
     16         -7.809820   1.000000
     17         -7.680860   1.000000
     18         -7.459894   1.000000
     19         -7.367259   1.000000
     20         -7.300947   1.000000
     21         -7.089424   1.000000
     22         -6.364871   1.000000
     23         -5.657897   1.000000
     24         -5.521913   1.000000
     25         -5.123297   1.000000
     26         -4.755067   1.000000
     27         -4.233131   1.000000
     28         -3.789472   1.000000
     29         -3.644088   1.000000
     30         -2.637891   1.000000
     31         -2.235242   1.000000
     32         -0.715518   0.000000
     33          0.002897   0.000000
     34          0.882594   0.000000
     35          2.010692   0.000000
     36          2.373088   0.000000
     37          2.865627   0.000000
     38          3.063171   0.000000

 -0.1000000E+00  0.3000000E+00  0.1262379E-14  0.2000000E-01
      1        -17.947350   1.000000
      2        -17.754092   1.000000
      3        -17.627185   1.000000
      4        -17.544554   1.000000
      5        -17.506185   1.000000
      6        -16.982064   1.000000
      7        -16.738219   1.000000
      8        -16.643574   1.000000
      9        -16.619194   1.000000
     10        -16.578019   1.000000
     11        -15.793526   1.000000
     12        -15.191075   1.000000
     13        -14.160913   1.000000
     14        -13.342543   1.000000
     15         -8.613427   1.000000
     16         -7.809821   1.000000
     17         -7.680858   1.000000
     18         -7.459894   1.000000
     19         -7.367258   1.000000
     20         -7.300948   1.000000
     21         -7.089424   1.000000
     22         -6.364870   1.000000
     23         -5.657897   1.000000
     24         -5.521914   1.000000
     25         -5.123296   1.000000
     26         -4.755066   1.000000
     27         -4.233131   1.000000
     28         -3.789468   1.000000
     29         -3.644089   1.000000
     30         -2.637894   1.000000
     31         -2.235245   1.000000
     32         -0.715518   0.000000
     33          0.002897   0.000000
     34          0.882594   0.000000
     35          2.010691   0.000000
     36          2.373089   0.000000
     37          2.865627   0.000000
     38          3.063174   0.000000

 -0.3000000E+00  0.2000000E+00  0.1262379E-14  0.2000000E-01
      1        -17.947350   1.000000
      2        -17.754092   1.000000
      3        -17.627185   1.000000
      4        -17.544554   1.000000
      5        -17.506185   1.000000
      6        -16.982064   1.000000
      7        -16.738219   1.000000
      8        -16.643573   1.000000
      9        -16.619194   1.000000
     10        -16.578019   1.000000
     11        -15.793526   1.000000
     12        -15.191074   1.000000
     13        -14.160913   1.000000
     14        -13.342543   1.000000
     15         -8.613427   1.000000
     16         -7.809820   1.000000
     17         -7.680859   1.000000
     18         -7.459894   1.000000
     19         -7.367257   1.000000
     20         -7.300948   1.000000
     21         -7.089424   1.000000
     22         -6.364869   1.000000
     23         -5.657897   1.000000
     24         -5.521914   1.000000
     25         -5.123296   1.000000
     26         -4.755066   1.000000
     27         -4.233131   1.000000
     28         -3.789467   1.000000
     29         -3.644086   1.000000
     30         -2.637895   1.000000
     31         -2.235245   1.000000
     32         -0.715518   0.000000
     33          0.002897   0.000000
     34          0.882593   0.000000
     35          2.010691   0.000000
     36          2.373087   0.000000
     37          2.865626   0.000000
     38          3.063183   0.000000

 -0.2000000E+00  0.3000000E+00  0.1262379E-14  0.2000000E-01
      1        -17.947350   1.000000
      2        -17.754092   1.000000
      3        -17.627185   1.000000
      4        -17.544554   1.000000
      5        -17.506185   1.000000
      6        -16.982064   1.000000
      7        -16.738219   1.000000
      8        -16.643574   1.000000
      9        -16.619194   1.000000
     10        -16.578019   1.000000
     11        -15.793526   1.000000
     12        -15.191074   1.000000
     13        -14.160913   1.000000
     14        -13.342543   1.000000
     15         -8.613427   1.000000
     16         -7.809820   1.000000
     17         -7.680859   1.000000
     18         -7.459894   1.000000
     19         -7.367257   1.000000
     20         -7.300948   1.000000
     21         -7.089424   1.000000
     22         -6.364869   1.000000
     23         -5.657897   1.000000
     24         -5.521914   1.000000
     25         -5.123297   1.000000
     26         -4.755066   1.000000
     27         -4.233131   1.000000
     28         -3.789467   1.000000
     29         -3.644086   1.000000
     30         -2.637895   1.000000
     31         -2.235245   1.000000
     32         -0.715518   0.000000
     33          0.002897   0.000000
     34          0.882593   0.000000
     35          2.010691   0.000000
     36          2.373087   0.000000
     37          2.865626   0.000000
     38          3.063168   0.000000

  0.1000000E+00  0.2000000E+00  0.1262379E-14  0.2000000E-01
      1        -17.947350   1.000000
      2        -17.754092   1.000000
      3        -17.627185   1.000000
      4        -17.544554   1.000000
      5        -17.506185   1.000000
      6        -16.982064   1.000000
      7        -16.738219   1.000000
      8        -16.643574   1.000000
      9        -16.619194   1.000000
     10        -16.578019   1.000000
     11        -15.793526   1.000000
     12        -15.191075   1.000000
     13        -14.160912   1.000000
     14        -13.342542   1.000000
     15         -8.613427   1.000000
     16         -7.809820   1.000000
     17         -7.680860   1.000000
     18         -7.459894   1.000000
     19         -7.367259   1.000000
     20         -7.300947   1.000000
     21         -7.089424   1.000000
     22         -6.364871   1.000000
     23         -5.657897   1.000000
     24         -5.521913   1.000000
     25         -5.123297   1.000000
     26         -4.755067   1.000000
     27         -4.233131   1.000000
     28         -3.789472   1.000000
     29         -3.644088   1.000000
     30         -2.637891   1.000000
     31         -2.235242   1.000000
     32         -0.715518   0.000000
     33          0.002897   0.000000
     34          0.882594   0.000000
     35          2.010692   0.000000
     36          2.373088   0.000000
     37          2.865626   0.000000
     38          3.063170   0.000000

  0.3000000E+00 -0.1000000E+00  0.1262379E-14  0.2000000E-01
      1        -17.947350   1.000000
      2        -17.754092   1.000000
      3        -17.627185   1.000000
      4        -17.544554   1.000000
      5        -17.506185   1.000000
      6        -16.982064   1.000000
      7        -16.738219   1.000000
      8        -16.643574   1.000000
      9        -16.619194   1.000000
     10        -16.578019   1.000000
     11        -15.793526   1.000000
     12        -15.191075   1.000000
     13        -14.160913   1.000000
     14        -13.342543   1.000000
     15         -8.613427   1.000000
     16         -7.809821   1.000000
     17         -7.680858   1.000000
     18         -7.459894   1.000000
     19         -7.367258   1.000000
     20         -7.300948   1.000000
     21         -7.089424   1.000000
     22         -6.364870   1.000000
     23         -5.657897   1.000000
     24         -5.521914   1.000000
     25         -5.123296   1.000000
     26         -4.755066   1.000000
     27         -4.233131   1.000000
     28         -3.789468   1.000000
     29         -3.644089   1.000000
     30         -2.637894   1.000000
     31         -2.235245   1.000000
     32         -0.715518   0.000000
     33          0.002897   0.000000
     34          0.882594   0.000000
     35          2.010691   0.000000
     36          2.373089   0.000000
     37          2.865628   0.000000
     38          3.063179   0.000000

  0.3000000E+00  0.1000000E+00  0.1262379E-14  0.2000000E-01
      1        -18.011465   1.000000
      2        -17.751356   1.000000
      3        -17.611342   1.000000
      4        -17.554145   1.000000
      5        -17.498478   1.000000
      6        -17.071567   1.000000
      7        -16.734418   1.000000
      8        -16.647416   1.000000
      9        -16.597794   1.000000
     10        -16.560598   1.000000
     11        -15.380035   1.000000
     12        -14.889728   1.000000
     13        -13.935633   1.000000
     14        -13.150668   1.000000
     15         -8.870218   1.000000
     16         -7.965258   1.000000
     17         -7.729858   1.000000
     18         -7.587069   1.000000
     19         -7.408567   1.000000
     20         -7.304287   1.000000
     21         -7.215390   1.000000
     22         -6.630436   1.000000
     23         -6.178398   1.000000
     24         -5.826178   1.000000
     25         -5.419603   1.000000
     26         -5.268985   1.000000
     27         -4.692297   1.000000
     28         -4.056565   1.000000
     29         -3.697398   1.000000
     30         -3.059105   1.000000
     31         -2.089684   1.000000
     32         -0.739501   0.000000
     33         -0.329142   0.000000
     34          0.539481   0.000000
     35          2.299286   0.000000
     36          2.419349   0.000000
     37          2.999403   0.000000
     38          3.284374   0.000000

 -0.1000000E+00  0.4000000E+00  0.1262379E-14  0.2000000E-01
      1        -18.011465   1.000000
      2        -17.751356   1.000000
      3        -17.611342   1.000000
      4        -17.554145   1.000000
      5        -17.498478   1.000000
      6        -17.071567   1.000000
      7        -16.734418   1.000000
      8        -16.647416   1.000000
      9        -16.597794   1.000000
     10        -16.560599   1.000000
     11        -15.380035   1.000000
     12        -14.889728   1.000000
     13        -13.935633   1.000000
     14        -13.150668   1.000000
     15         -8.870218   1.000000
     16         -7.965257   1.000000
     17         -7.729860   1.000000
     18         -7.587066   1.000000
     19         -7.408566   1.000000
     20         -7.304287   1.000000
     21         -7.215391   1.000000
     22         -6.630436   1.000000
     23         -6.178398   1.000000
     24         -5.826178   1.000000
     25         -5.419603   1.000000
     26         -5.268982   1.000000
     27         -4.692298   1.000000
     28         -4.056564   1.000000
     29         -3.697399   1.000000
     30         -3.059106   1.000000
     31         -2.089686   1.000000
     32         -0.739501   0.000000
     33         -0.329142   0.000000
     34          0.539481   0.000000
     35          2.299288   0.000000
     36          2.419348   0.000000
     37          2.999404   0.000000
     38          3.284374   0.000000

 -0.4000000E+00  0.3000000E+00  0.1262379E-14  0.2000000E-01
      1        -18.011465   1.000000
      2        -17.751356   1.000000
      3        -17.611342   1.000000
      4        -17.554145   1.000000
      5        -17.498478   1.000000
      6        -17.071567   1.000000
      7        -16.734418   1.000000
      8        -16.647416   1.000000
      9        -16.597794   1.000000
     10        -16.560598   1.000000
     11        -15.380035   1.000000
     12        -14.889727   1.000000
     13        -13.935634   1.000000
     14        -13.150669   1.000000
     15         -8.870218   1.000000
     16         -7.965255   1.000000
     17         -7.729858   1.000000
     18         -7.587067   1.000000
     19         -7.408565   1.000000
     20         -7.304287   1.000000
     21         -7.215392   1.000000
     22         -6.630435   1.000000
     23         -6.178399   1.000000
     24         -5.826179   1.000000
     25         -5.419600   1.000000
     26         -5.268983   1.000000
     27         -4.692299   1.000000
     28         -4.056560   1.000000
     29         -3.697398   1.000000
     30         -3.059108   1.000000
     31         -2.089689   1.000000
     32         -0.739500   0.000000
     33         -0.329142   0.000000
     34          0.539479   0.000000
     35          2.299286   0.000000
     36          2.419348   0.000000
     37          2.999400   0.000000
     38          3.284373   0.000000

 -0.3000000E+00  0.4000000E+00  0.1262379E-14  0.2000000E-01
      1        -18.011465   1.000000
      2        -17.751356   1.000000
      3        -17.611342   1.000000
      4        -17.554145   1.000000
      5        -17.498478   1.000000
      6        -17.071567   1.000000
      7        -16.734418   1.000000
      8        -16.647416   1.000000
      9        -16.597794   1.000000
     10        -16.560598   1.000000
     11        -15.380035   1.000000
     12        -14.889728   1.000000
     13        -13.935634   1.000000
     14        -13.150669   1.000000
     15         -8.870218   1.000000
     16         -7.965256   1.000000
     17         -7.729858   1.000000
     18         -7.587067   1.000000
     19         -7.408565   1.000000
     20         -7.304287   1.000000
     21         -7.215392   1.000000
     22         -6.630435   1.000000
     23         -6.178399   1.000000
     24         -5.826179   1.000000
     25         -5.419600   1.000000
     26         -5.268983   1.000000
     27         -4.692298   1.000000
     28         -4.056560   1.000000
     29         -3.697398   1.000000
     30         -3.059108   1.000000
     31         -2.089689   1.000000
     32         -0.739500   0.000000
     33         -0.329142   0.000000
     34          0.539479   0.000000
     35          2.299286   0.000000
     36          2.419348   0.000000
     37          2.999400   0.000000
     38          3.284373   0.000000

  0.1000000E+00  0.3000000E+00  0.1262379E-14  0.2000000E-01
      1        -18.011465   1.000000
      2        -17.751356   1.000000
      3        -17.611342   1.000000
      4        -17.554145   1.000000
      5        -17.498478   1.000000
      6        -17.071567   1.000000
      7        -16.734418   1.000000
      8        -16.647416   1.000000
      9        -16.597794   1.000000
     10        -16.560598   1.000000
     11        -15.380035   1.000000
     12        -14.889728   1.000000
     13        -13.935633   1.000000
     14        -13.150668   1.000000
     15         -8.870218   1.000000
     16         -7.965258   1.000000
     17         -7.729858   1.000000
     18         -7.587068   1.000000
     19         -7.408567   1.000000
     20         -7.304287   1.000000
     21         -7.215390   1.000000
     22         -6.630436   1.000000
     23         -6.178398   1.000000
     24         -5.826178   1.000000
     25         -5.419603   1.000000
     26         -5.268985   1.000000
     27         -4.692297   1.000000
     28         -4.056565   1.000000
     29         -3.697398   1.000000
     30         -3.059105   1.000000
     31         -2.089684   1.000000
     32         -0.739501   0.000000
     33         -0.329143   0.000000
     34          0.539481   0.000000
     35          2.299286   0.000000
     36          2.419349   0.000000
     37          2.999403   0.000000
     38          3.284374   0.000000

  0.4000000E+00 -0.1000000E+00  0.1262379E-14  0.2000000E-01
      1        -18.011465   1.000000
      2        -17.751356   1.000000
      3        -17.611342   1.000000
      4        -17.554145   1.000000
      5        -17.498478   1.000000
      6        -17.071567   1.000000
      7        -16.734418   1.000000
      8        -16.647416   1.000000
      9        -16.597794   1.000000
     10        -16.560599   1.000000
     11        -15.380035   1.000000
     12        -14.889728   1.000000
     13        -13.935634   1.000000
     14        -13.150668   1.000000
     15         -8.870218   1.000000
     16         -7.965257   1.000000
     17         -7.729860   1.000000
     18         -7.587066   1.000000
     19         -7.408566   1.000000
     20         -7.304287   1.000000
     21         -7.215391   1.000000
     22         -6.630435   1.000000
     23         -6.178398   1.000000
     24         -5.826178   1.000000
     25         -5.419603   1.000000
     26         -5.268982   1.000000
     27         -4.692298   1.000000
     28         -4.056564   1.000000
     29         -3.697399   1.000000
     30         -3.059107   1.000000
     31         -2.089686   1.000000
     32         -0.739501   0.000000
     33         -0.329142   0.000000
     34          0.539481   0.000000
     35          2.299288   0.000000
     36          2.419348   0.000000
     37          2.999404   0.000000
     38          3.284374   0.000000

  0.4000000E+00  0.1000000E+00  0.1262379E-14  0.2000000E-01
      1        -18.049358   1.000000
      2        -17.747060   1.000000
      3        -17.604432   1.000000
      4        -17.559399   1.000000
      5        -17.490721   1.000000
      6        -17.122110   1.000000
      7        -16.733079   1.000000
      8        -16.653958   1.000000
      9        -16.577224   1.000000
     10        -16.552755   1.000000
     11        -15.072462   1.000000
     12        -14.685590   1.000000
     13        -13.811748   1.000000
     14        -13.026228   1.000000
     15         -9.190248   1.000000
     16         -8.355212   1.000000
     17         -7.649393   1.000000
     18         -7.532391   1.000000
     19         -7.429397   1.000000
     20         -7.304851   1.000000
     21         -7.123180   1.000000
     22         -6.768725   1.000000
     23         -6.377144   1.000000
     24         -5.991794   1.000000
     25         -5.919035   1.000000
     26         -5.332299   1.000000
     27         -5.034378   1.000000
     28         -4.142467   1.000000
     29         -3.685143   1.000000
     30         -3.289963   1.000000
     31         -2.008349   1.000000
     32         -0.854465   0.000000
     33         -0.553717   0.000000
     34          0.358049   0.000000
     35          2.249491   0.000000
     36          2.531999   0.000000
     37          2.827058   0.000000
     38          3.135912   0.000000

 -0.1000000E+00  0.5000000E+00  0.1262379E-14  0.2000000E-01
      1        -18.049357   1.000000
      2        -17.747060   1.000000
      3        -17.604432   1.000000
      4        -17.559399   1.000000
      5        -17.490721   1.000000
      6        -17.122110   1.000000
      7        -16.733079   1.000000
      8        -16.653958   1.000000
      9        -16.577224   1.000000
     10        -16.552756   1.000000
     11        -15.072462   1.000000
     12        -14.685590   1.000000
     13        -13.811748   1.000000
     14        -13.026228   1.000000
     15         -9.190248   1.000000
     16         -8.355212   1.000000
     17         -7.649394   1.000000
     18         -7.532390   1.000000
     19         -7.429397   1.000000
     20         -7.304850   1.000000
     21         -7.123181   1.000000
     22         -6.768725   1.000000
     23         -6.377144   1.000000
     24         -5.991795   1.000000
     25         -5.919035   1.000000
     26         -5.332298   1.000000
     27         -5.034379   1.000000
     28         -4.142467   1.000000
     29         -3.685143   1.000000
     30         -3.289963   1.000000
     31         -2.008349   1.000000
     32         -0.854465   0.000000
     33         -0.553717   0.000000
     34          0.358049   0.000000
     35          2.249492   0.000000
     36          2.532000   0.000000
     37          2.827058   0.000000
     38          3.135912   0.000000

  0.5000000E+00  0.4000000E+00  0.1262379E-14  0.2000000E-01
      1        -18.049357   1.000000
      2        -17.747060   1.000000
      3        -17.604432   1.000000
      4        -17.559399   1.000000
      5        -17.490721   1.000000
      6        -17.122110   1.000000
      7        -16.733079   1.000000
      8        -16.653958   1.000000
      9        -16.577224   1.000000
     10        -16.552756   1.000000
     11        -15.072463   1.000000
     12        -14.685590   1.000000
     13        -13.811749   1.000000
     14        -13.026230   1.000000
     15         -9.190248   1.000000
     16         -8.355209   1.000000
     17         -7.649393   1.000000
     18         -7.532391   1.000000
     19         -7.429394   1.000000
     20         -7.304851   1.000000
     21         -7.123183   1.000000
     22         -6.768727   1.000000
     23         -6.377142   1.000000
     24         -5.991796   1.000000
     25         -5.919031   1.000000
     26         -5.332298   1.000000
     27         -5.034379   1.000000
     28         -4.142464   1.000000
     29         -3.685142   1.000000
     30         -3.289965   1.000000
     31         -2.008356   1.000000
     32         -0.854463   0.000000
     33         -0.553717   0.000000
     34          0.358047   0.000000
     35          2.249490   0.000000
     36          2.531999   0.000000
     37          2.827058   0.000000
     38          3.135908   0.000000

 -0.4000000E+00  0.5000000E+00  0.1262379E-14  0.2000000E-01
      1        -18.049357   1.000000
      2        -17.747060   1.000000
      3        -17.604432   1.000000
      4        -17.559399   1.000000
      5        -17.490721   1.000000
      6        -17.122110   1.000000
      7        -16.733079   1.000000
      8        -16.653958   1.000000
      9        -16.577224   1.000000
     10        -16.552756   1.000000
     11        -15.072463   1.000000
     12        -14.685590   1.000000
     13        -13.811749   1.000000
     14        -13.026230   1.000000
     15         -9.190248   1.000000
     16         -8.355209   1.000000
     17         -7.649393   1.000000
     18         -7.532391   1.000000
     19         -7.429394   1.000000
     20         -7.304851   1.000000
     21         -7.123183   1.000000
     22         -6.768727   1.000000
     23         -6.377142   1.000000
     24         -5.991796   1.000000
     25         -5.919031   1.000000
     26         -5.332298   1.000000
     27         -5.034379   1.000000
     28         -4.142463   1.000000
     29         -3.685142   1.000000
     30         -3.289964   1.000000
     31         -2.008356   1.000000
     32         -0.854463   0.000000
     33         -0.553717   0.000000
     34          0.358047   0.000000
     35          2.249490   0.000000
     36          2.531999   0.000000
     37          2.827058   0.000000
     38          3.135908   0.000000

  0.1000000E+00  0.4000000E+00  0.1262379E-14  0.2000000E-01
      1        -18.049357   1.000000
      2        -17.747060   1.000000
      3        -17.604432   1.000000
      4        -17.559399   1.000000
      5        -17.490721   1.000000
      6        -17.122110   1.000000
      7        -16.733079   1.000000
      8        -16.653958   1.000000
      9        -16.577224   1.000000
     10        -16.552755   1.000000
     11        -15.072462   1.000000
     12        -14.685590   1.000000
     13        -13.811748   1.000000
     14        -13.026228   1.000000
     15         -9.190248   1.000000
     16         -8.355212   1.000000
     17         -7.649393   1.000000
     18         -7.532391   1.000000
     19         -7.429397   1.000000
     20         -7.304851   1.000000
     21         -7.123180   1.000000
     22         -6.768725   1.000000
     23         -6.377144   1.000000
     24         -5.991795   1.000000
     25         -5.919036   1.000000
     26         -5.332299   1.000000
     27         -5.034378   1.000000
     28         -4.142467   1.000000
     29         -3.685143   1.000000
     30         -3.289963   1.000000
     31         -2.008349   1.000000
     32         -0.854465   0.000000
     33         -0.553717   0.000000
     34          0.358049   0.000000
     35          2.249491   0.000000
     36          2.531999   0.000000
     37          2.827059   0.000000
     38          3.135912   0.000000

  0.5000000E+00 -0.1000000E+00  0.1262379E-14  0.2000000E-01
      1        -18.049357   1.000000
      2        -17.747060   1.000000
      3        -17.604432   1.000000
      4        -17.559399   1.000000
      5        -17.490721   1.000000
      6        -17.122110   1.000000
      7        -16.733079   1.000000
      8        -16.653958   1.000000
      9        -16.577224   1.000000
     10        -16.552756   1.000000
     11        -15.072462   1.000000
     12        -14.685590   1.000000
     13        -13.811748   1.000000
     14        -13.026228   1.000000
     15         -9.190248   1.000000
     16         -8.355212   1.000000
     17         -7.649394   1.000000
     18         -7.532390   1.000000
     19         -7.429397   1.000000
     20         -7.304850   1.000000
     21         -7.123181   1.000000
     22         -6.768725   1.000000
     23         -6.377144   1.000000
     24         -5.991795   1.000000
     25         -5.919035   1.000000
     26         -5.332298   1.000000
     27         -5.034379   1.000000
     28         -4.142467   1.000000
     29         -3.685143   1.000000
     30         -3.289963   1.000000
     31         -2.008349   1.000000
     32         -0.854465   0.000000
     33         -0.553717   0.000000
     34          0.358049   0.000000
     35          2.249492   0.000000
     36          2.532000   0.000000
     37          2.827057   0.000000
     38          3.135912   0.000000

  0.2000000E+00  0.2000000E+00  0.1262379E-14  0.2000000E-01
      1        -17.999486   1.000000
      2        -17.752693   1.000000
      3        -17.617212   1.000000
      4        -17.548343   1.000000
      5        -17.505170   1.000000
      6        -17.036818   1.000000
      7        -16.772364   1.000000
      8        -16.626393   1.000000
      9        -16.620178   1.000000
     10        -16.562888   1.000000
     11        -15.427666   1.000000
     12        -14.903980   1.000000
     13        -13.968723   1.000000
     14        -13.172626   1.000000
     15         -8.766754   1.000000
     16         -7.821211   1.000000
     17         -7.746753   1.000000
     18         -7.586466   1.000000
     19         -7.399554   1.000000
     20         -7.308462   1.000000
     21         -7.193228   1.000000
     22         -6.603441   1.000000
     23         -6.156469   1.000000
     24         -5.942806   1.000000
     25         -5.533728   1.000000
     26         -5.174111   1.000000
     27         -4.399484   1.000000
     28         -4.236824   1.000000
     29         -3.800301   1.000000
     30         -3.297554   1.000000
     31         -2.084842   1.000000
     32         -0.457490   0.000000
     33         -0.074141   0.000000
     34          1.088473   0.000000
     35          1.715620   0.000000
     36          2.889967   0.000000
     37          3.120734   0.000000
     38          3.477376   0.000000

 -0.2000000E+00  0.4000000E+00  0.1262379E-14  0.2000000E-01
      1        -17.999486   1.000000
      2        -17.752693   1.000000
      3        -17.617212   1.000000
      4        -17.548343   1.000000
      5        -17.505170   1.000000
      6        -17.036818   1.000000
      7        -16.772364   1.000000
      8        -16.626393   1.000000
      9        -16.620178   1.000000
     10        -16.562888   1.000000
     11        -15.427666   1.000000
     12        -14.903979   1.000000
     13        -13.968724   1.000000
     14        -13.172627   1.000000
     15         -8.766754   1.000000
     16         -7.821209   1.000000
     17         -7.746755   1.000000
     18         -7.586463   1.000000
     19         -7.399553   1.000000
     20         -7.308462   1.000000
     21         -7.193230   1.000000
     22         -6.603440   1.000000
     23         -6.156469   1.000000
     24         -5.942806   1.000000
     25         -5.533728   1.000000
     26         -5.174107   1.000000
     27         -4.399481   1.000000
     28         -4.236826   1.000000
     29         -3.800297   1.000000
     30         -3.297559   1.000000
     31         -2.084845   1.000000
     32         -0.457490   0.000000
     33         -0.074140   0.000000
     34          1.088473   0.000000
     35          1.715620   0.000000
     36          2.889964   0.000000
     37          3.120738   0.000000
     38          3.477382   0.000000

 -0.4000000E+00  0.2000000E+00  0.1262379E-14  0.2000000E-01
      1        -17.999486   1.000000
      2        -17.752693   1.000000
      3        -17.617212   1.000000
      4        -17.548343   1.000000
      5        -17.505170   1.000000
      6        -17.036818   1.000000
      7        -16.772364   1.000000
      8        -16.626393   1.000000
      9        -16.620178   1.000000
     10        -16.562888   1.000000
     11        -15.427666   1.000000
     12        -14.903979   1.000000
     13        -13.968724   1.000000
     14        -13.172627   1.000000
     15         -8.766754   1.000000
     16         -7.821209   1.000000
     17         -7.746755   1.000000
     18         -7.586463   1.000000
     19         -7.399553   1.000000
     20         -7.308462   1.000000
     21         -7.193230   1.000000
     22         -6.603440   1.000000
     23         -6.156469   1.000000
     24         -5.942806   1.000000
     25         -5.533728   1.000000
     26         -5.174106   1.000000
     27         -4.399481   1.000000
     28         -4.236826   1.000000
     29         -3.800298   1.000000
     30         -3.297559   1.000000
     31         -2.084845   1.000000
     32         -0.457490   0.000000
     33         -0.074140   0.000000
     34          1.088472   0.000000
     35          1.715620   0.000000
     36          2.889964   0.000000
     37          3.120738   0.000000
     38          3.477379   0.000000

  0.3000000E+00  0.2000000E+00  0.1262379E-14  0.2000000E-01
      1        -18.039019   1.000000
      2        -17.747231   1.000000
      3        -17.613330   1.000000
      4        -17.548619   1.000000
      5        -17.503685   1.000000
      6        -17.075742   1.000000
      7        -16.798430   1.000000
      8        -16.631183   1.000000
      9        -16.597738   1.000000
     10        -16.560313   1.000000
     11        -15.082721   1.000000
     12        -14.629909   1.000000
     13        -13.842434   1.000000
     14        -13.029253   1.000000
     15         -9.020955   1.000000
     16         -8.209464   1.000000
     17         -7.671938   1.000000
     18         -7.519985   1.000000
     19         -7.416519   1.000000
     20         -7.320419   1.000000
     21         -7.121023   1.000000
     22         -6.733490   1.000000
     23         -6.611601   1.000000
     24         -6.192520   1.000000
     25         -5.729375   1.000000
     26         -5.523113   1.000000
     27         -4.867489   1.000000
     28         -4.474565   1.000000
     29         -3.830440   1.000000
     30         -3.677573   1.000000
     31         -1.983999   1.000000
     32         -0.403214   0.000000
     33         -0.285873   0.000000
     34          1.008720   0.000000
     35          1.903039   0.000000
     36          2.914377   0.000000
     37          3.213808   0.000000
     38          3.801632   0.000000

 -0.2000000E+00  0.5000000E+00  0.1262379E-14  0.2000000E-01
      1        -18.039019   1.000000
      2        -17.747231   1.000000
      3        -17.613330   1.000000
      4        -17.548619   1.000000
      5        -17.503685   1.000000
      6        -17.075742   1.000000
      7        -16.798430   1.000000
      8        -16.631183   1.000000
      9        -16.597737   1.000000
     10        -16.560314   1.000000
     11        -15.082722   1.000000
     12        -14.629908   1.000000
     13        -13.842434   1.000000
     14        -13.029253   1.000000
     15         -9.020955   1.000000
     16         -8.209463   1.000000
     17         -7.671941   1.000000
     18         -7.519982   1.000000
     19         -7.416518   1.000000
     20         -7.320418   1.000000
     21         -7.121025   1.000000
     22         -6.733490   1.000000
     23         -6.611601   1.000000
     24         -6.192520   1.000000
     25         -5.729374   1.000000
     26         -5.523111   1.000000
     27         -4.867489   1.000000
     28         -4.474566   1.000000
     29         -3.830440   1.000000
     30         -3.677574   1.000000
     31         -1.984002   1.000000
     32         -0.403213   0.000000
     33         -0.285873   0.000000
     34          1.008721   0.000000
     35          1.903040   0.000000
     36          2.914374   0.000000
     37          3.213813   0.000000
     38          3.801631   0.000000

  0.5000000E+00  0.3000000E+00  0.1262379E-14  0.2000000E-01
      1        -18.039019   1.000000
      2        -17.747231   1.000000
      3        -17.613330   1.000000
      4        -17.548620   1.000000
      5        -17.503685   1.000000
      6        -17.075742   1.000000
      7        -16.798431   1.000000
      8        -16.631183   1.000000
      9        -16.597738   1.000000
     10        -16.560314   1.000000
     11        -15.082722   1.000000
     12        -14.629908   1.000000
     13        -13.842435   1.000000
     14        -13.029254   1.000000
     15         -9.020955   1.000000
     16         -8.209462   1.000000
     17         -7.671941   1.000000
     18         -7.519982   1.000000
     19         -7.416517   1.000000
     20         -7.320419   1.000000
     21         -7.121025   1.000000
     22         -6.733490   1.000000
     23         -6.611601   1.000000
     24         -6.192522   1.000000
     25         -5.729370   1.000000
     26         -5.523112   1.000000
     27         -4.867489   1.000000
     28         -4.474565   1.000000
     29         -3.830436   1.000000
     30         -3.677577   1.000000
     31         -1.984004   1.000000
     32         -0.403213   0.000000
     33         -0.285872   0.000000
     34          1.008720   0.000000
     35          1.903039   0.000000
     36          2.914376   0.000000
     37          3.213812   0.000000
     38          3.801626   0.000000

 -0.3000000E+00  0.5000000E+00  0.1262379E-14  0.2000000E-01
      1        -18.039019   1.000000
      2        -17.747231   1.000000
      3        -17.613330   1.000000
      4        -17.548620   1.000000
      5        -17.503685   1.000000
      6        -17.075742   1.000000
      7        -16.798430   1.000000
      8        -16.631183   1.000000
      9        -16.597738   1.000000
     10        -16.560314   1.000000
     11        -15.082722   1.000000
     12        -14.629908   1.000000
     13        -13.842435   1.000000
     14        -13.029254   1.000000
     15         -9.020955   1.000000
     16         -8.209462   1.000000
     17         -7.671940   1.000000
     18         -7.519982   1.000000
     19         -7.416517   1.000000
     20         -7.320419   1.000000
     21         -7.121025   1.000000
     22         -6.733490   1.000000
     23         -6.611601   1.000000
     24         -6.192522   1.000000
     25         -5.729370   1.000000
     26         -5.523112   1.000000
     27         -4.867489   1.000000
     28         -4.474565   1.000000
     29         -3.830436   1.000000
     30         -3.677577   1.000000
     31         -1.984004   1.000000
     32         -0.403213   0.000000
     33         -0.285873   0.000000
     34          1.008720   0.000000
     35          1.903039   0.000000
     36          2.914376   0.000000
     37          3.213812   0.000000
     38          3.801625   0.000000

  0.2000000E+00  0.3000000E+00  0.1262379E-14  0.2000000E-01
      1        -18.039019   1.000000
      2        -17.747231   1.000000
      3        -17.613330   1.000000
      4        -17.548619   1.000000
      5        -17.503685   1.000000
      6        -17.075742   1.000000
      7        -16.798430   1.000000
      8        -16.631183   1.000000
      9        -16.597738   1.000000
     10        -16.560313   1.000000
     11        -15.082721   1.000000
     12        -14.629909   1.000000
     13        -13.842434   1.000000
     14        -13.029253   1.000000
     15         -9.020955   1.000000
     16         -8.209464   1.000000
     17         -7.671938   1.000000
     18         -7.519985   1.000000
     19         -7.416518   1.000000
     20         -7.320419   1.000000
     21         -7.121023   1.000000
     22         -6.733490   1.000000
     23         -6.611601   1.000000
     24         -6.192520   1.000000
     25         -5.729375   1.000000
     26         -5.523113   1.000000
     27         -4.867489   1.000000
     28         -4.474564   1.000000
     29         -3.830440   1.000000
     30         -3.677573   1.000000
     31         -1.983999   1.000000
     32         -0.403214   0.000000
     33         -0.285873   0.000000
     34          1.008720   0.000000
     35          1.903039   0.000000
     36          2.914377   0.000000
     37          3.213808   0.000000
     38          3.801632   0.000000

  0.5000000E+00 -0.2000000E+00  0.1262379E-14  0.2000000E-01
      1        -18.039019   1.000000
      2        -17.747231   1.000000
      3        -17.613330   1.000000
      4        -17.548619   1.000000
      5        -17.503685   1.000000
      6        -17.075742   1.000000
      7        -16.798431   1.000000
      8        -16.631183   1.000000
      9        -16.597737   1.000000
     10        -16.560314   1.000000
     11        -15.082722   1.000000
     12        -14.629908   1.000000
     13        -13.842435   1.000000
     14        -13.029253   1.000000
     15         -9.020955   1.000000
     16         -8.209463   1.000000
     17         -7.671941   1.000000
     18         -7.519982   1.000000
     19         -7.416518   1.000000
     20         -7.320418   1.000000
     21         -7.121025   1.000000
     22         -6.733490   1.000000
     23         -6.611601   1.000000
     24         -6.192520   1.000000
     25         -5.729374   1.000000
     26         -5.523111   1.000000
     27         -4.867489   1.000000
     28         -4.474566   1.000000
     29         -3.830440   1.000000
     30         -3.677574   1.000000
     31         -1.984002   1.000000
     32         -0.403213   0.000000
     33         -0.285873   0.000000
     34          1.008720   0.000000
     35          1.903040   0.000000
     36          2.914374   0.000000
     37          3.213813   0.000000
     38          3.801631   0.000000

  0.4000000E+00  0.2000000E+00  0.1262379E-14  0.2000000E-01
      1        -18.053450   1.000000
      2        -17.744593   1.000000
      3        -17.612685   1.000000
      4        -17.548197   1.000000
      5        -17.502882   1.000000
      6        -17.090058   1.000000
      7        -16.807779   1.000000
      8        -16.633672   1.000000
      9        -16.577698   1.000000
     10        -16.570577   1.000000
     11        -14.931148   1.000000
     12        -14.513499   1.000000
     13        -13.806995   1.000000
     14        -12.973078   1.000000
     15         -9.148881   1.000000
     16         -8.378569   1.000000
     17         -7.629205   1.000000
     18         -7.503281   1.000000
     19         -7.422852   1.000000
     20         -7.324854   1.000000
     21         -7.007449   1.000000
     22         -6.824188   1.000000
     23         -6.738035   1.000000
     24         -6.322631   1.000000
     25         -5.948097   1.000000
     26         -5.380632   1.000000
     27         -5.170439   1.000000
     28         -4.586692   1.000000
     29         -3.958694   1.000000
     30         -3.659618   1.000000
     31         -1.952694   1.000000
     32         -0.444107   0.000000
     33         -0.359073   0.000000
     34          0.939396   0.000000
     35          1.988760   0.000000
     36          2.897144   0.000000
     37          3.197736   0.000000
     38          3.796632   0.000000

 -0.2000000E+00 -0.4000000E+00  0.1262379E-14  0.2000000E-01
      1        -18.053450   1.000000
      2        -17.744593   1.000000
      3        -17.612685   1.000000
      4        -17.548197   1.000000
      5        -17.502882   1.000000
      6        -17.090058   1.000000
      7        -16.807779   1.000000
      8        -16.633672   1.000000
      9        -16.577698   1.000000
     10        -16.570577   1.000000
     11        -14.931148   1.000000
     12        -14.513499   1.000000
     13        -13.806995   1.000000
     14        -12.973078   1.000000
     15         -9.148881   1.000000
     16         -8.378570   1.000000
     17         -7.629205   1.000000
     18         -7.503281   1.000000
     19         -7.422852   1.000000
     20         -7.324854   1.000000
     21         -7.007449   1.000000
     22         -6.824188   1.000000
     23         -6.738035   1.000000
     24         -6.322631   1.000000
     25         -5.948097   1.000000
     26         -5.380632   1.000000
     27         -5.170439   1.000000
     28         -4.586692   1.000000
     29         -3.958694   1.000000
     30         -3.659618   1.000000
     31         -1.952694   1.000000
     32         -0.444107   0.000000
     33         -0.359073   0.000000
     34          0.939396   0.000000
     35          1.988760   0.000000
     36          2.897144   0.000000
     37          3.197736   0.000000
     38          3.796632   0.000000

  0.4000000E+00  0.4000000E+00  0.1262379E-14  0.2000000E-01
      1        -18.053450   1.000000
      2        -17.744593   1.000000
      3        -17.612685   1.000000
      4        -17.548197   1.000000
      5        -17.502882   1.000000
      6        -17.090058   1.000000
      7        -16.807780   1.000000
      8        -16.633672   1.000000
      9        -16.577698   1.000000
     10        -16.570577   1.000000
     11        -14.931149   1.000000
     12        -14.513498   1.000000
     13        -13.806996   1.000000
     14        -12.973079   1.000000
     15         -9.148881   1.000000
     16         -8.378568   1.000000
     17         -7.629206   1.000000
     18         -7.503280   1.000000
     19         -7.422850   1.000000
     20         -7.324855   1.000000
     21         -7.007450   1.000000
     22         -6.824187   1.000000
     23         -6.738037   1.000000
     24         -6.322633   1.000000
     25         -5.948092   1.000000
     26         -5.380630   1.000000
     27         -5.170440   1.000000
     28         -4.586691   1.000000
     29         -3.958693   1.000000
     30         -3.659619   1.000000
     31         -1.952699   1.000000
     32         -0.444105   0.000000
     33         -0.359073   0.000000
     34          0.939396   0.000000
     35          1.988758   0.000000
     36          2.897146   0.000000
     37          3.197736   0.000000
     38          3.796622   0.000000

  0.3000000E+00  0.3000000E+00  0.1262379E-14  0.2000000E-01
      1        -18.053232   1.000000
      2        -17.743492   1.000000
      3        -17.617301   1.000000
      4        -17.536501   1.000000
      5        -17.515348   1.000000
      6        -17.060161   1.000000
      7        -16.856253   1.000000
      8        -16.610708   1.000000
      9        -16.595757   1.000000
     10        -16.575531   1.000000
     11        -14.879256   1.000000
     12        -14.425985   1.000000
     13        -13.821035   1.000000
     14        -12.953222   1.000000
     15         -9.080917   1.000000
     16         -8.359893   1.000000
     17         -7.618855   1.000000
     18         -7.498516   1.000000
     19         -7.417255   1.000000
     20         -7.336912   1.000000
     21         -7.093953   1.000000
     22         -6.960326   1.000000
     23         -6.777724   1.000000
     24         -6.389833   1.000000
     25         -5.784661   1.000000
     26         -5.518538   1.000000
     27         -5.158536   1.000000
     28         -4.838841   1.000000
     29         -4.276152   1.000000
     30         -3.646356   1.000000
     31         -1.937575   1.000000
     32         -0.346472   0.000000
     33         -0.213357   0.000000
     34          1.183826   0.000000
     35          1.932251   0.000000
     36          3.141229   0.000000
     37          3.414825   0.000000
     38          4.035849   0.000000

 -0.3000000E+00 -0.4000000E+00  0.1262379E-14  0.2000000E-01
      1        -18.053232   1.000000
      2        -17.743492   1.000000
      3        -17.617301   1.000000
      4        -17.536501   1.000000
      5        -17.515348   1.000000
      6        -17.060161   1.000000
      7        -16.856253   1.000000
      8        -16.610708   1.000000
      9        -16.595756   1.000000
     10        -16.575531   1.000000
     11        -14.879256   1.000000
     12        -14.425985   1.000000
     13        -13.821036   1.000000
     14        -12.953222   1.000000
     15         -9.080916   1.000000
     16         -8.359892   1.000000
     17         -7.618857   1.000000
     18         -7.498514   1.000000
     19         -7.417255   1.000000
     20         -7.336911   1.000000
     21         -7.093953   1.000000
     22         -6.960327   1.000000
     23         -6.777725   1.000000
     24         -6.389834   1.000000
     25         -5.784658   1.000000
     26         -5.518538   1.000000
     27         -5.158537   1.000000
     28         -4.838842   1.000000
     29         -4.276153   1.000000
     30         -3.646356   1.000000
     31         -1.937578   1.000000
     32         -0.346471   0.000000
     33         -0.213357   0.000000
     34          1.183827   0.000000
     35          1.932251   0.000000
     36          3.141230   0.000000
     37          3.414825   0.000000
     38          4.035851   0.000000

  0.4000000E+00  0.3000000E+00  0.1262379E-14  0.2000000E-01
      1        -18.053232   1.000000
      2        -17.743492   1.000000
      3        -17.617301   1.000000
      4        -17.536501   1.000000
      5        -17.515348   1.000000
      6        -17.060161   1.000000
      7        -16.856253   1.000000
      8        -16.610708   1.000000
      9        -16.595756   1.000000
     10        -16.575531   1.000000
     11        -14.879256   1.000000
     12        -14.425985   1.000000
     13        -13.821036   1.000000
     14        -12.953222   1.000000
     15         -9.080917   1.000000
     16         -8.359892   1.000000
     17         -7.618857   1.000000
     18         -7.498514   1.000000
     19         -7.417255   1.000000
     20         -7.336911   1.000000
     21         -7.093953   1.000000
     22         -6.960327   1.000000
     23         -6.777725   1.000000
     24         -6.389834   1.000000
     25         -5.784658   1.000000
     26         -5.518538   1.000000
     27         -5.158537   1.000000
     28         -4.838842   1.000000
     29         -4.276153   1.000000
     30         -3.646356   1.000000
     31         -1.937577   1.000000
     32         -0.346471   0.000000
     33         -0.213357   0.000000
     34          1.183827   0.000000
     35          1.932251   0.000000
     36          3.141229   0.000000
     37          3.414825   0.000000
     38          4.035851   0.000000
