 running    8 mpi-ranks, on    1 nodes
 distrk:  each k-point on    8 cores,    1 groups
 distr:  one band on    4 cores,    2 groups
 vasp.6.6.1 17Jul2026 (build Sep  7 2026 10:40:42) complex                       
 POSCAR found type information on POSCAR S InZn
 POSCAR found :  3 types and       7 ions
 scaLAPACK will be used
 LDA part: xc-table for (Slater+PW92), standard interpolation
 POSCAR, INCAR and KPOINTS ok, starting setup
 FFT: planning ... GRIDC
 FFT: planning ... GRID_SOFT
 FFT: planning ... GRID
 WAVECAR not read
 entering main loop
       N       E                     dE             d eps       ncg     rms          rms(c)
DAV:   1     0.520717455326E+03    0.52072E+03   -0.25255E+04  4216   0.136E+03
DAV:   2     0.439057699806E+02   -0.47681E+03   -0.46523E+03  4822   0.330E+02
DAV:   3    -0.251253894043E+02   -0.69031E+02   -0.68134E+02  5138   0.149E+02
DAV:   4    -0.283443812145E+02   -0.32190E+01   -0.32088E+01  4830   0.359E+01
DAV:   5    -0.284635700457E+02   -0.11919E+00   -0.11916E+00  6004   0.700E+00    0.132E+01
DAV:   6    -0.264970039658E+02    0.19666E+01   -0.36844E+00  6426   0.420E+01    0.100E+01
DAV:   7    -0.266410623056E+02   -0.14406E+00   -0.43675E+00  5546   0.116E+01    0.371E+00
DAV:   8    -0.266592213599E+02   -0.18159E-01   -0.35951E+00  5624   0.118E+01    0.187E+00
DAV:   9    -0.265282826038E+02    0.13094E+00   -0.58729E-01  6480   0.139E+01    0.101E+00
DAV:  10    -0.265361103721E+02   -0.78278E-02   -0.13053E-01  5248   0.178E+00    0.762E-01
DAV:  11    -0.265346541542E+02    0.14562E-02   -0.28989E-02  5682   0.142E+00    0.323E-01
DAV:  12    -0.265345498055E+02    0.10435E-03   -0.93344E-03  5864   0.857E-01    0.170E-01
DAV:  13    -0.265347113085E+02   -0.16150E-03   -0.15682E-03  4730   0.242E-01    0.979E-02
DAV:  14    -0.265347143700E+02   -0.30615E-05   -0.25718E-04  5934   0.160E-01    0.438E-02
DAV:  15    -0.265347387905E+02   -0.24421E-04   -0.14593E-04  6524   0.983E-02    0.211E-02
DAV:  16    -0.265347519136E+02   -0.13123E-04   -0.79956E-05  5352   0.697E-02    0.146E-02
DAV:  17    -0.265347676475E+02   -0.15734E-04   -0.10396E-05  4410   0.205E-02    0.974E-03
DAV:  18    -0.265347755373E+02   -0.78898E-05   -0.25402E-06  3544   0.170E-02    0.667E-03
DAV:  19    -0.265347991020E+02   -0.23565E-04   -0.40891E-06  3466   0.202E-02    0.496E-03
DAV:  20    -0.265348028847E+02   -0.37827E-05   -0.80555E-07  3022   0.609E-03    0.255E-03
DAV:  21    -0.265348048572E+02   -0.19725E-05   -0.18382E-07  2876   0.452E-03    0.159E-03
DAV:  22    -0.265348321527E+02   -0.27295E-04   -0.19999E-06  3306   0.635E-03    0.279E-03
DAV:  23    -0.265348347069E+02   -0.25542E-05   -0.22545E-07  3224   0.382E-03    0.240E-03
DAV:  24    -0.265348363013E+02   -0.15945E-05   -0.68961E-08  2804   0.197E-03    0.197E-03
DAV:  25    -0.265348399073E+02   -0.36059E-05   -0.25886E-07  3090   0.515E-03    0.811E-04
DAV:  26    -0.265348409592E+02   -0.10519E-05   -0.11238E-07  2822   0.259E-03    0.740E-04
DAV:  27    -0.265348412768E+02   -0.31767E-06   -0.22726E-08  2696   0.930E-04
   1 F= -.28280091E+02 E0= -.28279805E+02  d E =-.572073E-03
