WP2-P02-beta001-vacuum-25A-500-k10      
           1
     3.878284    0.000000    0.000000
    -1.939142    3.358693    0.000000
     0.000000   -0.000000   34.456105
   S    In   Zn
     4     2     1
Direct configuration=           1
   0.00000093  0.99999907  0.36278041
   0.66666746  0.33333251  0.46610804
   0.00000061  0.99999949  0.54793789
   0.33333157  0.66666827  0.63721959
   0.66666755  0.33333246  0.39630286
   0.33333402  0.66666606  0.51263717
   0.99999780  0.00000209  0.62788382
