  56  56   0   0
  0.2137364E+02  0.1061750E-08  0.1061750E-08  0.1061750E-08  0.5000000E-15
  1.000000000000000E-004
  CAR 
 ZnIn2S4 bulk k-point convergence        
     13.37826841    -11.95260289  301      4.19582756      1.00000000
    -11.953  0.0000E+00  0.0000E+00
    -11.868  0.0000E+00  0.0000E+00
    -11.784  0.0000E+00  0.0000E+00
    -11.699  0.0000E+00  0.0000E+00
    -11.615  0.0000E+00  0.0000E+00
    -11.530  0.0000E+00  0.0000E+00
    -11.446  0.0000E+00  0.0000E+00
    -11.362  0.0000E+00  0.0000E+00
    -11.277  0.0000E+00  0.0000E+00
    -11.193  0.0000E+00  0.0000E+00
    -11.108  0.0000E+00  0.0000E+00
    -11.024  0.0000E+00  0.0000E+00
    -10.939  0.0000E+00  0.0000E+00
    -10.855  0.0000E+00  0.0000E+00
    -10.770  0.0000E+00  0.0000E+00
    -10.686  0.0000E+00  0.0000E+00
    -10.602  0.0000E+00  0.0000E+00
    -10.517  0.0000E+00  0.0000E+00
    -10.433  0.0000E+00  0.0000E+00
    -10.348  0.0000E+00  0.0000E+00
    -10.264  0.0000E+00  0.0000E+00
    -10.179  0.0000E+00  0.0000E+00
    -10.095  0.0000E+00  0.0000E+00
    -10.011  0.0000E+00  0.0000E+00
     -9.926  0.1998E+03  0.3585E+01
     -9.842  0.1865E+03  0.1383E+02
     -9.757  0.6475E+02  0.2291E+02
     -9.673  0.9210E+02  0.2760E+02
     -9.588  0.1253E+03  0.3544E+02
     -9.504  0.1844E+03  0.4384E+02
     -9.420  0.2322E+03  0.6447E+02
     -9.335  0.5055E+03  0.9629E+02
     -9.251  0.4439E+03  0.1552E+03
     -9.166  0.0000E+00  0.1600E+03
     -9.082  0.0000E+00  0.1600E+03
     -8.997  0.0000E+00  0.1600E+03
     -8.913  0.0000E+00  0.1600E+03
     -8.828  0.4085E+01  0.1601E+03
     -8.744  0.7060E+01  0.1606E+03
     -8.660  0.1087E+02  0.1613E+03
     -8.575  0.1476E+02  0.1626E+03
     -8.491  0.1720E+02  0.1638E+03
     -8.406  0.2766E+02  0.1657E+03
     -8.322  0.1124E+02  0.1670E+03
     -8.237  0.7002E+01  0.1678E+03
     -8.153  0.1483E+02  0.1684E+03
     -8.069  0.3238E+02  0.1711E+03
     -7.984  0.2100E+02  0.1731E+03
     -7.900  0.1392E+02  0.1745E+03
     -7.815  0.8962E+01  0.1755E+03
     -7.731  0.1737E+01  0.1760E+03
     -7.646  0.4802E+02  0.1782E+03
     -7.562  0.2270E+02  0.1834E+03
     -7.477  0.1167E+02  0.1841E+03
     -7.393  0.5205E+02  0.1866E+03
     -7.309  0.4503E+02  0.1908E+03
     -7.224  0.2626E+02  0.1941E+03
     -7.140  0.3688E+02  0.1962E+03
     -7.055  0.3805E+02  0.2001E+03
     -6.971  0.2818E+02  0.2020E+03
     -6.886  0.2669E+02  0.2061E+03
     -6.802  0.2864E+02  0.2081E+03
     -6.718  0.7077E+02  0.2123E+03
     -6.633  0.8168E+02  0.2199E+03
     -6.549  0.1776E+02  0.2238E+03
     -6.464  0.0000E+00  0.2240E+03
     -6.380  0.0000E+00  0.2240E+03
     -6.295  0.0000E+00  0.2240E+03
     -6.211  0.0000E+00  0.2240E+03
     -6.127  0.0000E+00  0.2240E+03
     -6.042  0.0000E+00  0.2240E+03
     -5.958  0.0000E+00  0.2240E+03
     -5.873  0.0000E+00  0.2240E+03
     -5.789  0.0000E+00  0.2240E+03
     -5.704  0.0000E+00  0.2240E+03
     -5.620  0.0000E+00  0.2240E+03
     -5.535  0.0000E+00  0.2240E+03
     -5.451  0.0000E+00  0.2240E+03
     -5.367  0.0000E+00  0.2240E+03
     -5.282  0.0000E+00  0.2240E+03
     -5.198  0.0000E+00  0.2240E+03
     -5.113  0.0000E+00  0.2240E+03
     -5.029  0.0000E+00  0.2240E+03
     -4.944  0.0000E+00  0.2240E+03
     -4.860  0.0000E+00  0.2240E+03
     -4.776  0.0000E+00  0.2240E+03
     -4.691  0.0000E+00  0.2240E+03
     -4.607  0.0000E+00  0.2240E+03
     -4.522  0.0000E+00  0.2240E+03
     -4.438  0.0000E+00  0.2240E+03
     -4.353  0.0000E+00  0.2240E+03
     -4.269  0.0000E+00  0.2240E+03
     -4.184  0.0000E+00  0.2240E+03
     -4.100  0.0000E+00  0.2240E+03
     -4.016  0.0000E+00  0.2240E+03
     -3.931  0.0000E+00  0.2240E+03
     -3.847  0.0000E+00  0.2240E+03
     -3.762  0.0000E+00  0.2240E+03
     -3.678  0.0000E+00  0.2240E+03
     -3.593  0.0000E+00  0.2240E+03
     -3.509  0.0000E+00  0.2240E+03
     -3.425  0.0000E+00  0.2240E+03
     -3.340  0.0000E+00  0.2240E+03
     -3.256  0.0000E+00  0.2240E+03
     -3.171  0.0000E+00  0.2240E+03
     -3.087  0.0000E+00  0.2240E+03
     -3.002  0.0000E+00  0.2240E+03
     -2.918  0.0000E+00  0.2240E+03
     -2.833  0.0000E+00  0.2240E+03
     -2.749  0.0000E+00  0.2240E+03
     -2.665  0.0000E+00  0.2240E+03
     -2.580  0.0000E+00  0.2240E+03
     -2.496  0.0000E+00  0.2240E+03
     -2.411  0.0000E+00  0.2240E+03
     -2.327  0.0000E+00  0.2240E+03
     -2.242  0.0000E+00  0.2240E+03
     -2.158  0.0000E+00  0.2240E+03
     -2.074  0.5937E+02  0.2357E+03
     -1.989  0.4227E+02  0.2398E+03
     -1.905  0.3479E+03  0.2533E+03
     -1.820  0.8222E+02  0.2720E+03
     -1.736  0.1596E+00  0.3040E+03
     -1.651  0.4737E+01  0.3042E+03
     -1.567  0.4188E+01  0.3045E+03
     -1.483  0.6776E+01  0.3050E+03
     -1.398  0.2295E+02  0.3060E+03
     -1.314  0.1909E+02  0.3075E+03
     -1.229  0.2648E+02  0.3093E+03
     -1.145  0.1747E+02  0.3114E+03
     -1.060  0.2310E+02  0.3129E+03
     -0.976  0.2842E+02  0.3153E+03
     -0.891  0.4259E+02  0.3192E+03
     -0.807  0.4229E+02  0.3231E+03
     -0.723  0.4599E+02  0.3264E+03
     -0.638  0.1533E+02  0.3279E+03
     -0.554  0.3757E+02  0.3308E+03
     -0.469  0.2281E+02  0.3328E+03
     -0.385  0.1273E+02  0.3353E+03
     -0.300  0.1026E+02  0.3362E+03
     -0.216  0.2511E+02  0.3380E+03
     -0.132  0.7575E+01  0.3390E+03
     -0.047  0.6864E+01  0.3396E+03
      0.037  0.7131E+01  0.3402E+03
      0.122  0.8360E+01  0.3408E+03
      0.206  0.1413E+02  0.3417E+03
      0.291  0.1733E+02  0.3432E+03
      0.375  0.1325E+02  0.3444E+03
      0.460  0.1374E+02  0.3455E+03
      0.544  0.2101E+02  0.3469E+03
      0.628  0.2348E+02  0.3490E+03
      0.713  0.6328E+02  0.3524E+03
      0.797  0.2534E+02  0.3569E+03
      0.882  0.2109E+02  0.3587E+03
      0.966  0.3150E+02  0.3609E+03
      1.051  0.3279E+02  0.3644E+03
      1.135  0.4134E+02  0.3671E+03
      1.219  0.3623E+02  0.3705E+03
      1.304  0.3348E+02  0.3733E+03
      1.388  0.1006E+02  0.3752E+03
      1.473  0.2828E+02  0.3765E+03
      1.557  0.5283E+02  0.3809E+03
      1.642  0.4692E+02  0.3849E+03
      1.726  0.3732E+02  0.3882E+03
      1.811  0.3301E+02  0.3912E+03
      1.895  0.2150E+02  0.3933E+03
      1.979  0.2603E+02  0.3954E+03
      2.064  0.3454E+02  0.3980E+03
      2.148  0.6341E+02  0.4013E+03
      2.233  0.2724E+02  0.4052E+03
      2.317  0.2497E+02  0.4076E+03
      2.402  0.7454E+02  0.4134E+03
      2.486  0.7282E+02  0.4187E+03
      2.570  0.2467E+02  0.4217E+03
      2.655  0.3001E+02  0.4244E+03
      2.739  0.1711E+02  0.4263E+03
      2.824  0.2273E+02  0.4279E+03
      2.908  0.1041E+03  0.4327E+03
      2.993  0.3349E+02  0.4373E+03
      3.077  0.6203E+02  0.4420E+03
      3.161  0.5465E+02  0.4464E+03
      3.246  0.7426E+02  0.4523E+03
      3.330  0.3303E+02  0.4552E+03
      3.415  0.3688E+02  0.4581E+03
      3.499  0.4852E+02  0.4636E+03
      3.584  0.5424E+02  0.4691E+03
      3.668  0.3839E+02  0.4734E+03
      3.753  0.2734E+02  0.4760E+03
      3.837  0.4479E+02  0.4798E+03
      3.921  0.3881E+02  0.4831E+03
      4.006  0.1872E+02  0.4873E+03
      4.090  0.6806E+02  0.4909E+03
      4.175  0.8191E+00  0.4960E+03
      4.259  0.0000E+00  0.4960E+03
      4.344  0.0000E+00  0.4960E+03
      4.428  0.0000E+00  0.4960E+03
      4.512  0.0000E+00  0.4960E+03
      4.597  0.0000E+00  0.4960E+03
      4.681  0.0000E+00  0.4960E+03
      4.766  0.0000E+00  0.4960E+03
      4.850  0.0000E+00  0.4960E+03
      4.935  0.0000E+00  0.4960E+03
      5.019  0.0000E+00  0.4960E+03
      5.104  0.0000E+00  0.4960E+03
      5.188  0.0000E+00  0.4960E+03
      5.272  0.0000E+00  0.4960E+03
      5.357  0.0000E+00  0.4960E+03
      5.441  0.0000E+00  0.4960E+03
      5.526  0.1290E-02  0.4960E+03
      5.610  0.2090E-01  0.4960E+03
      5.695  0.6411E-01  0.4960E+03
      5.779  0.1309E+00  0.4960E+03
      5.863  0.2213E+00  0.4960E+03
      5.948  0.4341E+00  0.4961E+03
      6.032  0.1620E+01  0.4961E+03
      6.117  0.3195E+01  0.4963E+03
      6.201  0.5424E+01  0.4967E+03
      6.286  0.6657E+01  0.4972E+03
      6.370  0.8184E+01  0.4978E+03
      6.454  0.1001E+02  0.4986E+03
      6.539  0.1189E+02  0.4995E+03
      6.623  0.1350E+02  0.5006E+03
      6.708  0.1579E+02  0.5018E+03
      6.792  0.2028E+02  0.5034E+03
      6.877  0.9301E+01  0.5044E+03
      6.961  0.1695E+02  0.5056E+03
      7.046  0.1778E+02  0.5071E+03
      7.130  0.5169E+02  0.5094E+03
      7.214  0.2379E+02  0.5120E+03
      7.299  0.3338E+02  0.5143E+03
      7.383  0.2495E+02  0.5167E+03
      7.468  0.4267E+02  0.5194E+03
      7.552  0.2080E+02  0.5229E+03
      7.637  0.2476E+02  0.5253E+03
      7.721  0.2300E+02  0.5272E+03
      7.805  0.2759E+02  0.5291E+03
      7.890  0.9305E+01  0.5308E+03
      7.974  0.6780E+01  0.5314E+03
      8.059  0.6724E+01  0.5320E+03
      8.143  0.6430E+01  0.5325E+03
      8.228  0.9553E+01  0.5332E+03
      8.312  0.7158E+01  0.5339E+03
      8.397  0.7490E+01  0.5346E+03
      8.481  0.6576E+01  0.5351E+03
      8.565  0.8444E+01  0.5358E+03
      8.650  0.1954E+02  0.5370E+03
      8.734  0.2260E+02  0.5390E+03
      8.819  0.2313E+02  0.5410E+03
      8.903  0.1950E+02  0.5429E+03
      8.988  0.1265E+02  0.5445E+03
      9.072  0.2357E+02  0.5459E+03
      9.156  0.3636E+02  0.5488E+03
      9.241  0.2474E+02  0.5506E+03
      9.325  0.2636E+02  0.5531E+03
      9.410  0.2890E+02  0.5552E+03
      9.494  0.2181E+02  0.5573E+03
      9.579  0.2395E+02  0.5593E+03
      9.663  0.2326E+02  0.5613E+03
      9.748  0.2242E+02  0.5632E+03
      9.832  0.1843E+02  0.5651E+03
      9.916  0.2785E+02  0.5674E+03
     10.001  0.2955E+02  0.5695E+03
     10.085  0.3447E+02  0.5719E+03
     10.170  0.3266E+02  0.5755E+03
     10.254  0.2662E+02  0.5782E+03
     10.339  0.3919E+02  0.5805E+03
     10.423  0.5895E+02  0.5851E+03
     10.507  0.3163E+02  0.5888E+03
     10.592  0.4357E+02  0.5919E+03
     10.676  0.3414E+02  0.5954E+03
     10.761  0.3207E+02  0.5980E+03
     10.845  0.5018E+02  0.6023E+03
     10.930  0.4713E+02  0.6058E+03
     11.014  0.6388E+01  0.6074E+03
     11.098  0.2569E+01  0.6078E+03
     11.183  0.9741E+00  0.6079E+03
     11.267  0.2695E+00  0.6080E+03
     11.352  0.1229E-01  0.6080E+03
     11.436  0.0000E+00  0.6080E+03
     11.521  0.0000E+00  0.6080E+03
     11.605  0.0000E+00  0.6080E+03
     11.690  0.0000E+00  0.6080E+03
     11.774  0.0000E+00  0.6080E+03
     11.858  0.0000E+00  0.6080E+03
     11.943  0.0000E+00  0.6080E+03
     12.027  0.0000E+00  0.6080E+03
     12.112  0.0000E+00  0.6080E+03
     12.196  0.0000E+00  0.6080E+03
     12.281  0.0000E+00  0.6080E+03
     12.365  0.0000E+00  0.6080E+03
     12.449  0.0000E+00  0.6080E+03
     12.534  0.0000E+00  0.6080E+03
     12.618  0.0000E+00  0.6080E+03
     12.703  0.0000E+00  0.6080E+03
     12.787  0.0000E+00  0.6080E+03
     12.872  0.0000E+00  0.6080E+03
     12.956  0.0000E+00  0.6080E+03
     13.041  0.0000E+00  0.6080E+03
     13.125  0.0000E+00  0.6080E+03
     13.209  0.0000E+00  0.6080E+03
     13.294  0.0000E+00  0.6080E+03
     13.378  0.0000E+00  0.6080E+03
