       N       E                     dE             d eps       ncg     rms          rms(c)
DAV:   1     0.597111676833E+04    0.59711E+04   -0.19961E+05  6080   0.188E+03
DAV:   2     0.110325537174E+04   -0.48679E+04   -0.47185E+04  6080   0.518E+02
DAV:   3    -0.717953588433E+02   -0.11751E+04   -0.10905E+04  6592   0.233E+02
DAV:   4    -0.222792940642E+03   -0.15100E+03   -0.14783E+03  7928   0.788E+01
DAV:   5    -0.228803899877E+03   -0.60110E+01   -0.59592E+01  7296   0.179E+01    0.410E+01
DAV:   6    -0.215567225038E+03    0.13237E+02   -0.21458E+01  9000   0.487E+01    0.249E+01
DAV:   7    -0.216243669226E+03   -0.67644E+00   -0.36574E+01  8528   0.134E+01    0.887E+00
DAV:   8    -0.215787708045E+03    0.45596E+00   -0.30938E+00  8040   0.620E+00    0.587E+00
DAV:   9    -0.215794835457E+03   -0.71274E-02   -0.71283E-01  8632   0.175E+00    0.151E+00
DAV:  10    -0.215787039199E+03    0.77963E-02   -0.72329E-02  8336   0.118E+00    0.785E-01
DAV:  11    -0.215790618869E+03   -0.35797E-02   -0.15127E-02  8720   0.442E-01    0.254E-01
DAV:  12    -0.215790614490E+03    0.43789E-05   -0.35556E-03  7992   0.333E-01    0.142E-01
DAV:  13    -0.215790607541E+03    0.69493E-05   -0.48799E-04  8832   0.781E-02    0.932E-02
DAV:  14    -0.215790679569E+03   -0.72028E-04   -0.20926E-04  7096   0.462E-02    0.191E-02
DAV:  15    -0.215790681970E+03   -0.24010E-05   -0.33699E-05  8760   0.262E-02    0.101E-02
DAV:  16    -0.215790684680E+03   -0.27105E-05   -0.10495E-05  6896   0.722E-03    0.638E-03
DAV:  17    -0.215790684104E+03    0.57639E-06   -0.13724E-06  7368   0.360E-03    0.219E-03
DAV:  18    -0.215790684164E+03   -0.60478E-07   -0.40577E-07  5408   0.280E-03
   1 F= -.23374241E+03 E0= -.23374241E+03  d E =0.000000E+00
