beta_001_t07                            
   1.0000000000000000     
     3.8782842923155867    0.0000000000000000    0.0000000000000000
    -1.9391421461577933    3.3586927202930394    0.0000000000000000
     0.0000000000000000    0.0000000000000000   29.4198582101956134
   S    In   Zn
     4     2     1
Direct
     0.0000009328819783    0.9999990675493606    0.3372449560989715
     0.6666674558440756    0.3333325101705703    0.4582607646091464
     0.0000006130220096    0.9999994892935780    0.5540986808541473
     0.3333315663518467    0.6666682684148559    0.6586640943396854
     0.6666675549394873    0.3333324596457766    0.3765059564962768
     0.3333340192907590    0.6666660563643667    0.5127549901561812
     0.9999977976698388    0.0000020885614866    0.6477301721237144

  0.00000000E+00  0.00000000E+00  0.00000000E+00
  0.00000000E+00  0.00000000E+00  0.00000000E+00
  0.00000000E+00  0.00000000E+00  0.00000000E+00
  0.00000000E+00  0.00000000E+00  0.00000000E+00
  0.00000000E+00  0.00000000E+00  0.00000000E+00
  0.00000000E+00  0.00000000E+00  0.00000000E+00
  0.00000000E+00  0.00000000E+00  0.00000000E+00
