   7   7   0   0
  0.5474601E+02  0.3878284E-09  0.3878284E-09  0.2941986E-08  0.5000000E-15
   1.0000000000000000E-004
  CAR 
 WP2-P01-A2-beta001-relax                
      5.75098083    -18.54930590  301     -1.02258109      1.00000000
    -18.549  0.0000E+00  0.0000E+00
    -18.468  0.0000E+00  0.0000E+00
    -18.387  0.0000E+00  0.0000E+00
    -18.306  0.0000E+00  0.0000E+00
    -18.225  0.0000E+00  0.0000E+00
    -18.144  0.0000E+00  0.0000E+00
    -18.063  0.0000E+00  0.0000E+00
    -17.982  0.0000E+00  0.0000E+00
    -17.901  0.0000E+00  0.0000E+00
    -17.820  0.0000E+00  0.0000E+00
    -17.739  0.0000E+00  0.0000E+00
    -17.658  0.3054E-10  0.2474E-11
    -17.577  0.4511E-05  0.3654E-06
    -17.496  0.5190E-02  0.4207E-03
    -17.415  0.8874E-01  0.7609E-02
    -17.334  0.9001E-01  0.1490E-01
    -17.253  0.4910E-01  0.1888E-01
    -17.172  0.5186E-01  0.2308E-01
    -17.091  0.1829E+00  0.3789E-01
    -17.010  0.1519E+00  0.5019E-01
    -16.929  0.2950E+00  0.7409E-01
    -16.848  0.2885E+00  0.9746E-01
    -16.767  0.3134E-01  0.9999E-01
    -16.686  0.7827E-04  0.1000E+00
    -16.605  0.3102E-03  0.1000E+00
    -16.524  0.2336E-01  0.1019E+00
    -16.443  0.9943E-01  0.1100E+00
    -16.362  0.6481E-01  0.1152E+00
    -16.281  0.3203E-01  0.1178E+00
    -16.200  0.5197E-01  0.1220E+00
    -16.119  0.1379E+00  0.1332E+00
    -16.038  0.2342E+00  0.1522E+00
    -15.957  0.4129E+00  0.1856E+00
    -15.876  0.1751E+00  0.1998E+00
    -15.795  0.8199E-02  0.2005E+00
    -15.714  0.1060E-01  0.2013E+00
    -15.633  0.1073E-02  0.2014E+00
    -15.552  0.6760E-02  0.2020E+00
    -15.471  0.1191E-01  0.2029E+00
    -15.390  0.1020E-01  0.2037E+00
    -15.309  0.6426E-03  0.2038E+00
    -15.228  0.2937E-02  0.2040E+00
    -15.147  0.2204E-01  0.2058E+00
    -15.066  0.8100E-02  0.2065E+00
    -14.985  0.1852E-01  0.2080E+00
    -14.904  0.1040E-01  0.2088E+00
    -14.823  0.1909E-01  0.2104E+00
    -14.742  0.4514E-01  0.2140E+00
    -14.661  0.1346E-01  0.2151E+00
    -14.580  0.2504E-01  0.2171E+00
    -14.499  0.3141E-01  0.2197E+00
    -14.418  0.5883E-01  0.2245E+00
    -14.337  0.1488E-01  0.2257E+00
    -14.256  0.5182E-01  0.2299E+00
    -14.175  0.2704E-01  0.2320E+00
    -14.094  0.1620E-01  0.2334E+00
    -14.013  0.4115E-01  0.2367E+00
    -13.932  0.2753E-01  0.2389E+00
    -13.851  0.1780E-01  0.2404E+00
    -13.770  0.2394E-01  0.2423E+00
    -13.689  0.1608E-01  0.2436E+00
    -13.608  0.3891E-02  0.2439E+00
    -13.527  0.2082E-01  0.2456E+00
    -13.446  0.1634E-01  0.2469E+00
    -13.365  0.1571E-01  0.2482E+00
    -13.284  0.3620E-01  0.2511E+00
    -13.203  0.6648E-01  0.2565E+00
    -13.122  0.4215E-01  0.2599E+00
    -13.041  0.6857E-02  0.2605E+00
    -12.960  0.1191E-01  0.2615E+00
    -12.879  0.1648E-01  0.2628E+00
    -12.798  0.1289E-01  0.2638E+00
    -12.717  0.1991E-01  0.2654E+00
    -12.636  0.2057E-01  0.2671E+00
    -12.555  0.2224E-01  0.2689E+00
    -12.474  0.3714E-01  0.2719E+00
    -12.393  0.5706E-01  0.2765E+00
    -12.312  0.3851E-01  0.2797E+00
    -12.231  0.4144E-02  0.2800E+00
    -12.150  0.1369E-04  0.2800E+00
    -12.069  0.4101E-09  0.2800E+00
    -11.988  0.7895E-16  0.2800E+00
    -11.907  0.0000E+00  0.2800E+00
    -11.826  0.0000E+00  0.2800E+00
    -11.745  0.0000E+00  0.2800E+00
    -11.664  0.0000E+00  0.2800E+00
    -11.583  0.0000E+00  0.2800E+00
    -11.502  0.0000E+00  0.2800E+00
    -11.421  0.0000E+00  0.2800E+00
    -11.340  0.0000E+00  0.2800E+00
    -11.259  0.0000E+00  0.2800E+00
    -11.178  0.0000E+00  0.2800E+00
    -11.097  0.0000E+00  0.2800E+00
    -11.016  0.0000E+00  0.2800E+00
    -10.935  0.0000E+00  0.2800E+00
    -10.854  0.0000E+00  0.2800E+00
    -10.773  0.0000E+00  0.2800E+00
    -10.692  0.0000E+00  0.2800E+00
    -10.611  0.0000E+00  0.2800E+00
    -10.530  0.0000E+00  0.2800E+00
    -10.449  0.0000E+00  0.2800E+00
    -10.368  0.0000E+00  0.2800E+00
    -10.287  0.0000E+00  0.2800E+00
    -10.206  0.0000E+00  0.2800E+00
    -10.125  0.0000E+00  0.2800E+00
    -10.044  0.0000E+00  0.2800E+00
     -9.963  0.0000E+00  0.2800E+00
     -9.882  0.0000E+00  0.2800E+00
     -9.801  0.0000E+00  0.2800E+00
     -9.720  0.0000E+00  0.2800E+00
     -9.639  0.0000E+00  0.2800E+00
     -9.558  0.0000E+00  0.2800E+00
     -9.477  0.0000E+00  0.2800E+00
     -9.396  0.0000E+00  0.2800E+00
     -9.315  0.0000E+00  0.2800E+00
     -9.234  0.0000E+00  0.2800E+00
     -9.153  0.0000E+00  0.2800E+00
     -9.072  0.0000E+00  0.2800E+00
     -8.991  0.0000E+00  0.2800E+00
     -8.910  0.4619E-13  0.2800E+00
     -8.829  0.2718E-07  0.2800E+00
     -8.748  0.1050E-03  0.2800E+00
     -8.667  0.4086E-02  0.2803E+00
     -8.586  0.1706E-01  0.2817E+00
     -8.505  0.3168E-01  0.2843E+00
     -8.424  0.3535E-01  0.2872E+00
     -8.343  0.2224E-01  0.2890E+00
     -8.262  0.1454E-01  0.2901E+00
     -8.181  0.1895E-01  0.2917E+00
     -8.100  0.1992E-01  0.2933E+00
     -8.019  0.3802E-01  0.2964E+00
     -7.938  0.4214E-01  0.2998E+00
     -7.857  0.3945E-02  0.3001E+00
     -7.776  0.2023E-01  0.3017E+00
     -7.695  0.4182E-01  0.3051E+00
     -7.614  0.1810E-01  0.3066E+00
     -7.533  0.2842E-01  0.3089E+00
     -7.452  0.1526E-02  0.3090E+00
     -7.371  0.9371E-02  0.3098E+00
     -7.290  0.2183E-01  0.3115E+00
     -7.209  0.6392E-01  0.3167E+00
     -7.128  0.1000E+00  0.3248E+00
     -7.047  0.1181E+00  0.3344E+00
     -6.966  0.1203E+00  0.3441E+00
     -6.885  0.1006E+00  0.3523E+00
     -6.804  0.1386E+00  0.3635E+00
     -6.723  0.2103E+00  0.3805E+00
     -6.642  0.2280E+00  0.3990E+00
     -6.561  0.7960E-01  0.4055E+00
     -6.480  0.8239E-01  0.4121E+00
     -6.399  0.4314E-01  0.4156E+00
     -6.318  0.1915E-01  0.4172E+00
     -6.237  0.1168E-01  0.4181E+00
     -6.156  0.5594E-01  0.4226E+00
     -6.075  0.7133E-01  0.4284E+00
     -5.994  0.6351E-01  0.4336E+00
     -5.913  0.3676E-01  0.4365E+00
     -5.832  0.1606E-01  0.4378E+00
     -5.751  0.5821E-01  0.4426E+00
     -5.670  0.4910E-01  0.4465E+00
     -5.589  0.3460E-01  0.4493E+00
     -5.508  0.4883E-01  0.4533E+00
     -5.427  0.1566E-01  0.4546E+00
     -5.346  0.5010E-01  0.4586E+00
     -5.265  0.6297E-01  0.4637E+00
     -5.184  0.4673E-01  0.4675E+00
     -5.103  0.5080E-01  0.4716E+00
     -5.022  0.5074E-01  0.4757E+00
     -4.941  0.2747E-01  0.4780E+00
     -4.860  0.7336E-01  0.4839E+00
     -4.779  0.4208E-01  0.4873E+00
     -4.698  0.4425E-01  0.4909E+00
     -4.617  0.5698E-01  0.4955E+00
     -4.536  0.6842E-01  0.5011E+00
     -4.455  0.6549E-01  0.5064E+00
     -4.374  0.5252E-01  0.5106E+00
     -4.293  0.2357E-01  0.5125E+00
     -4.212  0.5868E-01  0.5173E+00
     -4.131  0.6176E-01  0.5223E+00
     -4.050  0.5161E-01  0.5265E+00
     -3.969  0.3273E-01  0.5291E+00
     -3.888  0.2350E-01  0.5310E+00
     -3.807  0.4159E-01  0.5344E+00
     -3.726  0.3919E-01  0.5376E+00
     -3.645  0.3063E-01  0.5400E+00
     -3.564  0.3986E-01  0.5433E+00
     -3.483  0.2913E-01  0.5456E+00
     -3.402  0.4427E-01  0.5492E+00
     -3.321  0.3942E-01  0.5524E+00
     -3.240  0.2176E-01  0.5542E+00
     -3.159  0.7067E-01  0.5599E+00
     -3.078  0.7976E-01  0.5664E+00
     -2.997  0.1012E+00  0.5745E+00
     -2.916  0.2529E-01  0.5766E+00
     -2.835  0.2494E-01  0.5786E+00
     -2.754  0.2792E-01  0.5809E+00
     -2.673  0.3674E-01  0.5838E+00
     -2.592  0.2373E-01  0.5858E+00
     -2.511  0.1484E-02  0.5859E+00
     -2.430  0.2176E-01  0.5877E+00
     -2.349  0.2510E-01  0.5897E+00
     -2.268  0.1674E-01  0.5910E+00
     -2.187  0.4371E-02  0.5914E+00
     -2.106  0.5425E-03  0.5914E+00
     -2.025  0.2388E-01  0.5934E+00
     -1.944  0.3260E-01  0.5960E+00
     -1.863  0.3950E-02  0.5963E+00
     -1.782  0.1674E-01  0.5977E+00
     -1.701  0.1230E-01  0.5987E+00
     -1.620  0.3116E-01  0.6012E+00
     -1.539  0.4328E-01  0.6047E+00
     -1.458  0.5579E-01  0.6092E+00
     -1.377  0.6182E-01  0.6142E+00
     -1.296  0.4709E-01  0.6181E+00
     -1.215  0.9196E-02  0.6188E+00
     -1.134  0.1107E-01  0.6197E+00
     -1.053  0.2188E-02  0.6199E+00
     -0.972  0.4081E-02  0.6202E+00
     -0.891  0.9832E-02  0.6210E+00
     -0.810  0.4842E-02  0.6214E+00
     -0.729  0.4676E-04  0.6214E+00
     -0.648  0.2588E-05  0.6214E+00
     -0.567  0.1085E-02  0.6215E+00
     -0.486  0.1487E-01  0.6227E+00
     -0.405  0.2575E-01  0.6248E+00
     -0.324  0.1260E-01  0.6258E+00
     -0.243  0.2610E-01  0.6279E+00
     -0.162  0.2574E-01  0.6300E+00
     -0.081  0.4705E-01  0.6338E+00
     -0.000  0.2076E-01  0.6355E+00
      0.081  0.2643E-01  0.6376E+00
      0.162  0.2573E-01  0.6397E+00
      0.243  0.5325E-01  0.6440E+00
      0.324  0.7158E-01  0.6498E+00
      0.405  0.3020E-01  0.6523E+00
      0.486  0.8730E-02  0.6530E+00
      0.567  0.2451E-01  0.6550E+00
      0.648  0.3225E-01  0.6576E+00
      0.729  0.2237E-01  0.6594E+00
      0.810  0.2225E-01  0.6612E+00
      0.891  0.7870E-02  0.6618E+00
      0.972  0.1555E-01  0.6631E+00
      1.053  0.1796E-01  0.6645E+00
      1.134  0.1956E-01  0.6661E+00
      1.215  0.1965E-01  0.6677E+00
      1.296  0.9932E-03  0.6678E+00
      1.377  0.2962E-03  0.6678E+00
      1.458  0.7017E-02  0.6684E+00
      1.539  0.3741E-01  0.6714E+00
      1.620  0.3176E-01  0.6740E+00
      1.701  0.2234E-01  0.6758E+00
      1.782  0.1661E-01  0.6771E+00
      1.863  0.3031E-01  0.6796E+00
      1.944  0.4863E-02  0.6800E+00
      2.025  0.8177E-03  0.6801E+00
      2.106  0.1611E-02  0.6802E+00
      2.187  0.4100E-02  0.6805E+00
      2.268  0.1083E-01  0.6814E+00
      2.349  0.1091E-01  0.6823E+00
      2.430  0.4660E-02  0.6827E+00
      2.511  0.3639E-01  0.6856E+00
      2.592  0.7639E-01  0.6918E+00
      2.673  0.4977E-01  0.6958E+00
      2.754  0.2489E-01  0.6978E+00
      2.835  0.2341E-01  0.6997E+00
      2.916  0.4310E-01  0.7032E+00
      2.997  0.6625E-01  0.7086E+00
      3.078  0.5336E-01  0.7129E+00
      3.159  0.4482E-01  0.7166E+00
      3.240  0.3533E-01  0.7194E+00
      3.321  0.2063E-01  0.7211E+00
      3.402  0.1140E-01  0.7220E+00
      3.483  0.6374E-01  0.7272E+00
      3.564  0.1036E+00  0.7356E+00
      3.645  0.4637E-01  0.7393E+00
      3.726  0.4875E-01  0.7433E+00
      3.807  0.5766E-01  0.7479E+00
      3.888  0.4150E-01  0.7513E+00
      3.969  0.1872E-01  0.7528E+00
      4.050  0.1299E-01  0.7539E+00
      4.131  0.1467E-01  0.7551E+00
      4.212  0.1700E-02  0.7552E+00
      4.293  0.2337E-04  0.7552E+00
      4.374  0.6654E-02  0.7557E+00
      4.455  0.3308E-01  0.7584E+00
      4.536  0.4697E-02  0.7588E+00
      4.617  0.2994E-02  0.7590E+00
      4.698  0.1074E-01  0.7599E+00
      4.779  0.1072E-02  0.7600E+00
      4.860  0.1315E-05  0.7600E+00
      4.941  0.1141E-10  0.7600E+00
      5.022  0.0000E+00  0.7600E+00
      5.103  0.0000E+00  0.7600E+00
      5.184  0.0000E+00  0.7600E+00
      5.265  0.0000E+00  0.7600E+00
      5.346  0.0000E+00  0.7600E+00
      5.427  0.0000E+00  0.7600E+00
      5.508  0.0000E+00  0.7600E+00
      5.589  0.0000E+00  0.7600E+00
      5.670  0.0000E+00  0.7600E+00
      5.751  0.0000E+00  0.7600E+00
