    7    7  100    1
  0.5474601E+02  0.3878284E-09  0.3878284E-09  0.2941986E-08  0.5000000E-15
   1.0000000000000000E-004
  CAR 
 WP2-P01-A2-beta001-relax                
     62     52     38

  0.1262379E-14  0.1262379E-14  0.1262379E-14  0.1000000E-01
      1        -17.250182   1.000000
      2        -17.061202   1.000000
      3        -17.061202   1.000000
      4        -16.899016   1.000000
      5        -16.899016   1.000000
      6        -16.135421   1.000000
      7        -16.135144   1.000000
      8        -16.135144   1.000000
      9        -15.987737   1.000000
     10        -15.987736   1.000000
     11        -15.892706   1.000000
     12        -15.046836   1.000000
     13        -14.048385   1.000000
     14        -13.076641   1.000000
     15         -8.101854   1.000000
     16         -7.234758   1.000000
     17         -7.234758   1.000000
     18         -6.737358   1.000000
     19         -6.682238   1.000000
     20         -6.682237   1.000000
     21         -5.760549   1.000000
     22         -4.168569   1.000000
     23         -4.168568   1.000000
     24         -4.058881   1.000000
     25         -3.163955   1.000000
     26         -3.163952   1.000000
     27         -2.866059   1.000000
     28         -2.866059   1.000000
     29         -2.287904   1.000000
     30         -1.268834   1.000000
     31         -1.022448   0.498501
     32         -1.022438   0.498390
     33          0.209295   0.000000
     34          1.419568   0.000000
     35          2.040896   0.000000
     36          2.549513   0.000000
     37          2.841866   0.000000
     38          2.841867   0.000000

  0.1000000E+00  0.1262879E-14  0.1262379E-14  0.2000000E-01
      1        -17.256005   1.000000
      2        -17.091686   1.000000
      3        -17.052216   1.000000
      4        -16.909549   1.000000
      5        -16.898840   1.000000
      6        -16.199191   1.000000
      7        -16.127456   1.000000
      8        -16.098516   1.000000
      9        -15.995809   1.000000
     10        -15.986039   1.000000
     11        -15.768105   1.000000
     12        -14.977048   1.000000
     13        -13.955647   1.000000
     14        -13.019301   1.000000
     15         -8.059084   1.000000
     16         -7.234678   1.000000
     17         -7.208396   1.000000
     18         -6.736092   1.000000
     19         -6.695372   1.000000
     20         -6.683567   1.000000
     21         -5.822304   1.000000
     22         -4.655191   1.000000
     23         -4.281958   1.000000
     24         -4.054797   1.000000
     25         -3.735155   1.000000
     26         -3.378470   1.000000
     27         -3.189752   1.000000
     28         -2.804902   1.000000
     29         -2.022237   1.000000
     30         -1.647627   1.000000
     31         -1.182899   0.999997
     32         -0.906654   0.000521
     33          0.535815   0.000000
     34          1.837554   0.000000
     35          2.208273   0.000000
     36          2.534069   0.000000
     37          2.766550   0.000000
     38          2.980276   0.000000

  0.1262379E-14  0.1000000E+00  0.1262379E-14  0.2000000E-01
      1        -17.256005   1.000000
      2        -17.091686   1.000000
      3        -17.052216   1.000000
      4        -16.909549   1.000000
      5        -16.898840   1.000000
      6        -16.199191   1.000000
      7        -16.127455   1.000000
      8        -16.098516   1.000000
      9        -15.995809   1.000000
     10        -15.986039   1.000000
     11        -15.768105   1.000000
     12        -14.977048   1.000000
     13        -13.955647   1.000000
     14        -13.019301   1.000000
     15         -8.059084   1.000000
     16         -7.234678   1.000000
     17         -7.208396   1.000000
     18         -6.736092   1.000000
     19         -6.695372   1.000000
     20         -6.683567   1.000000
     21         -5.822304   1.000000
     22         -4.655191   1.000000
     23         -4.281958   1.000000
     24         -4.054797   1.000000
     25         -3.735155   1.000000
     26         -3.378470   1.000000
     27         -3.189752   1.000000
     28         -2.804902   1.000000
     29         -2.022237   1.000000
     30         -1.647627   1.000000
     31         -1.182898   0.999997
     32         -0.906654   0.000521
     33          0.535815   0.000000
     34          1.837553   0.000000
     35          2.208273   0.000000
     36          2.534069   0.000000
     37          2.766550   0.000000
     38          2.980276   0.000000

 -0.1000000E+00  0.1000000E+00  0.1262379E-14  0.2000000E-01
      1        -17.256005   1.000000
      2        -17.091686   1.000000
      3        -17.052216   1.000000
      4        -16.909550   1.000000
      5        -16.898840   1.000000
      6        -16.199191   1.000000
      7        -16.127456   1.000000
      8        -16.098516   1.000000
      9        -15.995809   1.000000
     10        -15.986039   1.000000
     11        -15.768105   1.000000
     12        -14.977048   1.000000
     13        -13.955647   1.000000
     14        -13.019301   1.000000
     15         -8.059084   1.000000
     16         -7.234678   1.000000
     17         -7.208395   1.000000
     18         -6.736092   1.000000
     19         -6.695371   1.000000
     20         -6.683568   1.000000
     21         -5.822304   1.000000
     22         -4.655191   1.000000
     23         -4.281959   1.000000
     24         -4.054797   1.000000
     25         -3.735154   1.000000
     26         -3.378472   1.000000
     27         -3.189751   1.000000
     28         -2.804903   1.000000
     29         -2.022237   1.000000
     30         -1.647621   1.000000
     31         -1.182905   0.999997
     32         -0.906654   0.000521
     33          0.535815   0.000000
     34          1.837554   0.000000
     35          2.208273   0.000000
     36          2.534067   0.000000
     37          2.766550   0.000000
     38          2.980299   0.000000

  0.2000000E+00  0.1249001E-14  0.1262379E-14  0.2000000E-01
      1        -17.293701   1.000000
      2        -17.134792   1.000000
      3        -17.030023   1.000000
      4        -16.926401   1.000000
      5        -16.896859   1.000000
      6        -16.309585   1.000000
      7        -16.110254   1.000000
      8        -16.058754   1.000000
      9        -16.006025   1.000000
     10        -15.978424   1.000000
     11        -15.450947   1.000000
     12        -14.774289   1.000000
     13        -13.724265   1.000000
     14        -12.863644   1.000000
     15         -7.987375   1.000000
     16         -7.221969   1.000000
     17         -7.136761   1.000000
     18         -6.761649   1.000000
     19         -6.719344   1.000000
     20         -6.686507   1.000000
     21         -6.171603   1.000000
     22         -5.435799   1.000000
     23         -4.672730   1.000000
     24         -4.556514   1.000000
     25         -4.004526   1.000000
     26         -3.806953   1.000000
     27         -3.764576   1.000000
     28         -2.797577   1.000000
     29         -2.680748   1.000000
     30         -1.772074   1.000000
     31         -1.565857   1.000000
     32         -0.394765   0.000000
     33          0.671887   0.000000
     34          1.525330   0.000000
     35          2.520251   0.000000
     36          2.993498   0.000000
     37          3.178613   0.000000
     38          3.308749   0.000000

  0.1262379E-14  0.2000000E+00  0.1262379E-14  0.2000000E-01
      1        -17.293701   1.000000
      2        -17.134792   1.000000
      3        -17.030023   1.000000
      4        -16.926401   1.000000
      5        -16.896859   1.000000
      6        -16.309585   1.000000
      7        -16.110254   1.000000
      8        -16.058754   1.000000
      9        -16.006025   1.000000
     10        -15.978424   1.000000
     11        -15.450947   1.000000
     12        -14.774289   1.000000
     13        -13.724265   1.000000
     14        -12.863644   1.000000
     15         -7.987375   1.000000
     16         -7.221969   1.000000
     17         -7.136761   1.000000
     18         -6.761649   1.000000
     19         -6.719344   1.000000
     20         -6.686507   1.000000
     21         -6.171603   1.000000
     22         -5.435800   1.000000
     23         -4.672730   1.000000
     24         -4.556514   1.000000
     25         -4.004526   1.000000
     26         -3.806953   1.000000
     27         -3.764576   1.000000
     28         -2.797577   1.000000
     29         -2.680749   1.000000
     30         -1.772074   1.000000
     31         -1.565856   1.000000
     32         -0.394765   0.000000
     33          0.671887   0.000000
     34          1.525330   0.000000
     35          2.520251   0.000000
     36          2.993498   0.000000
     37          3.178613   0.000000
     38          3.308749   0.000000

 -0.2000000E+00  0.2000000E+00  0.1262379E-14  0.2000000E-01
      1        -17.293700   1.000000
      2        -17.134792   1.000000
      3        -17.030023   1.000000
      4        -16.926401   1.000000
      5        -16.896859   1.000000
      6        -16.309585   1.000000
      7        -16.110254   1.000000
      8        -16.058754   1.000000
      9        -16.006025   1.000000
     10        -15.978424   1.000000
     11        -15.450947   1.000000
     12        -14.774289   1.000000
     13        -13.724265   1.000000
     14        -12.863645   1.000000
     15         -7.987375   1.000000
     16         -7.221968   1.000000
     17         -7.136761   1.000000
     18         -6.761649   1.000000
     19         -6.719343   1.000000
     20         -6.686508   1.000000
     21         -6.171602   1.000000
     22         -5.435798   1.000000
     23         -4.672730   1.000000
     24         -4.556515   1.000000
     25         -4.004528   1.000000
     26         -3.806950   1.000000
     27         -3.764577   1.000000
     28         -2.797577   1.000000
     29         -2.680742   1.000000
     30         -1.772074   1.000000
     31         -1.565860   1.000000
     32         -0.394765   0.000000
     33          0.671886   0.000000
     34          1.525328   0.000000
     35          2.520251   0.000000
     36          2.993498   0.000000
     37          3.178610   0.000000
     38          3.308749   0.000000

  0.3000000E+00  0.1221245E-14  0.1262379E-14  0.2000000E-01
      1        -17.365091   1.000000
      2        -17.142719   1.000000
      3        -17.006611   1.000000
      4        -16.940612   1.000000
      5        -16.889910   1.000000
      6        -16.424131   1.000000
      7        -16.095909   1.000000
      8        -16.043731   1.000000
      9        -15.994306   1.000000
     10        -15.961497   1.000000
     11        -15.033866   1.000000
     12        -14.482128   1.000000
     13        -13.455649   1.000000
     14        -12.659270   1.000000
     15         -8.091562   1.000000
     16         -7.171451   1.000000
     17         -7.049919   1.000000
     18         -7.042817   1.000000
     19         -6.779934   1.000000
     20         -6.688259   1.000000
     21         -6.590821   1.000000
     22         -5.911258   1.000000
     23         -5.322930   1.000000
     24         -4.861322   1.000000
     25         -4.421355   1.000000
     26         -4.188537   1.000000
     27         -4.137653   1.000000
     28         -3.331108   1.000000
     29         -2.857612   1.000000
     30         -1.985545   1.000000
     31         -1.594114   1.000000
     32         -0.289691   0.000000
     33          0.291311   0.000000
     34          1.071660   0.000000
     35          2.736812   0.000000
     36          3.266780   0.000000
     37          3.495914   0.000000
     38          3.510097   0.000000

  0.1262379E-14  0.3000000E+00  0.1262379E-14  0.2000000E-01
      1        -17.365091   1.000000
      2        -17.142719   1.000000
      3        -17.006611   1.000000
      4        -16.940612   1.000000
      5        -16.889910   1.000000
      6        -16.424131   1.000000
      7        -16.095909   1.000000
      8        -16.043731   1.000000
      9        -15.994306   1.000000
     10        -15.961497   1.000000
     11        -15.033866   1.000000
     12        -14.482128   1.000000
     13        -13.455649   1.000000
     14        -12.659270   1.000000
     15         -8.091562   1.000000
     16         -7.171451   1.000000
     17         -7.049919   1.000000
     18         -7.042817   1.000000
     19         -6.779934   1.000000
     20         -6.688259   1.000000
     21         -6.590821   1.000000
     22         -5.911258   1.000000
     23         -5.322930   1.000000
     24         -4.861322   1.000000
     25         -4.421355   1.000000
     26         -4.188537   1.000000
     27         -4.137653   1.000000
     28         -3.331108   1.000000
     29         -2.857612   1.000000
     30         -1.985544   1.000000
     31         -1.594114   1.000000
     32         -0.289691   0.000000
     33          0.291311   0.000000
     34          1.071661   0.000000
     35          2.736812   0.000000
     36          3.266780   0.000000
     37          3.495914   0.000000
     38          3.510097   0.000000

 -0.3000000E+00  0.3000000E+00  0.1262379E-14  0.2000000E-01
      1        -17.365091   1.000000
      2        -17.142719   1.000000
      3        -17.006611   1.000000
      4        -16.940612   1.000000
      5        -16.889909   1.000000
      6        -16.424130   1.000000
      7        -16.095909   1.000000
      8        -16.043731   1.000000
      9        -15.994307   1.000000
     10        -15.961497   1.000000
     11        -15.033866   1.000000
     12        -14.482127   1.000000
     13        -13.455650   1.000000
     14        -12.659271   1.000000
     15         -8.091562   1.000000
     16         -7.171449   1.000000
     17         -7.049918   1.000000
     18         -7.042818   1.000000
     19         -6.779932   1.000000
     20         -6.688259   1.000000
     21         -6.590822   1.000000
     22         -5.911257   1.000000
     23         -5.322931   1.000000
     24         -4.861322   1.000000
     25         -4.421351   1.000000
     26         -4.188539   1.000000
     27         -4.137654   1.000000
     28         -3.331102   1.000000
     29         -2.857612   1.000000
     30         -1.985546   1.000000
     31         -1.594116   1.000000
     32         -0.289691   0.000000
     33          0.291311   0.000000
     34          1.071658   0.000000
     35          2.736810   0.000000
     36          3.266775   0.000000
     37          3.495914   0.000000
     38          3.510095   0.000000

  0.4000000E+00  0.1221245E-14  0.1262379E-14  0.2000000E-01
      1        -17.423424   1.000000
      2        -17.138614   1.000000
      3        -16.992433   1.000000
      4        -16.950260   1.000000
      5        -16.879142   1.000000
      6        -16.504855   1.000000
      7        -16.089825   1.000000
      8        -16.049879   1.000000
      9        -15.970959   1.000000
     10        -15.941803   1.000000
     11        -14.636729   1.000000
     12        -14.213414   1.000000
     13        -13.254362   1.000000
     14        -12.483438   1.000000
     15         -8.462779   1.000000
     16         -7.597845   1.000000
     17         -7.071533   1.000000
     18         -6.963051   1.000000
     19         -6.813067   1.000000
     20         -6.686306   1.000000
     21         -6.600196   1.000000
     22         -6.096341   1.000000
     23         -5.652023   1.000000
     24         -5.086791   1.000000
     25         -5.083153   1.000000
     26         -4.460239   1.000000
     27         -4.398912   1.000000
     28         -3.424749   1.000000
     29         -2.928550   1.000000
     30         -2.292317   1.000000
     31         -1.467320   1.000000
     32         -0.468930   0.000000
     33         -0.012603   0.000000
     34          0.782444   0.000000
     35          2.672719   0.000000
     36          3.135336   0.000000
     37          3.512090   0.000000
     38          3.622763   0.000000

  0.1262379E-14  0.4000000E+00  0.1262379E-14  0.2000000E-01
      1        -17.423424   1.000000
      2        -17.138614   1.000000
      3        -16.992433   1.000000
      4        -16.950260   1.000000
      5        -16.879142   1.000000
      6        -16.504855   1.000000
      7        -16.089825   1.000000
      8        -16.049879   1.000000
      9        -15.970959   1.000000
     10        -15.941803   1.000000
     11        -14.636729   1.000000
     12        -14.213414   1.000000
     13        -13.254362   1.000000
     14        -12.483438   1.000000
     15         -8.462779   1.000000
     16         -7.597845   1.000000
     17         -7.071533   1.000000
     18         -6.963051   1.000000
     19         -6.813067   1.000000
     20         -6.686306   1.000000
     21         -6.600196   1.000000
     22         -6.096342   1.000000
     23         -5.652023   1.000000
     24         -5.086791   1.000000
     25         -5.083154   1.000000
     26         -4.460239   1.000000
     27         -4.398912   1.000000
     28         -3.424749   1.000000
     29         -2.928550   1.000000
     30         -2.292317   1.000000
     31         -1.467320   1.000000
     32         -0.468930   0.000000
     33         -0.012603   0.000000
     34          0.782445   0.000000
     35          2.672719   0.000000
     36          3.135337   0.000000
     37          3.512090   0.000000
     38          3.622764   0.000000

 -0.4000000E+00  0.4000000E+00  0.1262379E-14  0.2000000E-01
      1        -17.423424   1.000000
      2        -17.138614   1.000000
      3        -16.992433   1.000000
      4        -16.950260   1.000000
      5        -16.879142   1.000000
      6        -16.504855   1.000000
      7        -16.089825   1.000000
      8        -16.049879   1.000000
      9        -15.970960   1.000000
     10        -15.941803   1.000000
     11        -14.636730   1.000000
     12        -14.213414   1.000000
     13        -13.254363   1.000000
     14        -12.483440   1.000000
     15         -8.462779   1.000000
     16         -7.597843   1.000000
     17         -7.071531   1.000000
     18         -6.963053   1.000000
     19         -6.813065   1.000000
     20         -6.686306   1.000000
     21         -6.600199   1.000000
     22         -6.096342   1.000000
     23         -5.652022   1.000000
     24         -5.086791   1.000000
     25         -5.083151   1.000000
     26         -4.460239   1.000000
     27         -4.398913   1.000000
     28         -3.424743   1.000000
     29         -2.928551   1.000000
     30         -2.292317   1.000000
     31         -1.467326   1.000000
     32         -0.468929   0.000000
     33         -0.012603   0.000000
     34          0.782443   0.000000
     35          2.672717   0.000000
     36          3.135330   0.000000
     37          3.512090   0.000000
     38          3.622765   0.000000

  0.5000000E+00  0.1221245E-14  0.1262379E-14  0.1000000E-01
      1        -17.444747   1.000000
      2        -17.136499   1.000000
      3        -16.988318   1.000000
      4        -16.953706   1.000000
      5        -16.873636   1.000000
      6        -16.533345   1.000000
      7        -16.088579   1.000000
      8        -16.053267   1.000000
      9        -15.961796   1.000000
     10        -15.933087   1.000000
     11        -14.454545   1.000000
     12        -14.109199   1.000000
     13        -13.183468   1.000000
     14        -12.413687   1.000000
     15         -8.670672   1.000000
     16         -7.817993   1.000000
     17         -7.020819   1.000000
     18         -6.932219   1.000000
     19         -6.827304   1.000000
     20         -6.683935   1.000000
     21         -6.499026   1.000000
     22         -6.239438   1.000000
     23         -5.711493   1.000000
     24         -5.341929   1.000000
     25         -5.168839   1.000000
     26         -4.600974   1.000000
     27         -4.492113   1.000000
     28         -3.413880   1.000000
     29         -2.960483   1.000000
     30         -2.402076   1.000000
     31         -1.425263   1.000000
     32         -0.528201   0.000000
     33         -0.159246   0.000000
     34          0.687800   0.000000
     35          2.607567   0.000000
     36          3.061843   0.000000
     37          3.496273   0.000000
     38          3.513408   0.000000

  0.1262379E-14  0.5000000E+00  0.1262379E-14  0.1000000E-01
      1        -17.444747   1.000000
      2        -17.136499   1.000000
      3        -16.988318   1.000000
      4        -16.953706   1.000000
      5        -16.873636   1.000000
      6        -16.533345   1.000000
      7        -16.088579   1.000000
      8        -16.053267   1.000000
      9        -15.961796   1.000000
     10        -15.933087   1.000000
     11        -14.454545   1.000000
     12        -14.109199   1.000000
     13        -13.183468   1.000000
     14        -12.413687   1.000000
     15         -8.670672   1.000000
     16         -7.817994   1.000000
     17         -7.020819   1.000000
     18         -6.932219   1.000000
     19         -6.827304   1.000000
     20         -6.683935   1.000000
     21         -6.499026   1.000000
     22         -6.239438   1.000000
     23         -5.711493   1.000000
     24         -5.341930   1.000000
     25         -5.168839   1.000000
     26         -4.600974   1.000000
     27         -4.492113   1.000000
     28         -3.413879   1.000000
     29         -2.960483   1.000000
     30         -2.402076   1.000000
     31         -1.425263   1.000000
     32         -0.528200   0.000000
     33         -0.159246   0.000000
     34          0.687800   0.000000
     35          2.607566   0.000000
     36          3.061843   0.000000
     37          3.496273   0.000000
     38          3.513408   0.000000

  0.5000000E+00  0.5000000E+00  0.1262379E-14  0.1000000E-01
      1        -17.444747   1.000000
      2        -17.136499   1.000000
      3        -16.988318   1.000000
      4        -16.953706   1.000000
      5        -16.873636   1.000000
      6        -16.533345   1.000000
      7        -16.088579   1.000000
      8        -16.053267   1.000000
      9        -15.961796   1.000000
     10        -15.933087   1.000000
     11        -14.454545   1.000000
     12        -14.109198   1.000000
     13        -13.183469   1.000000
     14        -12.413689   1.000000
     15         -8.670672   1.000000
     16         -7.817991   1.000000
     17         -7.020817   1.000000
     18         -6.932221   1.000000
     19         -6.827300   1.000000
     20         -6.683936   1.000000
     21         -6.499028   1.000000
     22         -6.239442   1.000000
     23         -5.711488   1.000000
     24         -5.341928   1.000000
     25         -5.168839   1.000000
     26         -4.600974   1.000000
     27         -4.492114   1.000000
     28         -3.413874   1.000000
     29         -2.960483   1.000000
     30         -2.402075   1.000000
     31         -1.425271   1.000000
     32         -0.528199   0.000000
     33         -0.159246   0.000000
     34          0.687798   0.000000
     35          2.607564   0.000000
     36          3.061837   0.000000
     37          3.496273   0.000000
     38          3.513411   0.000000

  0.1000000E+00  0.1000000E+00  0.1262379E-14  0.2000000E-01
      1        -17.278171   1.000000
      2        -17.126758   1.000000
      3        -17.037276   1.000000
      4        -16.921404   1.000000
      5        -16.898419   1.000000
      6        -16.270922   1.000000
      7        -16.129369   1.000000
      8        -16.061902   1.000000
      9        -16.004649   1.000000
     10        -15.981381   1.000000
     11        -15.548960   1.000000
     12        -14.838603   1.000000
     13        -13.794868   1.000000
     14        -12.912686   1.000000
     15         -7.999618   1.000000
     16         -7.229477   1.000000
     17         -7.157824   1.000000
     18         -6.748257   1.000000
     19         -6.710467   1.000000
     20         -6.686376   1.000000
     21         -6.024078   1.000000
     22         -5.220131   1.000000
     23         -4.545947   1.000000
     24         -4.282804   1.000000
     25         -4.191369   1.000000
     26         -3.889035   1.000000
     27         -3.147562   1.000000
     28         -3.056731   1.000000
     29         -2.369465   1.000000
     30         -1.819597   1.000000
     31         -1.515928   1.000000
     32         -0.469248   0.000000
     33          0.790160   0.000000
     34          1.809741   0.000000
     35          2.495886   0.000000
     36          2.572725   0.000000
     37          2.966195   0.000000
     38          3.167456   0.000000

 -0.1000000E+00  0.2000000E+00  0.1262379E-14  0.2000000E-01
      1        -17.278171   1.000000
      2        -17.126758   1.000000
      3        -17.037276   1.000000
      4        -16.921405   1.000000
      5        -16.898418   1.000000
      6        -16.270922   1.000000
      7        -16.129369   1.000000
      8        -16.061902   1.000000
      9        -16.004649   1.000000
     10        -15.981381   1.000000
     11        -15.548960   1.000000
     12        -14.838603   1.000000
     13        -13.794868   1.000000
     14        -12.912687   1.000000
     15         -7.999618   1.000000
     16         -7.229478   1.000000
     17         -7.157823   1.000000
     18         -6.748257   1.000000
     19         -6.710466   1.000000
     20         -6.686377   1.000000
     21         -6.024078   1.000000
     22         -5.220130   1.000000
     23         -4.545947   1.000000
     24         -4.282803   1.000000
     25         -4.191369   1.000000
     26         -3.889036   1.000000
     27         -3.147563   1.000000
     28         -3.056730   1.000000
     29         -2.369458   1.000000
     30         -1.819596   1.000000
     31         -1.515935   1.000000
     32         -0.469248   0.000000
     33          0.790160   0.000000
     34          1.809741   0.000000
     35          2.495887   0.000000
     36          2.572725   0.000000
     37          2.966194   0.000000
     38          3.167456   0.000000

 -0.2000000E+00  0.1000000E+00  0.1262379E-14  0.2000000E-01
      1        -17.278171   1.000000
      2        -17.126758   1.000000
      3        -17.037276   1.000000
      4        -16.921405   1.000000
      5        -16.898418   1.000000
      6        -16.270922   1.000000
      7        -16.129369   1.000000
      8        -16.061902   1.000000
      9        -16.004649   1.000000
     10        -15.981381   1.000000
     11        -15.548960   1.000000
     12        -14.838603   1.000000
     13        -13.794869   1.000000
     14        -12.912687   1.000000
     15         -7.999618   1.000000
     16         -7.229478   1.000000
     17         -7.157823   1.000000
     18         -6.748257   1.000000
     19         -6.710466   1.000000
     20         -6.686377   1.000000
     21         -6.024078   1.000000
     22         -5.220130   1.000000
     23         -4.545947   1.000000
     24         -4.282803   1.000000
     25         -4.191369   1.000000
     26         -3.889035   1.000000
     27         -3.147564   1.000000
     28         -3.056730   1.000000
     29         -2.369458   1.000000
     30         -1.819596   1.000000
     31         -1.515935   1.000000
     32         -0.469248   0.000000
     33          0.790160   0.000000
     34          1.809741   0.000000
     35          2.495887   0.000000
     36          2.572725   0.000000
     37          2.966194   0.000000
     38          3.167457   0.000000

  0.2000000E+00  0.1000000E+00  0.1262379E-14  0.2000000E-01
      1        -17.336644   1.000000
      2        -17.143392   1.000000
      3        -17.016472   1.000000
      4        -16.933841   1.000000
      5        -16.895473   1.000000
      6        -16.371347   1.000000
      7        -16.127510   1.000000
      8        -16.032870   1.000000
      9        -16.008485   1.000000
     10        -15.967306   1.000000
     11        -15.182815   1.000000
     12        -14.580359   1.000000
     13        -13.550204   1.000000
     14        -12.731865   1.000000
     15         -8.002729   1.000000
     16         -7.199093   1.000000
     17         -7.070131   1.000000
     18         -6.849172   1.000000
     19         -6.756525   1.000000
     20         -6.690209   1.000000
     21         -6.478689   1.000000
     22         -5.754159   1.000000
     23         -5.047165   1.000000
     24         -4.911190   1.000000
     25         -4.512576   1.000000
     26         -4.144366   1.000000
     27         -3.622433   1.000000
     28         -3.178794   1.000000
     29         -3.033410   1.000000
     30         -2.027209   1.000000
     31         -1.624569   1.000000
     32         -0.104808   0.000000
     33          0.613585   0.000000
     34          1.493290   0.000000
     35          2.621270   0.000000
     36          2.983929   0.000000
     37          3.482676   0.000000
     38          3.678107   0.000000

 -0.1000000E+00  0.3000000E+00  0.1262379E-14  0.2000000E-01
      1        -17.336644   1.000000
      2        -17.143392   1.000000
      3        -17.016472   1.000000
      4        -16.933841   1.000000
      5        -16.895473   1.000000
      6        -16.371347   1.000000
      7        -16.127510   1.000000
      8        -16.032870   1.000000
      9        -16.008485   1.000000
     10        -15.967306   1.000000
     11        -15.182815   1.000000
     12        -14.580359   1.000000
     13        -13.550205   1.000000
     14        -12.731865   1.000000
     15         -8.002729   1.000000
     16         -7.199094   1.000000
     17         -7.070130   1.000000
     18         -6.849172   1.000000
     19         -6.756524   1.000000
     20         -6.690210   1.000000
     21         -6.478689   1.000000
     22         -5.754159   1.000000
     23         -5.047165   1.000000
     24         -4.911191   1.000000
     25         -4.512575   1.000000
     26         -4.144366   1.000000
     27         -3.622433   1.000000
     28         -3.178790   1.000000
     29         -3.033410   1.000000
     30         -2.027212   1.000000
     31         -1.624572   1.000000
     32         -0.104808   0.000000
     33          0.613586   0.000000
     34          1.493290   0.000000
     35          2.621270   0.000000
     36          2.983929   0.000000
     37          3.482676   0.000000
     38          3.678111   0.000000

 -0.3000000E+00  0.2000000E+00  0.1262379E-14  0.2000000E-01
      1        -17.336644   1.000000
      2        -17.143392   1.000000
      3        -17.016472   1.000000
      4        -16.933841   1.000000
      5        -16.895473   1.000000
      6        -16.371347   1.000000
      7        -16.127510   1.000000
      8        -16.032870   1.000000
      9        -16.008485   1.000000
     10        -15.967306   1.000000
     11        -15.182815   1.000000
     12        -14.580358   1.000000
     13        -13.550205   1.000000
     14        -12.731865   1.000000
     15         -8.002729   1.000000
     16         -7.199093   1.000000
     17         -7.070130   1.000000
     18         -6.849171   1.000000
     19         -6.756523   1.000000
     20         -6.690210   1.000000
     21         -6.478689   1.000000
     22         -5.754158   1.000000
     23         -5.047166   1.000000
     24         -4.911191   1.000000
     25         -4.512575   1.000000
     26         -4.144365   1.000000
     27         -3.622434   1.000000
     28         -3.178789   1.000000
     29         -3.033408   1.000000
     30         -2.027213   1.000000
     31         -1.624572   1.000000
     32         -0.104808   0.000000
     33          0.613586   0.000000
     34          1.493288   0.000000
     35          2.621270   0.000000
     36          2.983928   0.000000
     37          3.482677   0.000000
     38          3.678107   0.000000

 -0.2000000E+00  0.3000000E+00  0.1262379E-14  0.2000000E-01
      1        -17.336644   1.000000
      2        -17.143392   1.000000
      3        -17.016472   1.000000
      4        -16.933841   1.000000
      5        -16.895473   1.000000
      6        -16.371347   1.000000
      7        -16.127510   1.000000
      8        -16.032870   1.000000
      9        -16.008485   1.000000
     10        -15.967306   1.000000
     11        -15.182815   1.000000
     12        -14.580358   1.000000
     13        -13.550205   1.000000
     14        -12.731865   1.000000
     15         -8.002729   1.000000
     16         -7.199093   1.000000
     17         -7.070130   1.000000
     18         -6.849172   1.000000
     19         -6.756523   1.000000
     20         -6.690210   1.000000
     21         -6.478689   1.000000
     22         -5.754158   1.000000
     23         -5.047166   1.000000
     24         -4.911191   1.000000
     25         -4.512576   1.000000
     26         -4.144365   1.000000
     27         -3.622434   1.000000
     28         -3.178789   1.000000
     29         -3.033408   1.000000
     30         -2.027213   1.000000
     31         -1.624572   1.000000
     32         -0.104808   0.000000
     33          0.613586   0.000000
     34          1.493288   0.000000
     35          2.621270   0.000000
     36          2.983928   0.000000
     37          3.482676   0.000000
     38          3.678107   0.000000

  0.1000000E+00  0.2000000E+00  0.1262379E-14  0.2000000E-01
      1        -17.336644   1.000000
      2        -17.143392   1.000000
      3        -17.016472   1.000000
      4        -16.933841   1.000000
      5        -16.895473   1.000000
      6        -16.371347   1.000000
      7        -16.127510   1.000000
      8        -16.032870   1.000000
      9        -16.008485   1.000000
     10        -15.967306   1.000000
     11        -15.182815   1.000000
     12        -14.580359   1.000000
     13        -13.550204   1.000000
     14        -12.731865   1.000000
     15         -8.002729   1.000000
     16         -7.199093   1.000000
     17         -7.070131   1.000000
     18         -6.849172   1.000000
     19         -6.756525   1.000000
     20         -6.690209   1.000000
     21         -6.478689   1.000000
     22         -5.754159   1.000000
     23         -5.047166   1.000000
     24         -4.911190   1.000000
     25         -4.512576   1.000000
     26         -4.144366   1.000000
     27         -3.622433   1.000000
     28         -3.178794   1.000000
     29         -3.033410   1.000000
     30         -2.027209   1.000000
     31         -1.624569   1.000000
     32         -0.104808   0.000000
     33          0.613585   0.000000
     34          1.493290   0.000000
     35          2.621270   0.000000
     36          2.983929   0.000000
     37          3.482676   0.000000
     38          3.678107   0.000000

  0.3000000E+00 -0.1000000E+00  0.1262379E-14  0.2000000E-01
      1        -17.336644   1.000000
      2        -17.143392   1.000000
      3        -17.016472   1.000000
      4        -16.933841   1.000000
      5        -16.895473   1.000000
      6        -16.371347   1.000000
      7        -16.127510   1.000000
      8        -16.032870   1.000000
      9        -16.008485   1.000000
     10        -15.967306   1.000000
     11        -15.182815   1.000000
     12        -14.580358   1.000000
     13        -13.550205   1.000000
     14        -12.731865   1.000000
     15         -8.002729   1.000000
     16         -7.199094   1.000000
     17         -7.070130   1.000000
     18         -6.849172   1.000000
     19         -6.756524   1.000000
     20         -6.690210   1.000000
     21         -6.478689   1.000000
     22         -5.754158   1.000000
     23         -5.047165   1.000000
     24         -4.911191   1.000000
     25         -4.512575   1.000000
     26         -4.144365   1.000000
     27         -3.622434   1.000000
     28         -3.178790   1.000000
     29         -3.033410   1.000000
     30         -2.027212   1.000000
     31         -1.624572   1.000000
     32         -0.104808   0.000000
     33          0.613586   0.000000
     34          1.493290   0.000000
     35          2.621270   0.000000
     36          2.983929   0.000000
     37          3.482676   0.000000
     38          3.678111   0.000000

  0.3000000E+00  0.1000000E+00  0.1262379E-14  0.2000000E-01
      1        -17.400756   1.000000
      2        -17.140657   1.000000
      3        -17.000632   1.000000
      4        -16.943428   1.000000
      5        -16.887761   1.000000
      6        -16.460847   1.000000
      7        -16.123710   1.000000
      8        -16.036706   1.000000
      9        -15.987088   1.000000
     10        -15.949884   1.000000
     11        -14.769320   1.000000
     12        -14.279018   1.000000
     13        -13.324926   1.000000
     14        -12.539994   1.000000
     15         -8.259503   1.000000
     16         -7.354547   1.000000
     17         -7.119129   1.000000
     18         -6.976336   1.000000
     19         -6.797833   1.000000
     20         -6.693548   1.000000
     21         -6.604649   1.000000
     22         -6.019732   1.000000
     23         -5.567676   1.000000
     24         -5.215458   1.000000
     25         -4.808908   1.000000
     26         -4.658263   1.000000
     27         -4.081595   1.000000
     28         -3.445874   1.000000
     29         -3.086719   1.000000
     30         -2.448424   1.000000
     31         -1.479012   1.000000
     32         -0.128796   0.000000
     33          0.281571   0.000000
     34          1.150172   0.000000
     35          2.909903   0.000000
     36          3.029942   0.000000
     37          3.610075   0.000000
     38          3.895116   0.000000

 -0.1000000E+00  0.4000000E+00  0.1262379E-14  0.2000000E-01
      1        -17.400756   1.000000
      2        -17.140657   1.000000
      3        -17.000632   1.000000
      4        -16.943428   1.000000
      5        -16.887761   1.000000
      6        -16.460847   1.000000
      7        -16.123710   1.000000
      8        -16.036706   1.000000
      9        -15.987087   1.000000
     10        -15.949885   1.000000
     11        -14.769321   1.000000
     12        -14.279018   1.000000
     13        -13.324926   1.000000
     14        -12.539995   1.000000
     15         -8.259503   1.000000
     16         -7.354546   1.000000
     17         -7.119131   1.000000
     18         -6.976334   1.000000
     19         -6.797833   1.000000
     20         -6.693547   1.000000
     21         -6.604650   1.000000
     22         -6.019732   1.000000
     23         -5.567676   1.000000
     24         -5.215458   1.000000
     25         -4.808908   1.000000
     26         -4.658261   1.000000
     27         -4.081596   1.000000
     28         -3.445873   1.000000
     29         -3.086720   1.000000
     30         -2.448425   1.000000
     31         -1.479014   1.000000
     32         -0.128796   0.000000
     33          0.281571   0.000000
     34          1.150172   0.000000
     35          2.909905   0.000000
     36          3.029940   0.000000
     37          3.610076   0.000000
     38          3.895116   0.000000

 -0.4000000E+00  0.3000000E+00  0.1262379E-14  0.2000000E-01
      1        -17.400756   1.000000
      2        -17.140657   1.000000
      3        -17.000632   1.000000
      4        -16.943428   1.000000
      5        -16.887761   1.000000
      6        -16.460847   1.000000
      7        -16.123710   1.000000
      8        -16.036706   1.000000
      9        -15.987088   1.000000
     10        -15.949885   1.000000
     11        -14.769321   1.000000
     12        -14.279017   1.000000
     13        -13.324927   1.000000
     14        -12.539996   1.000000
     15         -8.259503   1.000000
     16         -7.354545   1.000000
     17         -7.119130   1.000000
     18         -6.976335   1.000000
     19         -6.797831   1.000000
     20         -6.693548   1.000000
     21         -6.604651   1.000000
     22         -6.019731   1.000000
     23         -5.567677   1.000000
     24         -5.215459   1.000000
     25         -4.808905   1.000000
     26         -4.658262   1.000000
     27         -4.081597   1.000000
     28         -3.445870   1.000000
     29         -3.086719   1.000000
     30         -2.448427   1.000000
     31         -1.479017   1.000000
     32         -0.128796   0.000000
     33          0.281571   0.000000
     34          1.150170   0.000000
     35          2.909902   0.000000
     36          3.029940   0.000000
     37          3.610071   0.000000
     38          3.895115   0.000000

 -0.3000000E+00  0.4000000E+00  0.1262379E-14  0.2000000E-01
      1        -17.400756   1.000000
      2        -17.140657   1.000000
      3        -17.000632   1.000000
      4        -16.943428   1.000000
      5        -16.887761   1.000000
      6        -16.460847   1.000000
      7        -16.123710   1.000000
      8        -16.036706   1.000000
      9        -15.987088   1.000000
     10        -15.949885   1.000000
     11        -14.769321   1.000000
     12        -14.279017   1.000000
     13        -13.324927   1.000000
     14        -12.539996   1.000000
     15         -8.259503   1.000000
     16         -7.354545   1.000000
     17         -7.119130   1.000000
     18         -6.976335   1.000000
     19         -6.797831   1.000000
     20         -6.693548   1.000000
     21         -6.604651   1.000000
     22         -6.019732   1.000000
     23         -5.567677   1.000000
     24         -5.215459   1.000000
     25         -4.808905   1.000000
     26         -4.658262   1.000000
     27         -4.081596   1.000000
     28         -3.445870   1.000000
     29         -3.086719   1.000000
     30         -2.448427   1.000000
     31         -1.479017   1.000000
     32         -0.128796   0.000000
     33          0.281571   0.000000
     34          1.150170   0.000000
     35          2.909902   0.000000
     36          3.029940   0.000000
     37          3.610071   0.000000
     38          3.895115   0.000000

  0.1000000E+00  0.3000000E+00  0.1262379E-14  0.2000000E-01
      1        -17.400756   1.000000
      2        -17.140657   1.000000
      3        -17.000632   1.000000
      4        -16.943428   1.000000
      5        -16.887761   1.000000
      6        -16.460847   1.000000
      7        -16.123710   1.000000
      8        -16.036706   1.000000
      9        -15.987088   1.000000
     10        -15.949884   1.000000
     11        -14.769320   1.000000
     12        -14.279018   1.000000
     13        -13.324926   1.000000
     14        -12.539994   1.000000
     15         -8.259503   1.000000
     16         -7.354547   1.000000
     17         -7.119129   1.000000
     18         -6.976336   1.000000
     19         -6.797833   1.000000
     20         -6.693548   1.000000
     21         -6.604649   1.000000
     22         -6.019732   1.000000
     23         -5.567676   1.000000
     24         -5.215458   1.000000
     25         -4.808908   1.000000
     26         -4.658263   1.000000
     27         -4.081595   1.000000
     28         -3.445874   1.000000
     29         -3.086719   1.000000
     30         -2.448424   1.000000
     31         -1.479012   1.000000
     32         -0.128796   0.000000
     33          0.281571   0.000000
     34          1.150172   0.000000
     35          2.909903   0.000000
     36          3.029942   0.000000
     37          3.610075   0.000000
     38          3.895116   0.000000

  0.4000000E+00 -0.1000000E+00  0.1262379E-14  0.2000000E-01
      1        -17.400756   1.000000
      2        -17.140657   1.000000
      3        -17.000632   1.000000
      4        -16.943428   1.000000
      5        -16.887761   1.000000
      6        -16.460847   1.000000
      7        -16.123710   1.000000
      8        -16.036706   1.000000
      9        -15.987087   1.000000
     10        -15.949885   1.000000
     11        -14.769321   1.000000
     12        -14.279017   1.000000
     13        -13.324926   1.000000
     14        -12.539995   1.000000
     15         -8.259503   1.000000
     16         -7.354546   1.000000
     17         -7.119131   1.000000
     18         -6.976334   1.000000
     19         -6.797833   1.000000
     20         -6.693547   1.000000
     21         -6.604650   1.000000
     22         -6.019732   1.000000
     23         -5.567676   1.000000
     24         -5.215458   1.000000
     25         -4.808908   1.000000
     26         -4.658261   1.000000
     27         -4.081596   1.000000
     28         -3.445873   1.000000
     29         -3.086720   1.000000
     30         -2.448426   1.000000
     31         -1.479013   1.000000
     32         -0.128796   0.000000
     33          0.281571   0.000000
     34          1.150172   0.000000
     35          2.909905   0.000000
     36          3.029941   0.000000
     37          3.610075   0.000000
     38          3.895116   0.000000

  0.4000000E+00  0.1000000E+00  0.1262379E-14  0.2000000E-01
      1        -17.438646   1.000000
      2        -17.136363   1.000000
      3        -16.993724   1.000000
      4        -16.948681   1.000000
      5        -16.880001   1.000000
      6        -16.511388   1.000000
      7        -16.122371   1.000000
      8        -16.043246   1.000000
      9        -15.966522   1.000000
     10        -15.942040   1.000000
     11        -14.461744   1.000000
     12        -14.074889   1.000000
     13        -13.201034   1.000000
     14        -12.415555   1.000000
     15         -8.579528   1.000000
     16         -7.744494   1.000000
     17         -7.038656   1.000000
     18         -6.921656   1.000000
     19         -6.818664   1.000000
     20         -6.694113   1.000000
     21         -6.512450   1.000000
     22         -6.158034   1.000000
     23         -5.766422   1.000000
     24         -5.381085   1.000000
     25         -5.308342   1.000000
     26         -4.721566   1.000000
     27         -4.423671   1.000000
     28         -3.531773   1.000000
     29         -3.074459   1.000000
     30         -2.679282   1.000000
     31         -1.397669   1.000000
     32         -0.243769   0.000000
     33          0.057012   0.000000
     34          0.968741   0.000000
     35          2.860208   0.000000
     36          3.142661   0.000000
     37          3.437720   0.000000
     38          3.746585   0.000000

 -0.1000000E+00  0.5000000E+00  0.1262379E-14  0.2000000E-01
      1        -17.438646   1.000000
      2        -17.136363   1.000000
      3        -16.993724   1.000000
      4        -16.948681   1.000000
      5        -16.880001   1.000000
      6        -16.511388   1.000000
      7        -16.122371   1.000000
      8        -16.043246   1.000000
      9        -15.966522   1.000000
     10        -15.942040   1.000000
     11        -14.461744   1.000000
     12        -14.074889   1.000000
     13        -13.201034   1.000000
     14        -12.415555   1.000000
     15         -8.579528   1.000000
     16         -7.744494   1.000000
     17         -7.038657   1.000000
     18         -6.921655   1.000000
     19         -6.818664   1.000000
     20         -6.694113   1.000000
     21         -6.512451   1.000000
     22         -6.158034   1.000000
     23         -5.766422   1.000000
     24         -5.381085   1.000000
     25         -5.308341   1.000000
     26         -4.721565   1.000000
     27         -4.423672   1.000000
     28         -3.531773   1.000000
     29         -3.074459   1.000000
     30         -2.679282   1.000000
     31         -1.397670   1.000000
     32         -0.243768   0.000000
     33          0.057012   0.000000
     34          0.968741   0.000000
     35          2.860209   0.000000
     36          3.142662   0.000000
     37          3.437719   0.000000
     38          3.746585   0.000000

  0.5000000E+00  0.4000000E+00  0.1262379E-14  0.2000000E-01
      1        -17.438646   1.000000
      2        -17.136363   1.000000
      3        -16.993724   1.000000
      4        -16.948681   1.000000
      5        -16.880000   1.000000
      6        -16.511388   1.000000
      7        -16.122371   1.000000
      8        -16.043246   1.000000
      9        -15.966522   1.000000
     10        -15.942040   1.000000
     11        -14.461744   1.000000
     12        -14.074889   1.000000
     13        -13.201036   1.000000
     14        -12.415557   1.000000
     15         -8.579528   1.000000
     16         -7.744491   1.000000
     17         -7.038656   1.000000
     18         -6.921656   1.000000
     19         -6.818661   1.000000
     20         -6.694113   1.000000
     21         -6.512452   1.000000
     22         -6.158036   1.000000
     23         -5.766420   1.000000
     24         -5.381086   1.000000
     25         -5.308338   1.000000
     26         -4.721565   1.000000
     27         -4.423672   1.000000
     28         -3.531769   1.000000
     29         -3.074458   1.000000
     30         -2.679283   1.000000
     31         -1.397677   1.000000
     32         -0.243767   0.000000
     33          0.057012   0.000000
     34          0.968740   0.000000
     35          2.860206   0.000000
     36          3.142660   0.000000
     37          3.437720   0.000000
     38          3.746581   0.000000

 -0.4000000E+00  0.5000000E+00  0.1262379E-14  0.2000000E-01
      1        -17.438646   1.000000
      2        -17.136363   1.000000
      3        -16.993724   1.000000
      4        -16.948681   1.000000
      5        -16.880000   1.000000
      6        -16.511388   1.000000
      7        -16.122371   1.000000
      8        -16.043246   1.000000
      9        -15.966522   1.000000
     10        -15.942040   1.000000
     11        -14.461744   1.000000
     12        -14.074889   1.000000
     13        -13.201036   1.000000
     14        -12.415557   1.000000
     15         -8.579528   1.000000
     16         -7.744491   1.000000
     17         -7.038656   1.000000
     18         -6.921656   1.000000
     19         -6.818661   1.000000
     20         -6.694113   1.000000
     21         -6.512452   1.000000
     22         -6.158036   1.000000
     23         -5.766420   1.000000
     24         -5.381086   1.000000
     25         -5.308338   1.000000
     26         -4.721565   1.000000
     27         -4.423672   1.000000
     28         -3.531769   1.000000
     29         -3.074458   1.000000
     30         -2.679283   1.000000
     31         -1.397677   1.000000
     32         -0.243767   0.000000
     33          0.057012   0.000000
     34          0.968740   0.000000
     35          2.860206   0.000000
     36          3.142660   0.000000
     37          3.437720   0.000000
     38          3.746581   0.000000

  0.1000000E+00  0.4000000E+00  0.1262379E-14  0.2000000E-01
      1        -17.438646   1.000000
      2        -17.136363   1.000000
      3        -16.993724   1.000000
      4        -16.948681   1.000000
      5        -16.880001   1.000000
      6        -16.511388   1.000000
      7        -16.122371   1.000000
      8        -16.043246   1.000000
      9        -15.966522   1.000000
     10        -15.942040   1.000000
     11        -14.461744   1.000000
     12        -14.074890   1.000000
     13        -13.201034   1.000000
     14        -12.415555   1.000000
     15         -8.579528   1.000000
     16         -7.744494   1.000000
     17         -7.038656   1.000000
     18         -6.921656   1.000000
     19         -6.818664   1.000000
     20         -6.694113   1.000000
     21         -6.512450   1.000000
     22         -6.158034   1.000000
     23         -5.766422   1.000000
     24         -5.381085   1.000000
     25         -5.308342   1.000000
     26         -4.721566   1.000000
     27         -4.423671   1.000000
     28         -3.531773   1.000000
     29         -3.074459   1.000000
     30         -2.679282   1.000000
     31         -1.397670   1.000000
     32         -0.243768   0.000000
     33          0.057012   0.000000
     34          0.968741   0.000000
     35          2.860208   0.000000
     36          3.142661   0.000000
     37          3.437720   0.000000
     38          3.746585   0.000000

  0.5000000E+00 -0.1000000E+00  0.1262379E-14  0.2000000E-01
      1        -17.438646   1.000000
      2        -17.136363   1.000000
      3        -16.993724   1.000000
      4        -16.948681   1.000000
      5        -16.880001   1.000000
      6        -16.511388   1.000000
      7        -16.122371   1.000000
      8        -16.043246   1.000000
      9        -15.966522   1.000000
     10        -15.942040   1.000000
     11        -14.461744   1.000000
     12        -14.074889   1.000000
     13        -13.201035   1.000000
     14        -12.415555   1.000000
     15         -8.579528   1.000000
     16         -7.744494   1.000000
     17         -7.038657   1.000000
     18         -6.921655   1.000000
     19         -6.818664   1.000000
     20         -6.694113   1.000000
     21         -6.512451   1.000000
     22         -6.158034   1.000000
     23         -5.766422   1.000000
     24         -5.381085   1.000000
     25         -5.308341   1.000000
     26         -4.721565   1.000000
     27         -4.423672   1.000000
     28         -3.531773   1.000000
     29         -3.074459   1.000000
     30         -2.679282   1.000000
     31         -1.397670   1.000000
     32         -0.243769   0.000000
     33          0.057012   0.000000
     34          0.968741   0.000000
     35          2.860209   0.000000
     36          3.142662   0.000000
     37          3.437719   0.000000
     38          3.746585   0.000000

  0.2000000E+00  0.2000000E+00  0.1262379E-14  0.2000000E-01
      1        -17.388774   1.000000
      2        -17.141992   1.000000
      3        -17.006500   1.000000
      4        -16.937625   1.000000
      5        -16.894453   1.000000
      6        -16.426096   1.000000
      7        -16.161653   1.000000
      8        -16.015678   1.000000
      9        -16.009472   1.000000
     10        -15.952176   1.000000
     11        -14.816951   1.000000
     12        -14.293269   1.000000
     13        -13.358015   1.000000
     14        -12.561953   1.000000
     15         -8.156041   1.000000
     16         -7.210494   1.000000
     17         -7.136030   1.000000
     18         -6.975735   1.000000
     19         -6.788822   1.000000
     20         -6.697725   1.000000
     21         -6.582483   1.000000
     22         -5.992734   1.000000
     23         -5.545740   1.000000
     24         -5.332093   1.000000
     25         -4.922994   1.000000
     26         -4.563420   1.000000
     27         -3.788815   1.000000
     28         -3.626100   1.000000
     29         -3.189624   1.000000
     30         -2.686869   1.000000
     31         -1.474168   1.000000
     32          0.153233   0.000000
     33          0.536554   0.000000
     34          1.699181   0.000000
     35          2.326148   0.000000
     36          3.500682   0.000000
     37          3.731828   0.000000
     38          4.088253   0.000000

 -0.2000000E+00  0.4000000E+00  0.1262379E-14  0.2000000E-01
      1        -17.388774   1.000000
      2        -17.141992   1.000000
      3        -17.006500   1.000000
      4        -16.937625   1.000000
      5        -16.894452   1.000000
      6        -16.426095   1.000000
      7        -16.161653   1.000000
      8        -16.015678   1.000000
      9        -16.009472   1.000000
     10        -15.952176   1.000000
     11        -14.816951   1.000000
     12        -14.293268   1.000000
     13        -13.358016   1.000000
     14        -12.561954   1.000000
     15         -8.156040   1.000000
     16         -7.210493   1.000000
     17         -7.136032   1.000000
     18         -6.975732   1.000000
     19         -6.788821   1.000000
     20         -6.697725   1.000000
     21         -6.582485   1.000000
     22         -5.992733   1.000000
     23         -5.545740   1.000000
     24         -5.332093   1.000000
     25         -4.922994   1.000000
     26         -4.563416   1.000000
     27         -3.788812   1.000000
     28         -3.626103   1.000000
     29         -3.189620   1.000000
     30         -2.686874   1.000000
     31         -1.474171   1.000000
     32          0.153233   0.000000
     33          0.536555   0.000000
     34          1.699181   0.000000
     35          2.326147   0.000000
     36          3.500679   0.000000
     37          3.731832   0.000000
     38          4.088256   0.000000

 -0.4000000E+00  0.2000000E+00  0.1262379E-14  0.2000000E-01
      1        -17.388774   1.000000
      2        -17.141992   1.000000
      3        -17.006500   1.000000
      4        -16.937625   1.000000
      5        -16.894452   1.000000
      6        -16.426095   1.000000
      7        -16.161653   1.000000
      8        -16.015678   1.000000
      9        -16.009472   1.000000
     10        -15.952176   1.000000
     11        -14.816951   1.000000
     12        -14.293268   1.000000
     13        -13.358016   1.000000
     14        -12.561954   1.000000
     15         -8.156040   1.000000
     16         -7.210493   1.000000
     17         -7.136032   1.000000
     18         -6.975732   1.000000
     19         -6.788821   1.000000
     20         -6.697725   1.000000
     21         -6.582485   1.000000
     22         -5.992733   1.000000
     23         -5.545740   1.000000
     24         -5.332093   1.000000
     25         -4.922994   1.000000
     26         -4.563415   1.000000
     27         -3.788813   1.000000
     28         -3.626103   1.000000
     29         -3.189620   1.000000
     30         -2.686874   1.000000
     31         -1.474171   1.000000
     32          0.153233   0.000000
     33          0.536555   0.000000
     34          1.699181   0.000000
     35          2.326147   0.000000
     36          3.500679   0.000000
     37          3.731832   0.000000
     38          4.088256   0.000000

  0.3000000E+00  0.2000000E+00  0.1262379E-14  0.2000000E-01
      1        -17.428310   1.000000
      2        -17.136534   1.000000
      3        -17.002624   1.000000
      4        -16.937902   1.000000
      5        -16.892968   1.000000
      6        -16.465022   1.000000
      7        -16.187724   1.000000
      8        -16.020471   1.000000
      9        -15.987032   1.000000
     10        -15.949604   1.000000
     11        -14.472005   1.000000
     12        -14.019211   1.000000
     13        -13.231719   1.000000
     14        -12.418580   1.000000
     15         -8.410240   1.000000
     16         -7.598750   1.000000
     17         -7.061204   1.000000
     18         -6.909249   1.000000
     19         -6.805786   1.000000
     20         -6.709681   1.000000
     21         -6.510290   1.000000
     22         -6.122782   1.000000
     23         -6.000883   1.000000
     24         -5.581824   1.000000
     25         -5.118674   1.000000
     26         -4.912402   1.000000
     27         -4.256810   1.000000
     28         -3.863862   1.000000
     29         -3.219757   1.000000
     30         -3.066893   1.000000
     31         -1.373328   1.000000
     32          0.207490   0.000000
     33          0.324834   0.000000
     34          1.619420   0.000000
     35          2.513675   0.000000
     36          3.525086   0.000000
     37          3.824404   0.000000
     38          4.412334   0.000000

 -0.2000000E+00  0.5000000E+00  0.1262379E-14  0.2000000E-01
      1        -17.428310   1.000000
      2        -17.136534   1.000000
      3        -17.002624   1.000000
      4        -16.937902   1.000000
      5        -16.892968   1.000000
      6        -16.465022   1.000000
      7        -16.187724   1.000000
      8        -16.020471   1.000000
      9        -15.987032   1.000000
     10        -15.949605   1.000000
     11        -14.472005   1.000000
     12        -14.019210   1.000000
     13        -13.231719   1.000000
     14        -12.418581   1.000000
     15         -8.410239   1.000000
     16         -7.598749   1.000000
     17         -7.061207   1.000000
     18         -6.909246   1.000000
     19         -6.805785   1.000000
     20         -6.709681   1.000000
     21         -6.510292   1.000000
     22         -6.122782   1.000000
     23         -6.000883   1.000000
     24         -5.581824   1.000000
     25         -5.118673   1.000000
     26         -4.912399   1.000000
     27         -4.256810   1.000000
     28         -3.863863   1.000000
     29         -3.219756   1.000000
     30         -3.066894   1.000000
     31         -1.373331   1.000000
     32          0.207491   0.000000
     33          0.324834   0.000000
     34          1.619421   0.000000
     35          2.513675   0.000000
     36          3.525083   0.000000
     37          3.824410   0.000000
     38          4.412333   0.000000

  0.5000000E+00  0.3000000E+00  0.1262379E-14  0.2000000E-01
      1        -17.428310   1.000000
      2        -17.136534   1.000000
      3        -17.002624   1.000000
      4        -16.937902   1.000000
      5        -16.892968   1.000000
      6        -16.465021   1.000000
      7        -16.187724   1.000000
      8        -16.020471   1.000000
      9        -15.987032   1.000000
     10        -15.949605   1.000000
     11        -14.472005   1.000000
     12        -14.019210   1.000000
     13        -13.231720   1.000000
     14        -12.418581   1.000000
     15         -8.410239   1.000000
     16         -7.598748   1.000000
     17         -7.061207   1.000000
     18         -6.909246   1.000000
     19         -6.805784   1.000000
     20         -6.709681   1.000000
     21         -6.510292   1.000000
     22         -6.122782   1.000000
     23         -6.000883   1.000000
     24         -5.581826   1.000000
     25         -5.118668   1.000000
     26         -4.912401   1.000000
     27         -4.256811   1.000000
     28         -3.863863   1.000000
     29         -3.219753   1.000000
     30         -3.066897   1.000000
     31         -1.373333   1.000000
     32          0.207491   0.000000
     33          0.324835   0.000000
     34          1.619420   0.000000
     35          2.513674   0.000000
     36          3.525085   0.000000
     37          3.824408   0.000000
     38          4.412328   0.000000

 -0.3000000E+00  0.5000000E+00  0.1262379E-14  0.2000000E-01
      1        -17.428310   1.000000
      2        -17.136534   1.000000
      3        -17.002624   1.000000
      4        -16.937902   1.000000
      5        -16.892968   1.000000
      6        -16.465021   1.000000
      7        -16.187724   1.000000
      8        -16.020471   1.000000
      9        -15.987032   1.000000
     10        -15.949605   1.000000
     11        -14.472005   1.000000
     12        -14.019210   1.000000
     13        -13.231720   1.000000
     14        -12.418581   1.000000
     15         -8.410239   1.000000
     16         -7.598748   1.000000
     17         -7.061207   1.000000
     18         -6.909246   1.000000
     19         -6.805784   1.000000
     20         -6.709681   1.000000
     21         -6.510293   1.000000
     22         -6.122782   1.000000
     23         -6.000883   1.000000
     24         -5.581826   1.000000
     25         -5.118669   1.000000
     26         -4.912401   1.000000
     27         -4.256810   1.000000
     28         -3.863863   1.000000
     29         -3.219752   1.000000
     30         -3.066897   1.000000
     31         -1.373333   1.000000
     32          0.207491   0.000000
     33          0.324835   0.000000
     34          1.619420   0.000000
     35          2.513674   0.000000
     36          3.525085   0.000000
     37          3.824408   0.000000
     38          4.412327   0.000000

  0.2000000E+00  0.3000000E+00  0.1262379E-14  0.2000000E-01
      1        -17.428310   1.000000
      2        -17.136534   1.000000
      3        -17.002624   1.000000
      4        -16.937902   1.000000
      5        -16.892968   1.000000
      6        -16.465022   1.000000
      7        -16.187724   1.000000
      8        -16.020471   1.000000
      9        -15.987032   1.000000
     10        -15.949604   1.000000
     11        -14.472005   1.000000
     12        -14.019211   1.000000
     13        -13.231719   1.000000
     14        -12.418580   1.000000
     15         -8.410240   1.000000
     16         -7.598750   1.000000
     17         -7.061204   1.000000
     18         -6.909249   1.000000
     19         -6.805786   1.000000
     20         -6.709681   1.000000
     21         -6.510290   1.000000
     22         -6.122782   1.000000
     23         -6.000883   1.000000
     24         -5.581824   1.000000
     25         -5.118674   1.000000
     26         -4.912402   1.000000
     27         -4.256810   1.000000
     28         -3.863862   1.000000
     29         -3.219757   1.000000
     30         -3.066893   1.000000
     31         -1.373328   1.000000
     32          0.207490   0.000000
     33          0.324834   0.000000
     34          1.619421   0.000000
     35          2.513675   0.000000
     36          3.525086   0.000000
     37          3.824404   0.000000
     38          4.412334   0.000000

  0.5000000E+00 -0.2000000E+00  0.1262379E-14  0.2000000E-01
      1        -17.428310   1.000000
      2        -17.136534   1.000000
      3        -17.002624   1.000000
      4        -16.937902   1.000000
      5        -16.892968   1.000000
      6        -16.465021   1.000000
      7        -16.187724   1.000000
      8        -16.020471   1.000000
      9        -15.987032   1.000000
     10        -15.949605   1.000000
     11        -14.472005   1.000000
     12        -14.019210   1.000000
     13        -13.231719   1.000000
     14        -12.418581   1.000000
     15         -8.410239   1.000000
     16         -7.598749   1.000000
     17         -7.061207   1.000000
     18         -6.909246   1.000000
     19         -6.805785   1.000000
     20         -6.709681   1.000000
     21         -6.510292   1.000000
     22         -6.122782   1.000000
     23         -6.000883   1.000000
     24         -5.581824   1.000000
     25         -5.118673   1.000000
     26         -4.912399   1.000000
     27         -4.256810   1.000000
     28         -3.863863   1.000000
     29         -3.219757   1.000000
     30         -3.066894   1.000000
     31         -1.373331   1.000000
     32          0.207491   0.000000
     33          0.324834   0.000000
     34          1.619421   0.000000
     35          2.513675   0.000000
     36          3.525083   0.000000
     37          3.824410   0.000000
     38          4.412333   0.000000

  0.4000000E+00  0.2000000E+00  0.1262379E-14  0.2000000E-01
      1        -17.442740   1.000000
      2        -17.133896   1.000000
      3        -17.001979   1.000000
      4        -16.937479   1.000000
      5        -16.892163   1.000000
      6        -16.479336   1.000000
      7        -16.197073   1.000000
      8        -16.022961   1.000000
      9        -15.966997   1.000000
     10        -15.959862   1.000000
     11        -14.320427   1.000000
     12        -13.902807   1.000000
     13        -13.196274   1.000000
     14        -12.362403   1.000000
     15         -8.538166   1.000000
     16         -7.767851   1.000000
     17         -7.018465   1.000000
     18         -6.892545   1.000000
     19         -6.812118   1.000000
     20         -6.714118   1.000000
     21         -6.396716   1.000000
     22         -6.213468   1.000000
     23         -6.127331   1.000000
     24         -5.711936   1.000000
     25         -5.337409   1.000000
     26         -4.769901   1.000000
     27         -4.559758   1.000000
     28         -3.975993   1.000000
     29         -3.348009   1.000000
     30         -3.048930   1.000000
     31         -1.342017   1.000000
     32          0.166578   0.000000
     33          0.251661   0.000000
     34          1.550096   0.000000
     35          2.599440   0.000000
     36          3.507861   0.000000
     37          3.808395   0.000000
     38          4.407331   0.000000

 -0.2000000E+00 -0.4000000E+00  0.1262379E-14  0.2000000E-01
      1        -17.442740   1.000000
      2        -17.133896   1.000000
      3        -17.001979   1.000000
      4        -16.937479   1.000000
      5        -16.892163   1.000000
      6        -16.479336   1.000000
      7        -16.197073   1.000000
      8        -16.022961   1.000000
      9        -15.966997   1.000000
     10        -15.959862   1.000000
     11        -14.320427   1.000000
     12        -13.902807   1.000000
     13        -13.196274   1.000000
     14        -12.362403   1.000000
     15         -8.538166   1.000000
     16         -7.767852   1.000000
     17         -7.018465   1.000000
     18         -6.892545   1.000000
     19         -6.812118   1.000000
     20         -6.714118   1.000000
     21         -6.396716   1.000000
     22         -6.213468   1.000000
     23         -6.127331   1.000000
     24         -5.711936   1.000000
     25         -5.337409   1.000000
     26         -4.769901   1.000000
     27         -4.559759   1.000000
     28         -3.975993   1.000000
     29         -3.348009   1.000000
     30         -3.048930   1.000000
     31         -1.342017   1.000000
     32          0.166578   0.000000
     33          0.251661   0.000000
     34          1.550097   0.000000
     35          2.599440   0.000000
     36          3.507861   0.000000
     37          3.808394   0.000000
     38          4.407330   0.000000

  0.4000000E+00  0.4000000E+00  0.1262379E-14  0.2000000E-01
      1        -17.442740   1.000000
      2        -17.133896   1.000000
      3        -17.001979   1.000000
      4        -16.937480   1.000000
      5        -16.892163   1.000000
      6        -16.479336   1.000000
      7        -16.197073   1.000000
      8        -16.022961   1.000000
      9        -15.966997   1.000000
     10        -15.959862   1.000000
     11        -14.320427   1.000000
     12        -13.902806   1.000000
     13        -13.196275   1.000000
     14        -12.362404   1.000000
     15         -8.538166   1.000000
     16         -7.767850   1.000000
     17         -7.018466   1.000000
     18         -6.892543   1.000000
     19         -6.812116   1.000000
     20         -6.714118   1.000000
     21         -6.396717   1.000000
     22         -6.213468   1.000000
     23         -6.127333   1.000000
     24         -5.711938   1.000000
     25         -5.337404   1.000000
     26         -4.769900   1.000000
     27         -4.559760   1.000000
     28         -3.975993   1.000000
     29         -3.348008   1.000000
     30         -3.048931   1.000000
     31         -1.342022   1.000000
     32          0.166581   0.000000
     33          0.251660   0.000000
     34          1.550096   0.000000
     35          2.599439   0.000000
     36          3.507863   0.000000
     37          3.808395   0.000000
     38          4.407321   0.000000

  0.3000000E+00  0.3000000E+00  0.1262379E-14  0.2000000E-01
      1        -17.442524   1.000000
      2        -17.132795   1.000000
      3        -17.006595   1.000000
      4        -16.925782   1.000000
      5        -16.904630   1.000000
      6        -16.449439   1.000000
      7        -16.245547   1.000000
      8        -15.999995   1.000000
      9        -15.985050   1.000000
     10        -15.964823   1.000000
     11        -14.268534   1.000000
     12        -13.815302   1.000000
     13        -13.210309   1.000000
     14        -12.342549   1.000000
     15         -8.470200   1.000000
     16         -7.749173   1.000000
     17         -7.008115   1.000000
     18         -6.887779   1.000000
     19         -6.806522   1.000000
     20         -6.726174   1.000000
     21         -6.483231   1.000000
     22         -6.349593   1.000000
     23         -6.166999   1.000000
     24         -5.779160   1.000000
     25         -5.173961   1.000000
     26         -4.907843   1.000000
     27         -4.547850   1.000000
     28         -4.228135   1.000000
     29         -3.665464   1.000000
     30         -3.035667   1.000000
     31         -1.326897   1.000000
     32          0.264218   0.000000
     33          0.397372   0.000000
     34          1.794530   0.000000
     35          2.542926   0.000000
     36          3.751929   0.000000
     37          4.025478   0.000000
     38          4.646420   0.000000

 -0.3000000E+00 -0.4000000E+00  0.1262379E-14  0.2000000E-01
      1        -17.442524   1.000000
      2        -17.132795   1.000000
      3        -17.006595   1.000000
      4        -16.925783   1.000000
      5        -16.904630   1.000000
      6        -16.449439   1.000000
      7        -16.245547   1.000000
      8        -15.999995   1.000000
      9        -15.985049   1.000000
     10        -15.964824   1.000000
     11        -14.268534   1.000000
     12        -13.815302   1.000000
     13        -13.210310   1.000000
     14        -12.342549   1.000000
     15         -8.470200   1.000000
     16         -7.749172   1.000000
     17         -7.008117   1.000000
     18         -6.887778   1.000000
     19         -6.806522   1.000000
     20         -6.726174   1.000000
     21         -6.483232   1.000000
     22         -6.349593   1.000000
     23         -6.166999   1.000000
     24         -5.779161   1.000000
     25         -5.173958   1.000000
     26         -4.907842   1.000000
     27         -4.547850   1.000000
     28         -4.228136   1.000000
     29         -3.665464   1.000000
     30         -3.035667   1.000000
     31         -1.326899   1.000000
     32          0.264219   0.000000
     33          0.397372   0.000000
     34          1.794531   0.000000
     35          2.542925   0.000000
     36          3.751929   0.000000
     37          4.025479   0.000000
     38          4.646422   0.000000

  0.4000000E+00  0.3000000E+00  0.1262379E-14  0.2000000E-01
      1        -17.442524   1.000000
      2        -17.132795   1.000000
      3        -17.006595   1.000000
      4        -16.925783   1.000000
      5        -16.904630   1.000000
      6        -16.449439   1.000000
      7        -16.245547   1.000000
      8        -15.999995   1.000000
      9        -15.985049   1.000000
     10        -15.964824   1.000000
     11        -14.268534   1.000000
     12        -13.815302   1.000000
     13        -13.210310   1.000000
     14        -12.342549   1.000000
     15         -8.470200   1.000000
     16         -7.749172   1.000000
     17         -7.008117   1.000000
     18         -6.887778   1.000000
     19         -6.806522   1.000000
     20         -6.726174   1.000000
     21         -6.483232   1.000000
     22         -6.349593   1.000000
     23         -6.166999   1.000000
     24         -5.779161   1.000000
     25         -5.173958   1.000000
     26         -4.907842   1.000000
     27         -4.547850   1.000000
     28         -4.228136   1.000000
     29         -3.665464   1.000000
     30         -3.035667   1.000000
     31         -1.326899   1.000000
     32          0.264219   0.000000
     33          0.397372   0.000000
     34          1.794531   0.000000
     35          2.542925   0.000000
     36          3.751929   0.000000
     37          4.025479   0.000000
     38          4.646422   0.000000
