       N       E                     dE             d eps       ncg     rms          rms(c)
DAV:   1     0.531457320364E+03    0.53146E+03   -0.25838E+04  4168   0.141E+03
DAV:   2     0.454985842484E+02   -0.48596E+03   -0.47323E+03  4642   0.345E+02
DAV:   3    -0.252114399550E+02   -0.70710E+02   -0.69772E+02  5168   0.155E+02
DAV:   4    -0.283946581512E+02   -0.31832E+01   -0.31708E+01  4782   0.366E+01
DAV:   5    -0.285235680514E+02   -0.12891E+00   -0.12888E+00  6110   0.737E+00    0.131E+01
DAV:   6    -0.264160822691E+02    0.21075E+01   -0.44646E+00  6650   0.457E+01    0.107E+01
DAV:   7    -0.266159901767E+02   -0.19991E+00   -0.55661E+00  6256   0.199E+01    0.444E+00
DAV:   8    -0.265468103619E+02    0.69180E-01   -0.24804E+00  6304   0.231E+01    0.305E+00
DAV:   9    -0.265025446287E+02    0.44266E-01   -0.24158E+00  6154   0.992E+00    0.111E+00
DAV:  10    -0.264642307884E+02    0.38314E-01   -0.72216E-01  5980   0.575E+00    0.114E+00
DAV:  11    -0.264534064060E+02    0.10824E-01   -0.70757E-02  5190   0.210E+00    0.747E-01
DAV:  12    -0.264544081705E+02   -0.10018E-02   -0.55954E-02  6176   0.772E-01    0.566E-01
DAV:  13    -0.264539010167E+02    0.50715E-03   -0.14297E-02  5358   0.695E-01    0.338E-01
DAV:  14    -0.264540288271E+02   -0.12781E-03   -0.39627E-03  5016   0.317E-01    0.231E-01
DAV:  15    -0.264540462474E+02   -0.17420E-04   -0.28649E-04  6248   0.143E-01    0.197E-01
DAV:  16    -0.264541139687E+02   -0.67721E-04   -0.79460E-05  4650   0.471E-02    0.195E-01
DAV:  17    -0.264539304393E+02    0.18353E-03   -0.93305E-05  5192   0.810E-02    0.112E-01
DAV:  18    -0.264539045309E+02    0.25908E-04   -0.76792E-05  5276   0.478E-02    0.679E-02
DAV:  19    -0.264539062709E+02   -0.17400E-05   -0.12779E-05  4200   0.192E-02    0.575E-02
DAV:  20    -0.264539067741E+02   -0.50310E-06   -0.86223E-07  3076   0.662E-03
   1 F= -.28218471E+02 E0= -.28216841E+02  d E =-.282185E+02
       N       E                     dE             d eps       ncg     rms          rms(c)
DAV:   1    -0.264557537347E+02   -0.18475E-02   -0.71219E+00  4464   0.127E+01    0.156E+00
DAV:   2    -0.264822324765E+02   -0.26479E-01   -0.30274E-01  5960   0.378E+00    0.471E-01
DAV:   3    -0.264827929125E+02   -0.56044E-03   -0.99626E-03  5856   0.115E+00    0.452E-01
DAV:   4    -0.264817069393E+02    0.10860E-02   -0.38507E-03  5336   0.534E-01    0.297E-01
DAV:   5    -0.264816570205E+02    0.49919E-04   -0.84617E-04  5106   0.231E-01    0.218E-01
DAV:   6    -0.264815525693E+02    0.10445E-03   -0.49590E-04  6374   0.215E-01    0.740E-02
DAV:   7    -0.264816114816E+02   -0.58912E-04   -0.14308E-04  5998   0.120E-01    0.845E-02
DAV:   8    -0.264815757105E+02    0.35771E-04   -0.11461E-04  5710   0.108E-01    0.276E-02
DAV:   9    -0.264815816209E+02   -0.59104E-05   -0.20834E-05  4534   0.391E-02    0.163E-02
DAV:  10    -0.264815900060E+02   -0.83851E-05   -0.69395E-06  4384   0.178E-02    0.565E-03
DAV:  11    -0.264815904619E+02   -0.45593E-06   -0.12585E-06  3056   0.876E-03
   2 F= -.28246661E+02 E0= -.28245416E+02  d E =-.281901E-01
       N       E                     dE             d eps       ncg     rms          rms(c)
DAV:   1    -0.264805066855E+02    0.10833E-02   -0.10865E+00  4416   0.494E+00    0.581E-01
DAV:   2    -0.264839332157E+02   -0.34265E-02   -0.39069E-02  5504   0.130E+00    0.198E-01
DAV:   3    -0.264843147848E+02   -0.38157E-03   -0.36783E-03  5772   0.525E-01    0.172E-01
DAV:   4    -0.264844622639E+02   -0.14748E-03   -0.36845E-03  6424   0.653E-01    0.187E-01
DAV:   5    -0.264841228663E+02    0.33940E-03   -0.35308E-04  5992   0.170E-01    0.126E-01
DAV:   6    -0.264839317653E+02    0.19110E-03   -0.58137E-04  6424   0.217E-01    0.309E-02
DAV:   7    -0.264839486282E+02   -0.16863E-04   -0.18338E-04  4926   0.629E-02    0.398E-02
DAV:   8    -0.264839488079E+02   -0.17965E-06   -0.90141E-06  5264   0.175E-02
   3 F= -.28249215E+02 E0= -.28248257E+02  d E =-.307444E-01
       N       E                     dE             d eps       ncg     rms          rms(c)
DAV:   1    -0.264919810555E+02   -0.80324E-02   -0.35594E+00  4174   0.844E+00    0.580E-01
DAV:   2    -0.264974135991E+02   -0.54325E-02   -0.61458E-02  5182   0.156E+00    0.239E-01
DAV:   3    -0.264973998146E+02    0.13784E-04   -0.33991E-03  5674   0.498E-01    0.165E-01
DAV:   4    -0.264975321263E+02   -0.13231E-03   -0.21198E-03  5898   0.498E-01    0.173E-01
DAV:   5    -0.264972302443E+02    0.30188E-03   -0.78511E-04  5510   0.263E-01    0.697E-02
DAV:   6    -0.264972427692E+02   -0.12525E-04   -0.31633E-04  5586   0.849E-02    0.243E-02
DAV:   7    -0.264972405373E+02    0.22319E-05   -0.38148E-05  4974   0.345E-02    0.225E-02
DAV:   8    -0.264972404893E+02    0.47919E-07   -0.66535E-06  4514   0.191E-02
   4 F= -.28261043E+02 E0= -.28260398E+02  d E =-.118283E-01
       N       E                     dE             d eps       ncg     rms          rms(c)
DAV:   1    -0.264922492282E+02    0.49913E-02   -0.10483E+01  4150   0.145E+01    0.991E-01
DAV:   2    -0.265089186709E+02   -0.16669E-01   -0.18890E-01  5184   0.287E+00    0.424E-01
DAV:   3    -0.265089198129E+02   -0.11419E-05   -0.10622E-02  5812   0.900E-01    0.302E-01
DAV:   4    -0.265091466184E+02   -0.22681E-03   -0.62953E-03  5952   0.845E-01    0.299E-01
DAV:   5    -0.265082947309E+02    0.85189E-03   -0.19115E-03  5150   0.382E-01    0.143E-01
DAV:   6    -0.265082771969E+02    0.17534E-04   -0.10316E-03  5952   0.201E-01    0.440E-02
DAV:   7    -0.265082782211E+02   -0.10242E-05   -0.28481E-04  4774   0.122E-01    0.444E-02
DAV:   8    -0.265082772685E+02    0.95257E-06   -0.29573E-05  5108   0.316E-02    0.289E-02
DAV:   9    -0.265082745770E+02    0.26916E-05   -0.16221E-05  4696   0.317E-02    0.116E-02
DAV:  10    -0.265082774707E+02   -0.28938E-05   -0.11360E-05  4918   0.175E-02    0.602E-03
DAV:  11    -0.265082780833E+02   -0.61258E-06   -0.12385E-06  2912   0.821E-03
   5 F= -.28269575E+02 E0= -.28269021E+02  d E =-.203595E-01
       N       E                     dE             d eps       ncg     rms          rms(c)
DAV:   1    -0.265111910669E+02   -0.29136E-02   -0.28720E+00  4186   0.733E+00    0.483E-01
DAV:   2    -0.265156398306E+02   -0.44488E-02   -0.51720E-02  5606   0.139E+00    0.204E-01
DAV:   3    -0.265154543396E+02    0.18549E-03   -0.13629E-03  5580   0.261E-01    0.170E-01
DAV:   4    -0.265153746724E+02    0.79667E-04   -0.36773E-04  5532   0.161E-01    0.891E-02
DAV:   5    -0.265153813583E+02   -0.66859E-05   -0.40012E-04  5982   0.200E-01    0.552E-02
DAV:   6    -0.265153397658E+02    0.41592E-04   -0.21368E-04  5964   0.122E-01    0.285E-02
DAV:   7    -0.265153435605E+02   -0.37947E-05   -0.44409E-05  4594   0.331E-02    0.270E-02
DAV:   8    -0.265153446789E+02   -0.11184E-05   -0.51634E-06  4342   0.143E-02    0.208E-02
DAV:   9    -0.265153473890E+02   -0.27101E-05   -0.78481E-06  4246   0.162E-02    0.746E-03
DAV:  10    -0.265153488342E+02   -0.14452E-05   -0.24633E-06  3752   0.905E-03    0.593E-03
DAV:  11    -0.265153494971E+02   -0.66294E-06   -0.42316E-07  2912   0.462E-03
   6 F= -.28275573E+02 E0= -.28275099E+02  d E =-.599851E-02
       N       E                     dE             d eps       ncg     rms          rms(c)
DAV:   1    -0.265152158294E+02    0.13300E-03   -0.15774E+00  4186   0.541E+00    0.353E-01
DAV:   2    -0.265176069548E+02   -0.23911E-02   -0.27844E-02  5594   0.101E+00    0.149E-01
DAV:   3    -0.265175050608E+02    0.10189E-03   -0.72240E-04  5472   0.173E-01    0.124E-01
DAV:   4    -0.265174529232E+02    0.52138E-04   -0.19565E-04  5648   0.855E-02    0.616E-02
DAV:   5    -0.265174439901E+02    0.89331E-05   -0.60057E-05  5568   0.510E-02    0.249E-02
DAV:   6    -0.265174455410E+02   -0.15509E-05   -0.20084E-05  5538   0.258E-02    0.254E-02
DAV:   7    -0.265174457652E+02   -0.22422E-06   -0.35073E-06  4014   0.159E-02
   7 F= -.28276869E+02 E0= -.28276470E+02  d E =-.729423E-02
       N       E                     dE             d eps       ncg     rms          rms(c)
DAV:   1    -0.265189055282E+02   -0.14600E-02   -0.10484E+00  4186   0.468E+00    0.196E-01
DAV:   2    -0.265199541747E+02   -0.10486E-02   -0.11967E-02  5406   0.747E-01    0.996E-02
DAV:   3    -0.265199564200E+02   -0.22453E-05   -0.43842E-04  5526   0.140E-01    0.674E-02
DAV:   4    -0.265199409508E+02    0.15469E-04   -0.61362E-05  5862   0.502E-02    0.478E-02
DAV:   5    -0.265199351904E+02    0.57604E-05   -0.57627E-05  5816   0.575E-02    0.175E-02
DAV:   6    -0.265199360617E+02   -0.87124E-06   -0.23478E-05  5518   0.390E-02    0.155E-02
DAV:   7    -0.265199358989E+02    0.16276E-06   -0.56916E-06  4232   0.191E-02
   8 F= -.28278078E+02 E0= -.28277742E+02  d E =-.120875E-02
       N       E                     dE             d eps       ncg     rms          rms(c)
DAV:   1    -0.265206368065E+02   -0.70074E-03   -0.53232E-01  4186   0.333E+00    0.140E-01
DAV:   2    -0.265211515373E+02   -0.51473E-03   -0.60011E-03  5446   0.531E-01    0.682E-02
DAV:   3    -0.265211597071E+02   -0.81697E-05   -0.27235E-04  5426   0.105E-01    0.481E-02
DAV:   4    -0.265211523135E+02    0.73936E-05   -0.25635E-05  5536   0.338E-02    0.342E-02
DAV:   5    -0.265211489127E+02    0.34008E-05   -0.26241E-05  5478   0.353E-02    0.123E-02
DAV:   6    -0.265211498849E+02   -0.97219E-06   -0.87215E-06  5106   0.170E-02
   9 F= -.28278379E+02 E0= -.28278079E+02  d E =-.151007E-02
       N       E                     dE             d eps       ncg     rms          rms(c)
DAV:   1    -0.265224673130E+02   -0.13184E-02   -0.41645E-01  3952   0.257E+00    0.199E-01
DAV:   2    -0.265230252281E+02   -0.55792E-03   -0.71074E-03  5334   0.506E-01    0.617E-02
DAV:   3    -0.265230508860E+02   -0.25658E-04   -0.49935E-04  4684   0.131E-01    0.461E-02
DAV:   4    -0.265230470235E+02    0.38626E-05   -0.30340E-05  5542   0.378E-02    0.320E-02
DAV:   5    -0.265230460369E+02    0.98653E-06   -0.15990E-05  4318   0.193E-02    0.124E-02
DAV:   6    -0.265230470490E+02   -0.10121E-05   -0.55613E-06  4654   0.143E-02    0.938E-03
DAV:   7    -0.265230471407E+02   -0.91726E-07   -0.44521E-07  2726   0.434E-03
  10 F= -.28278964E+02 E0= -.28278681E+02  d E =-.585483E-03
       N       E                     dE             d eps       ncg     rms          rms(c)
DAV:   1    -0.265236287611E+02   -0.58171E-03   -0.10300E-01  3952   0.128E+00    0.999E-02
DAV:   2    -0.265237645108E+02   -0.13575E-03   -0.17679E-03  5334   0.253E-01    0.295E-02
DAV:   3    -0.265237718469E+02   -0.73361E-05   -0.12489E-04  4648   0.637E-02    0.234E-02
DAV:   4    -0.265237709224E+02    0.92455E-06   -0.67336E-06  4814   0.178E-02
  11 F= -.28279037E+02 E0= -.28278754E+02  d E =-.657882E-03
       N       E                     dE             d eps       ncg     rms          rms(c)
DAV:   1    -0.265249399078E+02   -0.11681E-02   -0.17897E-01  3970   0.191E+00    0.111E-01
DAV:   2    -0.265252243899E+02   -0.28448E-03   -0.31557E-03  5716   0.338E-01    0.340E-02
DAV:   3    -0.265252180414E+02    0.63485E-05   -0.62833E-05  5434   0.680E-02    0.296E-02
DAV:   4    -0.265252170712E+02    0.97022E-06   -0.14120E-05  4262   0.216E-02    0.185E-02
DAV:   5    -0.265252171976E+02   -0.12644E-06   -0.41681E-06  4364   0.171E-02
  12 F= -.28279408E+02 E0= -.28279126E+02  d E =-.371541E-03
       N       E                     dE             d eps       ncg     rms          rms(c)
DAV:   1    -0.265264050977E+02   -0.11880E-02   -0.16148E+00  3970   0.575E+00    0.334E-01
DAV:   2    -0.265290504199E+02   -0.26453E-02   -0.29507E-02  5752   0.106E+00    0.105E-01
DAV:   3    -0.265289863774E+02    0.64043E-04   -0.61243E-04  5504   0.240E-01    0.893E-02
DAV:   4    -0.265289750802E+02    0.11297E-04   -0.13078E-04  5070   0.665E-02    0.575E-02
DAV:   5    -0.265289728043E+02    0.22759E-05   -0.34881E-05  5494   0.498E-02    0.232E-02
DAV:   6    -0.265289746692E+02   -0.18649E-05   -0.12964E-05  5712   0.231E-02    0.101E-02
DAV:   7    -0.265289751843E+02   -0.51509E-06   -0.26348E-06  4020   0.896E-03
  13 F= -.28279947E+02 E0= -.28279665E+02  d E =-.910258E-03
       N       E                     dE             d eps       ncg     rms          rms(c)
DAV:   1    -0.265298576670E+02   -0.88300E-03   -0.13079E-01  4024   0.172E+00    0.113E-01
DAV:   2    -0.265301582838E+02   -0.30062E-03   -0.33402E-03  5602   0.368E-01    0.367E-02
DAV:   3    -0.265301568132E+02    0.14705E-05   -0.10348E-04  5294   0.724E-02    0.320E-02
DAV:   4    -0.265301548715E+02    0.19418E-05   -0.12059E-05  5242   0.263E-02    0.192E-02
DAV:   5    -0.265301547503E+02    0.12119E-06   -0.45892E-06  4736   0.136E-02
  14 F= -.28280295E+02 E0= -.28280012E+02  d E =-.347666E-03
       N       E                     dE             d eps       ncg     rms          rms(c)
DAV:   1    -0.265308196719E+02   -0.66480E-03   -0.67366E-01  4042   0.391E+00    0.257E-01
DAV:   2    -0.265323992372E+02   -0.15796E-02   -0.17525E-02  5644   0.858E-01    0.860E-02
DAV:   3    -0.265323853187E+02    0.13919E-04   -0.52615E-04  5332   0.172E-01    0.726E-02
DAV:   4    -0.265323739444E+02    0.11374E-04   -0.65011E-05  6112   0.599E-02    0.449E-02
DAV:   5    -0.265323717136E+02    0.22308E-05   -0.21675E-05  5818   0.334E-02    0.187E-02
DAV:   6    -0.265323725666E+02   -0.85298E-06   -0.51050E-06  4522   0.157E-02
  15 F= -.28280628E+02 E0= -.28280343E+02  d E =-.681275E-03
       N       E                     dE             d eps       ncg     rms          rms(c)
DAV:   1    -0.265331774201E+02   -0.80571E-03   -0.10904E-01  3952   0.139E+00    0.147E-01
DAV:   2    -0.265335733367E+02   -0.39592E-03   -0.46282E-03  5060   0.377E-01    0.562E-02
DAV:   3    -0.265335740625E+02   -0.72585E-06   -0.21369E-04  4948   0.895E-02    0.451E-02
DAV:   4    -0.265335690079E+02    0.50546E-05   -0.18347E-05  5142   0.217E-02    0.320E-02
DAV:   5    -0.265335665129E+02    0.24950E-05   -0.11236E-05  4444   0.154E-02    0.145E-02
DAV:   6    -0.265335669815E+02   -0.46859E-06   -0.52020E-06  4248   0.110E-02
  16 F= -.28280843E+02 E0= -.28280559E+02  d E =-.214875E-03
       N       E                     dE             d eps       ncg     rms          rms(c)
DAV:   1    -0.265339277924E+02   -0.36128E-03   -0.18846E-02  3952   0.579E-01    0.636E-02
DAV:   2    -0.265339959109E+02   -0.68118E-04   -0.81109E-04  5102   0.158E-01    0.219E-02
DAV:   3    -0.265339961170E+02   -0.20613E-06   -0.37978E-05  4994   0.376E-02    0.173E-02
DAV:   4    -0.265339952851E+02    0.83191E-06   -0.32434E-06  4136   0.923E-03
  17 F= -.28280865E+02 E0= -.28280581E+02  d E =-.236312E-03
       N       E                     dE             d eps       ncg     rms          rms(c)
DAV:   1    -0.265348250866E+02   -0.82897E-03   -0.10520E-01  3952   0.135E+00    0.122E-01
DAV:   2    -0.265351911183E+02   -0.36603E-03   -0.40882E-03  5258   0.363E-01    0.448E-02
DAV:   3    -0.265351866285E+02    0.44898E-05   -0.10529E-04  4920   0.743E-02    0.366E-02
DAV:   4    -0.265351815303E+02    0.50982E-05   -0.19777E-05  4986   0.280E-02    0.247E-02
DAV:   5    -0.265351808259E+02    0.70449E-06   -0.10429E-05  4384   0.185E-02    0.744E-03
DAV:   6    -0.265351811387E+02   -0.31288E-06   -0.14337E-06  3262   0.750E-03
  18 F= -.28280997E+02 E0= -.28280711E+02  d E =-.132189E-03
