WP2-P01-A2-beta001-relax                
           1
     3.878284    0.000000    0.000000
    -1.939142    3.358693    0.000000
     0.000000    0.000000   29.419858
   S    In   Zn
     4     2     1
Direct configuration=           1
   0.00000000  0.00000000  0.33990646
   0.66666666  0.33333331  0.46015602
   0.00000000  0.00000000  0.55500777
   0.33333331  0.66666666  0.66009354
   0.66666666  0.33333331  0.37684667
   0.33333331  0.66666666  0.51199774
   0.00000000  0.00000000  0.64125141
Direct configuration=           2
   0.00000001  0.99999998  0.33930336
   0.66666669  0.33333326  0.45951028
   0.00000010  0.00000003  0.55464185
   0.33333341  0.66666656  0.65974635
   0.66666663  0.33333330  0.37771420
   0.33333331  0.66666662  0.51253160
   0.99999978  0.00000020  0.64181196
Direct configuration=           3
   0.00000001  0.99999997  0.33906807
   0.66666671  0.33333323  0.45925836
   0.00000014  0.00000004  0.55449910
   0.33333345  0.66666652  0.65961091
   0.66666662  0.33333329  0.37805266
   0.33333331  0.66666661  0.51273987
   0.99999969  0.00000028  0.64203065
Direct configuration=           4
   0.00000004  0.99999993  0.33879291
   0.66666673  0.33333320  0.45938095
   0.00000015  0.00000002  0.55426338
   0.33333345  0.66666652  0.65908845
   0.66666664  0.33333327  0.37789192
   0.33333338  0.66666659  0.51302524
   0.99999956  0.00000041  0.64281676
Direct configuration=           5
   0.00000009  0.99999986  0.33832167
   0.66666677  0.33333313  0.45959091
   0.00000015  0.99999998  0.55385969
   0.33333344  0.66666652  0.65819370
   0.66666667  0.33333324  0.37761664
   0.33333349  0.66666656  0.51351396
   0.99999933  0.00000063  0.64416305
Direct configuration=           6
   0.00000013  0.99999982  0.33819852
   0.66666680  0.33333309  0.45939341
   0.00000017  0.99999994  0.55425362
   0.33333316  0.66666678  0.65776932
   0.66666674  0.33333319  0.37756080
   0.33333354  0.66666656  0.51321885
   0.99999940  0.00000058  0.64486510
Direct configuration=           7
   0.00000016  0.99999978  0.33810722
   0.66666682  0.33333305  0.45924698
   0.00000019  0.99999991  0.55454568
   0.33333295  0.66666697  0.65745467
   0.66666679  0.33333315  0.37751941
   0.33333358  0.66666655  0.51300004
   0.99999946  0.00000053  0.64538562
Direct configuration=           8
   0.00000021  0.99999972  0.33810180
   0.66666687  0.33333302  0.45905995
   0.00000023  0.99999988  0.55452591
   0.33333288  0.66666705  0.65735878
   0.66666685  0.33333310  0.37730631
   0.33333361  0.66666651  0.51310353
   0.99999929  0.00000066  0.64580335
Direct configuration=           9
   0.00000024  0.99999968  0.33809793
   0.66666691  0.33333300  0.45892665
   0.00000027  0.99999987  0.55451181
   0.33333284  0.66666710  0.65729045
   0.66666689  0.33333306  0.37715444
   0.33333362  0.66666647  0.51317728
   0.99999917  0.00000075  0.64610105
Direct configuration=          10
   0.00000032  0.99999961  0.33791430
   0.66666696  0.33333295  0.45881080
   0.00000031  0.99999982  0.55439364
   0.33333273  0.66666719  0.65738509
   0.66666695  0.33333301  0.37717717
   0.33333366  0.66666643  0.51319587
   0.99999901  0.00000092  0.64638275
Direct configuration=          11
   0.00000035  0.99999958  0.33782304
   0.66666699  0.33333292  0.45875322
   0.00000033  0.99999980  0.55433490
   0.33333267  0.66666723  0.65743213
   0.66666698  0.33333299  0.37718846
   0.33333368  0.66666641  0.51320511
   0.99999894  0.00000100  0.64652276
Direct configuration=          12
   0.00000041  0.99999953  0.33772673
   0.66666703  0.33333288  0.45875234
   0.00000035  0.99999977  0.55428007
   0.33333257  0.66666732  0.65752647
   0.66666702  0.33333295  0.37712440
   0.33333371  0.66666638  0.51315551
   0.99999884  0.00000110  0.64669409
Direct configuration=          13
   0.00000057  0.99999940  0.33743782
   0.66666715  0.33333277  0.45874972
   0.00000044  0.99999968  0.55411557
   0.33333226  0.66666759  0.65780950
   0.66666715  0.33333281  0.37693220
   0.33333381  0.66666629  0.51300671
   0.99999856  0.00000140  0.64720809
Direct configuration=          14
   0.00000062  0.99999936  0.33742393
   0.66666719  0.33333274  0.45866581
   0.00000046  0.99999965  0.55415144
   0.33333215  0.66666773  0.65793198
   0.66666720  0.33333275  0.37685529
   0.33333384  0.66666626  0.51291966
   0.99999847  0.00000145  0.64731151
Direct configuration=          15
   0.00000071  0.99999927  0.33739238
   0.66666729  0.33333266  0.45847532
   0.00000051  0.99999960  0.55423287
   0.33333189  0.66666804  0.65821002
   0.66666734  0.33333263  0.37668069
   0.33333392  0.66666618  0.51272207
   0.99999828  0.00000157  0.64754627
Direct configuration=          16
   0.00000079  0.99999919  0.33734189
   0.66666736  0.33333260  0.45832390
   0.00000055  0.99999956  0.55419197
   0.33333177  0.66666813  0.65840320
   0.66666743  0.33333256  0.37662792
   0.33333396  0.66666612  0.51273579
   0.99999808  0.00000178  0.64763494
Direct configuration=          17
   0.00000083  0.99999916  0.33732090
   0.66666739  0.33333258  0.45826097
   0.00000057  0.99999954  0.55417496
   0.33333172  0.66666816  0.65848351
   0.66666747  0.33333253  0.37660598
   0.33333398  0.66666610  0.51274150
   0.99999799  0.00000187  0.64767179
Direct configuration=          18
   0.00000093  0.99999907  0.33724496
   0.66666746  0.33333251  0.45826076
   0.00000061  0.99999949  0.55409868
   0.33333157  0.66666827  0.65866409
   0.66666755  0.33333246  0.37650596
   0.33333402  0.66666606  0.51275499
   0.99999780  0.00000209  0.64773017
