       N       E                     dE             d eps       ncg     rms          rms(c)
DAV:   1     0.132406603768E+04    0.13241E+04   -0.52862E+04 32536   0.175E+03
DAV:   2     0.197042403683E+03   -0.11270E+04   -0.10812E+04 32368   0.487E+02
DAV:   3    -0.319317734335E+02   -0.22897E+03   -0.21789E+03 36864   0.203E+02
DAV:   4    -0.523286995074E+02   -0.20397E+02   -0.20061E+02 39792   0.594E+01
DAV:   5    -0.532516668068E+02   -0.92297E+00   -0.92004E+00 43816   0.136E+01
DAV:   6    -0.532925178224E+02   -0.40851E-01   -0.40840E-01 49056   0.246E+00
DAV:   7    -0.532933306016E+02   -0.81278E-03   -0.81271E-03 50008   0.347E-01
DAV:   8    -0.532933606585E+02   -0.30057E-04   -0.30056E-04 49408   0.669E-02
DAV:   9    -0.532933616197E+02   -0.96121E-06   -0.96117E-06 50032   0.125E-02
DAV:  10    -0.532933616595E+02   -0.39856E-07   -0.39831E-07 36528   0.265E-03
   1 F= -.57451776E+02 E0= -.57451776E+02  d E =0.000000E+00
