   7   7   0   0
  0.5474601E+02  0.3878284E-09  0.3878284E-09  0.2941986E-08  0.5000000E-15
   1.0000000000000000E-004
  CAR 
 WP2-P01-A1-beta001-static-dipole        
      5.55113986    -18.76531363  301     -1.05793579      1.00000000
    -18.765  0.0000E+00  0.0000E+00
    -18.684  0.0000E+00  0.0000E+00
    -18.603  0.0000E+00  0.0000E+00
    -18.522  0.0000E+00  0.0000E+00
    -18.441  0.0000E+00  0.0000E+00
    -18.360  0.0000E+00  0.0000E+00
    -18.279  0.0000E+00  0.0000E+00
    -18.198  0.0000E+00  0.0000E+00
    -18.117  0.0000E+00  0.0000E+00
    -18.036  0.0000E+00  0.0000E+00
    -17.955  0.0000E+00  0.0000E+00
    -17.874  0.3449E-08  0.2795E-09
    -17.793  0.4857E-03  0.3937E-04
    -17.712  0.5328E+00  0.4323E-01
    -17.631  0.8755E+01  0.7529E+00
    -17.549  0.8517E+01  0.1443E+01
    -17.468  0.4062E+01  0.1772E+01
    -17.387  0.2462E+01  0.1972E+01
    -17.306  0.2247E+01  0.2154E+01
    -17.225  0.2029E+02  0.3799E+01
    -17.144  0.2293E+02  0.5657E+01
    -17.063  0.2836E+02  0.7956E+01
    -16.982  0.2375E+02  0.9881E+01
    -16.901  0.1468E+01  0.1000E+02
    -16.820  0.1670E-02  0.1000E+02
    -16.739  0.2260E-01  0.1000E+02
    -16.658  0.1874E+01  0.1015E+02
    -16.577  0.8798E+01  0.1087E+02
    -16.496  0.7532E+01  0.1148E+02
    -16.415  0.3806E+01  0.1179E+02
    -16.334  0.5568E+01  0.1224E+02
    -16.253  0.1272E+02  0.1327E+02
    -16.172  0.2202E+02  0.1505E+02
    -16.091  0.4104E+02  0.1838E+02
    -16.009  0.2025E+02  0.2002E+02
    -15.928  0.1442E+01  0.2014E+02
    -15.847  0.6736E-01  0.2014E+02
    -15.766  0.8836E+00  0.2021E+02
    -15.685  0.1155E+01  0.2031E+02
    -15.604  0.8592E+00  0.2038E+02
    -15.523  0.3067E-01  0.2038E+02
    -15.442  0.3666E+00  0.2041E+02
    -15.361  0.2217E+01  0.2059E+02
    -15.280  0.7218E+00  0.2065E+02
    -15.199  0.1824E+01  0.2080E+02
    -15.118  0.1063E+01  0.2088E+02
    -15.037  0.1764E+01  0.2102E+02
    -14.956  0.4445E+01  0.2139E+02
    -14.875  0.1420E+01  0.2150E+02
    -14.794  0.2708E+01  0.2172E+02
    -14.713  0.2406E+01  0.2191E+02
    -14.632  0.5551E+01  0.2236E+02
    -14.550  0.2143E+01  0.2254E+02
    -14.469  0.4931E+01  0.2294E+02
    -14.388  0.3288E+01  0.2320E+02
    -14.307  0.1698E+01  0.2334E+02
    -14.226  0.3724E+01  0.2364E+02
    -14.145  0.2219E+01  0.2382E+02
    -14.064  0.2279E+01  0.2401E+02
    -13.983  0.1619E+01  0.2414E+02
    -13.902  0.1787E+01  0.2428E+02
    -13.821  0.1111E+01  0.2437E+02
    -13.740  0.5229E+00  0.2442E+02
    -13.659  0.2318E+01  0.2461E+02
    -13.578  0.1441E+01  0.2472E+02
    -13.497  0.2222E+01  0.2490E+02
    -13.416  0.4697E+01  0.2528E+02
    -13.335  0.7552E+01  0.2589E+02
    -13.254  0.1290E+01  0.2600E+02
    -13.173  0.6742E-02  0.2600E+02
    -13.091  0.4653E-06  0.2600E+02
    -13.010  0.1570E-04  0.2600E+02
    -12.929  0.1673E-01  0.2600E+02
    -12.848  0.4906E+00  0.2604E+02
    -12.767  0.1251E+01  0.2614E+02
    -12.686  0.1693E+01  0.2628E+02
    -12.605  0.1338E+01  0.2639E+02
    -12.524  0.2228E+01  0.2657E+02
    -12.443  0.1982E+01  0.2673E+02
    -12.362  0.2922E+01  0.2697E+02
    -12.281  0.3992E+01  0.2729E+02
    -12.200  0.6290E+01  0.2780E+02
    -12.119  0.2377E+01  0.2799E+02
    -12.038  0.9273E-01  0.2800E+02
    -11.957  0.6153E-04  0.2800E+02
    -11.876  0.3137E-09  0.2800E+02
    -11.795  0.0000E+00  0.2800E+02
    -11.714  0.0000E+00  0.2800E+02
    -11.632  0.0000E+00  0.2800E+02
    -11.551  0.0000E+00  0.2800E+02
    -11.470  0.0000E+00  0.2800E+02
    -11.389  0.0000E+00  0.2800E+02
    -11.308  0.0000E+00  0.2800E+02
    -11.227  0.0000E+00  0.2800E+02
    -11.146  0.0000E+00  0.2800E+02
    -11.065  0.0000E+00  0.2800E+02
    -10.984  0.0000E+00  0.2800E+02
    -10.903  0.0000E+00  0.2800E+02
    -10.822  0.0000E+00  0.2800E+02
    -10.741  0.0000E+00  0.2800E+02
    -10.660  0.0000E+00  0.2800E+02
    -10.579  0.0000E+00  0.2800E+02
    -10.498  0.0000E+00  0.2800E+02
    -10.417  0.0000E+00  0.2800E+02
    -10.336  0.0000E+00  0.2800E+02
    -10.255  0.0000E+00  0.2800E+02
    -10.174  0.0000E+00  0.2800E+02
    -10.092  0.0000E+00  0.2800E+02
    -10.011  0.0000E+00  0.2800E+02
     -9.930  0.0000E+00  0.2800E+02
     -9.849  0.0000E+00  0.2800E+02
     -9.768  0.0000E+00  0.2800E+02
     -9.687  0.0000E+00  0.2800E+02
     -9.606  0.0000E+00  0.2800E+02
     -9.525  0.0000E+00  0.2800E+02
     -9.444  0.0000E+00  0.2800E+02
     -9.363  0.0000E+00  0.2800E+02
     -9.282  0.0000E+00  0.2800E+02
     -9.201  0.9019E-12  0.2800E+02
     -9.120  0.8977E-06  0.2800E+02
     -9.039  0.5717E-02  0.2800E+02
     -8.958  0.3336E+00  0.2803E+02
     -8.877  0.1389E+01  0.2814E+02
     -8.796  0.3334E+01  0.2841E+02
     -8.715  0.2837E+01  0.2864E+02
     -8.633  0.2918E+01  0.2888E+02
     -8.552  0.4598E+00  0.2891E+02
     -8.471  0.2103E+01  0.2908E+02
     -8.390  0.1281E+01  0.2919E+02
     -8.309  0.1383E+01  0.2930E+02
     -8.228  0.1990E+01  0.2946E+02
     -8.147  0.5024E+01  0.2987E+02
     -8.066  0.1632E+01  0.3000E+02
     -7.985  0.1259E+01  0.3010E+02
     -7.904  0.4575E+01  0.3047E+02
     -7.823  0.2227E+01  0.3065E+02
     -7.742  0.2875E+01  0.3089E+02
     -7.661  0.2168E+00  0.3091E+02
     -7.580  0.1739E+01  0.3105E+02
     -7.499  0.1313E+01  0.3115E+02
     -7.418  0.1127E+01  0.3124E+02
     -7.337  0.6928E+00  0.3130E+02
     -7.256  0.9407E+00  0.3138E+02
     -7.174  0.4415E+00  0.3141E+02
     -7.093  0.6621E+01  0.3195E+02
     -7.012  0.1143E+02  0.3288E+02
     -6.931  0.2122E+02  0.3460E+02
     -6.850  0.2004E+02  0.3622E+02
     -6.769  0.1292E+02  0.3727E+02
     -6.688  0.2099E+02  0.3897E+02
     -6.607  0.2034E+02  0.4062E+02
     -6.526  0.7625E+01  0.4124E+02
     -6.445  0.4828E+01  0.4163E+02
     -6.364  0.3278E+01  0.4189E+02
     -6.283  0.7609E+01  0.4251E+02
     -6.202  0.9260E+01  0.4326E+02
     -6.121  0.4654E+01  0.4364E+02
     -6.040  0.1369E+01  0.4375E+02
     -5.959  0.4786E+01  0.4414E+02
     -5.878  0.4636E+01  0.4451E+02
     -5.797  0.2530E+01  0.4472E+02
     -5.715  0.6016E+01  0.4520E+02
     -5.634  0.3538E+01  0.4549E+02
     -5.553  0.2542E+01  0.4570E+02
     -5.472  0.4483E+01  0.4606E+02
     -5.391  0.6912E+01  0.4662E+02
     -5.310  0.3772E+01  0.4693E+02
     -5.229  0.4426E+01  0.4729E+02
     -5.148  0.5541E+01  0.4773E+02
     -5.067  0.5563E+01  0.4819E+02
     -4.986  0.4118E+01  0.4852E+02
     -4.905  0.5087E+01  0.4893E+02
     -4.824  0.5532E+01  0.4938E+02
     -4.743  0.5481E+01  0.4982E+02
     -4.662  0.6404E+01  0.5034E+02
     -4.581  0.5629E+01  0.5080E+02
     -4.500  0.5046E+01  0.5121E+02
     -4.419  0.2858E+01  0.5144E+02
     -4.338  0.6989E+01  0.5201E+02
     -4.256  0.5849E+01  0.5248E+02
     -4.175  0.4404E+01  0.5284E+02
     -4.094  0.1747E+01  0.5298E+02
     -4.013  0.1846E+01  0.5313E+02
     -3.932  0.5799E+01  0.5360E+02
     -3.851  0.2836E+01  0.5383E+02
     -3.770  0.2122E+01  0.5400E+02
     -3.689  0.1974E+01  0.5416E+02
     -3.608  0.3231E+01  0.5442E+02
     -3.527  0.3567E+01  0.5471E+02
     -3.446  0.3117E+01  0.5496E+02
     -3.365  0.2587E+01  0.5517E+02
     -3.284  0.5127E+01  0.5559E+02
     -3.203  0.1091E+02  0.5647E+02
     -3.122  0.5040E+01  0.5688E+02
     -3.041  0.2832E+01  0.5711E+02
     -2.960  0.5951E+01  0.5759E+02
     -2.879  0.4877E+01  0.5799E+02
     -2.798  0.1344E+01  0.5810E+02
     -2.716  0.1814E-01  0.5810E+02
     -2.635  0.1589E-02  0.5810E+02
     -2.554  0.3292E+00  0.5813E+02
     -2.473  0.1962E+01  0.5829E+02
     -2.392  0.3206E+01  0.5855E+02
     -2.311  0.4523E+00  0.5858E+02
     -2.230  0.1966E+01  0.5874E+02
     -2.149  0.3036E+01  0.5899E+02
     -2.068  0.9356E+00  0.5906E+02
     -1.987  0.1065E+01  0.5915E+02
     -1.906  0.1282E+01  0.5925E+02
     -1.825  0.2407E+01  0.5945E+02
     -1.744  0.2154E+01  0.5962E+02
     -1.663  0.2134E+01  0.5980E+02
     -1.582  0.1415E+01  0.5991E+02
     -1.501  0.5529E+01  0.6036E+02
     -1.420  0.1026E+02  0.6119E+02
     -1.339  0.7676E+01  0.6181E+02
     -1.257  0.5750E+00  0.6186E+02
     -1.176  0.4119E-02  0.6186E+02
     -1.095  0.5980E+00  0.6191E+02
     -1.014  0.2136E+01  0.6208E+02
     -0.933  0.4585E+00  0.6212E+02
     -0.852  0.2524E+00  0.6214E+02
     -0.771  0.6667E-02  0.6214E+02
     -0.690  0.1719E+00  0.6215E+02
     -0.609  0.2260E+01  0.6234E+02
     -0.528  0.2393E+01  0.6253E+02
     -0.447  0.1130E+01  0.6262E+02
     -0.366  0.2031E+01  0.6279E+02
     -0.285  0.3375E+01  0.6306E+02
     -0.204  0.4585E+01  0.6343E+02
     -0.123  0.1642E+01  0.6357E+02
     -0.042  0.2565E+01  0.6377E+02
      0.039  0.1930E+01  0.6393E+02
      0.120  0.5120E+01  0.6435E+02
      0.202  0.6074E+01  0.6484E+02
      0.283  0.4767E+01  0.6522E+02
      0.364  0.9934E+00  0.6530E+02
      0.445  0.2477E+01  0.6551E+02
      0.526  0.4228E+01  0.6585E+02
      0.607  0.2500E+01  0.6605E+02
      0.688  0.1493E+01  0.6617E+02
      0.769  0.1433E+01  0.6629E+02
      0.850  0.2031E+01  0.6645E+02
      0.931  0.1767E+01  0.6660E+02
      1.012  0.2123E+01  0.6677E+02
      1.093  0.1562E+00  0.6678E+02
      1.174  0.1879E-02  0.6678E+02
      1.255  0.4595E+00  0.6682E+02
      1.336  0.3353E+01  0.6709E+02
      1.417  0.1843E+01  0.6724E+02
      1.498  0.2754E+01  0.6746E+02
      1.579  0.2097E+01  0.6763E+02
      1.661  0.2319E+01  0.6782E+02
      1.742  0.2041E+01  0.6799E+02
      1.823  0.1839E+00  0.6800E+02
      1.904  0.1228E-02  0.6800E+02
      1.985  0.2550E+00  0.6802E+02
      2.066  0.1117E+01  0.6811E+02
      2.147  0.9643E+00  0.6819E+02
      2.228  0.8921E+00  0.6826E+02
      2.309  0.1239E+01  0.6836E+02
      2.390  0.3982E+01  0.6868E+02
      2.471  0.7483E+01  0.6929E+02
      2.552  0.2757E+01  0.6951E+02
      2.633  0.2901E+01  0.6975E+02
      2.714  0.4180E+01  0.7009E+02
      2.795  0.5912E+01  0.7057E+02
      2.876  0.5265E+01  0.7099E+02
      2.957  0.2649E+01  0.7121E+02
      3.038  0.2530E+01  0.7141E+02
      3.119  0.4628E+01  0.7179E+02
      3.201  0.4648E+01  0.7217E+02
      3.282  0.5880E+01  0.7264E+02
      3.363  0.5436E+01  0.7308E+02
      3.444  0.5326E+01  0.7352E+02
      3.525  0.6733E+01  0.7406E+02
      3.606  0.4063E+01  0.7439E+02
      3.687  0.4530E+01  0.7476E+02
      3.768  0.4908E+01  0.7516E+02
      3.849  0.1579E+01  0.7528E+02
      3.930  0.1539E+01  0.7541E+02
      4.011  0.1341E+01  0.7552E+02
      4.092  0.3679E-01  0.7552E+02
      4.173  0.1208E-03  0.7552E+02
      4.254  0.1670E+00  0.7553E+02
      4.335  0.2908E+01  0.7577E+02
      4.416  0.1653E+01  0.7590E+02
      4.497  0.1086E+01  0.7599E+02
      4.578  0.1069E+00  0.7600E+02
      4.660  0.1301E-03  0.7600E+02
      4.741  0.1112E-08  0.7600E+02
      4.822  0.0000E+00  0.7600E+02
      4.903  0.0000E+00  0.7600E+02
      4.984  0.0000E+00  0.7600E+02
      5.065  0.0000E+00  0.7600E+02
      5.146  0.0000E+00  0.7600E+02
      5.227  0.0000E+00  0.7600E+02
      5.308  0.0000E+00  0.7600E+02
      5.389  0.0000E+00  0.7600E+02
      5.470  0.0000E+00  0.7600E+02
      5.551  0.0000E+00  0.7600E+02
