    7    7    1    1
  0.5474601E+02  0.3878284E-09  0.3878284E-09  0.2941986E-08  0.5000000E-15
   1.0000000000000000E-004
  CAR 
 WP2-P01-A1-beta001-static-dipole        
     62     52     38

  0.1262379E-14  0.1262379E-14  0.1262379E-14  0.1000000E-01
      1        -17.402310   1.000000
      2        -17.230452   1.000000
      3        -17.230451   1.000000
      4        -17.047811   1.000000
      5        -17.047808   1.000000
      6        -16.262525   1.000000
      7        -16.262523   1.000000
      8        -16.260728   1.000000
      9        -16.125909   1.000000
     10        -16.116065   1.000000
     11        -16.116064   1.000000
     12        -15.255544   1.000000
     13        -14.218233   1.000000
     14        -12.874918   1.000000
     15         -8.247680   1.000000
     16         -7.116982   1.000000
     17         -7.116980   1.000000
     18         -6.885150   1.000000
     19         -6.679477   1.000000
     20         -6.679474   1.000000
     21         -5.913072   1.000000
     22         -4.417491   1.000000
     23         -4.417490   1.000000
     24         -4.288168   1.000000
     25         -3.405048   1.000000
     26         -3.405046   1.000000
     27         -2.979416   1.000000
     28         -2.979415   1.000000
     29         -2.229792   1.000000
     30         -1.392913   1.000000
     31         -0.931167   0.000168
     32         -0.931166   0.000168
     33          0.098161   0.000000
     34          1.266438   0.000000
     35          2.187708   0.000000
     36          2.284904   0.000000
     37          2.612441   0.000000
     38          2.648334   0.000000

  0.1000000E+00  0.1262879E-14  0.1262379E-14  0.2000000E-01
      1        -17.421901   1.000000
      2        -17.249460   1.000000
      3        -17.221004   1.000000
      4        -17.057753   1.000000
      5        -17.047498   1.000000
      6        -16.318126   1.000000
      7        -16.254748   1.000000
      8        -16.230427   1.000000
      9        -16.125742   1.000000
     10        -16.114540   1.000000
     11        -15.999091   1.000000
     12        -15.188753   1.000000
     13        -14.120980   1.000000
     14        -12.820231   1.000000
     15         -8.209294   1.000000
     16         -7.115198   1.000000
     17         -7.096234   1.000000
     18         -6.883020   1.000000
     19         -6.693045   1.000000
     20         -6.679770   1.000000
     21         -5.966031   1.000000
     22         -4.917109   1.000000
     23         -4.535826   1.000000
     24         -4.284381   1.000000
     25         -3.939803   1.000000
     26         -3.597497   1.000000
     27         -3.333211   1.000000
     28         -2.939155   1.000000
     29         -1.943339   1.000000
     30         -1.503222   1.000000
     31         -1.071874   0.653297
     32         -1.059116   0.513317
     33          0.395880   0.000000
     34          1.663520   0.000000
     35          2.018062   0.000000
     36          2.470884   0.000000
     37          2.652292   0.000000
     38          2.754523   0.000000

  0.1262379E-14  0.1000000E+00  0.1262379E-14  0.2000000E-01
      1        -17.421901   1.000000
      2        -17.249460   1.000000
      3        -17.221004   1.000000
      4        -17.057751   1.000000
      5        -17.047500   1.000000
      6        -16.318127   1.000000
      7        -16.254746   1.000000
      8        -16.230428   1.000000
      9        -16.125742   1.000000
     10        -16.114540   1.000000
     11        -15.999092   1.000000
     12        -15.188753   1.000000
     13        -14.120980   1.000000
     14        -12.820231   1.000000
     15         -8.209294   1.000000
     16         -7.115198   1.000000
     17         -7.096234   1.000000
     18         -6.883020   1.000000
     19         -6.693045   1.000000
     20         -6.679770   1.000000
     21         -5.966031   1.000000
     22         -4.917109   1.000000
     23         -4.535825   1.000000
     24         -4.284381   1.000000
     25         -3.939805   1.000000
     26         -3.597495   1.000000
     27         -3.333212   1.000000
     28         -2.939153   1.000000
     29         -1.943340   1.000000
     30         -1.503222   1.000000
     31         -1.071874   0.653297
     32         -1.059116   0.513317
     33          0.395881   0.000000
     34          1.663521   0.000000
     35          2.018063   0.000000
     36          2.470884   0.000000
     37          2.652317   0.000000
     38          2.754645   0.000000

 -0.1000000E+00  0.1000000E+00  0.1262379E-14  0.2000000E-01
      1        -17.421901   1.000000
      2        -17.249460   1.000000
      3        -17.221005   1.000000
      4        -17.057753   1.000000
      5        -17.047497   1.000000
      6        -16.318127   1.000000
      7        -16.254746   1.000000
      8        -16.230428   1.000000
      9        -16.125742   1.000000
     10        -16.114540   1.000000
     11        -15.999091   1.000000
     12        -15.188753   1.000000
     13        -14.120980   1.000000
     14        -12.820231   1.000000
     15         -8.209294   1.000000
     16         -7.115199   1.000000
     17         -7.096233   1.000000
     18         -6.883020   1.000000
     19         -6.693047   1.000000
     20         -6.679767   1.000000
     21         -5.966031   1.000000
     22         -4.917109   1.000000
     23         -4.535826   1.000000
     24         -4.284381   1.000000
     25         -3.939804   1.000000
     26         -3.597496   1.000000
     27         -3.333211   1.000000
     28         -2.939154   1.000000
     29         -1.943340   1.000000
     30         -1.503223   1.000000
     31         -1.071873   0.653289
     32         -1.059116   0.513315
     33          0.395881   0.000000
     34          1.663521   0.000000
     35          2.018062   0.000000
     36          2.470884   0.000000
     37          2.652307   0.000000
     38          2.755851   0.000000

  0.2000000E+00  0.1249001E-14  0.1262379E-14  0.2000000E-01
      1        -17.489567   1.000000
      2        -17.265036   1.000000
      3        -17.197558   1.000000
      4        -17.074570   1.000000
      5        -17.045179   1.000000
      6        -16.432534   1.000000
      7        -16.237343   1.000000
      8        -16.186897   1.000000
      9        -16.135398   1.000000
     10        -16.107346   1.000000
     11        -15.676673   1.000000
     12        -14.991186   1.000000
     13        -13.881223   1.000000
     14        -12.672008   1.000000
     15         -8.152667   1.000000
     16         -7.100180   1.000000
     17         -7.041222   1.000000
     18         -6.922802   1.000000
     19         -6.726730   1.000000
     20         -6.678932   1.000000
     21         -6.296638   1.000000
     22         -5.687335   1.000000
     23         -4.840831   1.000000
     24         -4.821469   1.000000
     25         -4.238601   1.000000
     26         -3.982199   1.000000
     27         -3.973390   1.000000
     28         -2.939550   1.000000
     29         -2.526871   1.000000
     30         -1.669031   1.000000
     31         -1.409744   1.000000
     32         -0.553378   0.000000
     33          0.527904   0.000000
     34          1.318471   0.000000
     35          2.381582   0.000000
     36          2.727001   0.000000
     37          3.055501   0.000000
     38          3.151085   0.000000

  0.1262379E-14  0.2000000E+00  0.1262379E-14  0.2000000E-01
      1        -17.489568   1.000000
      2        -17.265036   1.000000
      3        -17.197558   1.000000
      4        -17.074569   1.000000
      5        -17.045181   1.000000
      6        -16.432536   1.000000
      7        -16.237341   1.000000
      8        -16.186897   1.000000
      9        -16.135398   1.000000
     10        -16.107347   1.000000
     11        -15.676673   1.000000
     12        -14.991187   1.000000
     13        -13.881223   1.000000
     14        -12.672008   1.000000
     15         -8.152667   1.000000
     16         -7.100181   1.000000
     17         -7.041222   1.000000
     18         -6.922802   1.000000
     19         -6.726730   1.000000
     20         -6.678932   1.000000
     21         -6.296638   1.000000
     22         -5.687336   1.000000
     23         -4.840833   1.000000
     24         -4.821469   1.000000
     25         -4.238601   1.000000
     26         -3.982201   1.000000
     27         -3.973388   1.000000
     28         -2.939548   1.000000
     29         -2.526871   1.000000
     30         -1.669031   1.000000
     31         -1.409744   1.000000
     32         -0.553378   0.000000
     33          0.527906   0.000000
     34          1.318472   0.000000
     35          2.381583   0.000000
     36          2.727001   0.000000
     37          3.055501   0.000000
     38          3.151058   0.000000

 -0.2000000E+00  0.2000000E+00  0.1262379E-14  0.2000000E-01
      1        -17.489567   1.000000
      2        -17.265036   1.000000
      3        -17.197559   1.000000
      4        -17.074571   1.000000
      5        -17.045179   1.000000
      6        -16.432536   1.000000
      7        -16.237341   1.000000
      8        -16.186897   1.000000
      9        -16.135398   1.000000
     10        -16.107347   1.000000
     11        -15.676673   1.000000
     12        -14.991186   1.000000
     13        -13.881223   1.000000
     14        -12.672008   1.000000
     15         -8.152668   1.000000
     16         -7.100182   1.000000
     17         -7.041220   1.000000
     18         -6.922803   1.000000
     19         -6.726732   1.000000
     20         -6.678929   1.000000
     21         -6.296638   1.000000
     22         -5.687336   1.000000
     23         -4.840832   1.000000
     24         -4.821469   1.000000
     25         -4.238601   1.000000
     26         -3.982200   1.000000
     27         -3.973389   1.000000
     28         -2.939549   1.000000
     29         -2.526872   1.000000
     30         -1.669031   1.000000
     31         -1.409743   1.000000
     32         -0.553377   0.000000
     33          0.527906   0.000000
     34          1.318472   0.000000
     35          2.381584   0.000000
     36          2.727001   0.000000
     37          3.055501   0.000000
     38          3.151115   0.000000

  0.3000000E+00  0.1221245E-14  0.1262379E-14  0.2000000E-01
      1        -17.574972   1.000000
      2        -17.260323   1.000000
      3        -17.172370   1.000000
      4        -17.089172   1.000000
      5        -17.037978   1.000000
      6        -16.551578   1.000000
      7        -16.222913   1.000000
      8        -16.171040   1.000000
      9        -16.122005   1.000000
     10        -16.090771   1.000000
     11        -15.248677   1.000000
     12        -14.701597   1.000000
     13        -13.608557   1.000000
     14        -12.477863   1.000000
     15         -8.295405   1.000000
     16         -7.321416   1.000000
     17         -7.032429   1.000000
     18         -6.973248   1.000000
     19         -6.771295   1.000000
     20         -6.672666   1.000000
     21         -6.662166   1.000000
     22         -6.120313   1.000000
     23         -5.446173   1.000000
     24         -5.137437   1.000000
     25         -4.598371   1.000000
     26         -4.343669   1.000000
     27         -4.309410   1.000000
     28         -3.293550   1.000000
     29         -2.999228   1.000000
     30         -1.782011   1.000000
     31         -1.545516   1.000000
     32         -0.447738   0.000000
     33          0.163869   0.000000
     34          0.869000   0.000000
     35          2.636253   0.000000
     36          3.148411   0.000000
     37          3.392196   0.000000
     38          3.441331   0.000000

  0.1262379E-14  0.3000000E+00  0.1262379E-14  0.2000000E-01
      1        -17.574973   1.000000
      2        -17.260322   1.000000
      3        -17.172370   1.000000
      4        -17.089170   1.000000
      5        -17.037980   1.000000
      6        -16.551580   1.000000
      7        -16.222911   1.000000
      8        -16.171039   1.000000
      9        -16.122006   1.000000
     10        -16.090772   1.000000
     11        -15.248678   1.000000
     12        -14.701597   1.000000
     13        -13.608557   1.000000
     14        -12.477862   1.000000
     15         -8.295405   1.000000
     16         -7.321416   1.000000
     17         -7.032429   1.000000
     18         -6.973248   1.000000
     19         -6.771296   1.000000
     20         -6.672665   1.000000
     21         -6.662167   1.000000
     22         -6.120313   1.000000
     23         -5.446174   1.000000
     24         -5.137436   1.000000
     25         -4.598371   1.000000
     26         -4.343667   1.000000
     27         -4.309411   1.000000
     28         -3.293551   1.000000
     29         -2.999227   1.000000
     30         -1.782011   1.000000
     31         -1.545516   1.000000
     32         -0.447738   0.000000
     33          0.163870   0.000000
     34          0.869000   0.000000
     35          2.636254   0.000000
     36          3.148412   0.000000
     37          3.392192   0.000000
     38          3.441331   0.000000

 -0.3000000E+00  0.3000000E+00  0.1262379E-14  0.2000000E-01
      1        -17.574971   1.000000
      2        -17.260323   1.000000
      3        -17.172371   1.000000
      4        -17.089172   1.000000
      5        -17.037978   1.000000
      6        -16.551580   1.000000
      7        -16.222911   1.000000
      8        -16.171039   1.000000
      9        -16.122006   1.000000
     10        -16.090772   1.000000
     11        -15.248677   1.000000
     12        -14.701597   1.000000
     13        -13.608557   1.000000
     14        -12.477862   1.000000
     15         -8.295406   1.000000
     16         -7.321416   1.000000
     17         -7.032430   1.000000
     18         -6.973247   1.000000
     19         -6.771297   1.000000
     20         -6.672663   1.000000
     21         -6.662167   1.000000
     22         -6.120313   1.000000
     23         -5.446173   1.000000
     24         -5.137437   1.000000
     25         -4.598372   1.000000
     26         -4.343668   1.000000
     27         -4.309410   1.000000
     28         -3.293551   1.000000
     29         -2.999228   1.000000
     30         -1.782010   1.000000
     31         -1.545516   1.000000
     32         -0.447737   0.000000
     33          0.163870   0.000000
     34          0.869000   0.000000
     35          2.636255   0.000000
     36          3.148411   0.000000
     37          3.392204   0.000000
     38          3.441331   0.000000

  0.4000000E+00  0.1221245E-14  0.1262379E-14  0.2000000E-01
      1        -17.637615   1.000000
      2        -17.253108   1.000000
      3        -17.156461   1.000000
      4        -17.098992   1.000000
      5        -17.027250   1.000000
      6        -16.634960   1.000000
      7        -16.216936   1.000000
      8        -16.177363   1.000000
      9        -16.097361   1.000000
     10        -16.071182   1.000000
     11        -14.837207   1.000000
     12        -14.432527   1.000000
     13        -13.411515   1.000000
     14        -12.311151   1.000000
     15         -8.723390   1.000000
     16         -7.806849   1.000000
     17         -6.975883   1.000000
     18         -6.921134   1.000000
     19         -6.856140   1.000000
     20         -6.659743   1.000000
     21         -6.643245   1.000000
     22         -6.256371   1.000000
     23         -5.751913   1.000000
     24         -5.370573   1.000000
     25         -5.119903   1.000000
     26         -4.604222   1.000000
     27         -4.571228   1.000000
     28         -3.528680   1.000000
     29         -3.065765   1.000000
     30         -2.056031   1.000000
     31         -1.488539   1.000000
     32         -0.607609   0.000000
     33         -0.145857   0.000000
     34          0.582250   0.000000
     35          2.608180   0.000000
     36          3.110380   0.000000
     37          3.434204   0.000000
     38          3.470239   0.000000

  0.1262379E-14  0.4000000E+00  0.1262379E-14  0.2000000E-01
      1        -17.637616   1.000000
      2        -17.253107   1.000000
      3        -17.156460   1.000000
      4        -17.098990   1.000000
      5        -17.027251   1.000000
      6        -16.634962   1.000000
      7        -16.216933   1.000000
      8        -16.177361   1.000000
      9        -16.097362   1.000000
     10        -16.071183   1.000000
     11        -14.837208   1.000000
     12        -14.432528   1.000000
     13        -13.411514   1.000000
     14        -12.311151   1.000000
     15         -8.723390   1.000000
     16         -7.806851   1.000000
     17         -6.975883   1.000000
     18         -6.921133   1.000000
     19         -6.856141   1.000000
     20         -6.659742   1.000000
     21         -6.643245   1.000000
     22         -6.256371   1.000000
     23         -5.751914   1.000000
     24         -5.370572   1.000000
     25         -5.119904   1.000000
     26         -4.604221   1.000000
     27         -4.571228   1.000000
     28         -3.528680   1.000000
     29         -3.065764   1.000000
     30         -2.056031   1.000000
     31         -1.488539   1.000000
     32         -0.607608   0.000000
     33         -0.145856   0.000000
     34          0.582250   0.000000
     35          2.608181   0.000000
     36          3.110381   0.000000
     37          3.434204   0.000000
     38          3.470240   0.000000

 -0.4000000E+00  0.4000000E+00  0.1262379E-14  0.2000000E-01
      1        -17.637615   1.000000
      2        -17.253108   1.000000
      3        -17.156461   1.000000
      4        -17.098992   1.000000
      5        -17.027249   1.000000
      6        -16.634962   1.000000
      7        -16.216933   1.000000
      8        -16.177361   1.000000
      9        -16.097362   1.000000
     10        -16.071183   1.000000
     11        -14.837207   1.000000
     12        -14.432528   1.000000
     13        -13.411515   1.000000
     14        -12.311151   1.000000
     15         -8.723391   1.000000
     16         -7.806850   1.000000
     17         -6.975884   1.000000
     18         -6.921132   1.000000
     19         -6.856141   1.000000
     20         -6.659740   1.000000
     21         -6.643247   1.000000
     22         -6.256371   1.000000
     23         -5.751913   1.000000
     24         -5.370572   1.000000
     25         -5.119905   1.000000
     26         -4.604221   1.000000
     27         -4.571229   1.000000
     28         -3.528680   1.000000
     29         -3.065765   1.000000
     30         -2.056030   1.000000
     31         -1.488539   1.000000
     32         -0.607607   0.000000
     33         -0.145856   0.000000
     34          0.582250   0.000000
     35          2.608182   0.000000
     36          3.110381   0.000000
     37          3.434204   0.000000
     38          3.470239   0.000000

  0.5000000E+00  0.1221245E-14  0.1262379E-14  0.1000000E-01
      1        -17.660019   1.000000
      2        -17.250490   1.000000
      3        -17.151631   1.000000
      4        -17.102451   1.000000
      5        -17.021801   1.000000
      6        -16.664228   1.000000
      7        -16.215762   1.000000
      8        -16.180750   1.000000
      9        -16.087899   1.000000
     10        -16.062474   1.000000
     11        -14.645590   1.000000
     12        -14.328800   1.000000
     13        -13.345518   1.000000
     14        -12.245047   1.000000
     15         -8.953111   1.000000
     16         -8.004978   1.000000
     17         -6.969755   1.000000
     18         -6.902848   1.000000
     19         -6.885988   1.000000
     20         -6.651832   1.000000
     21         -6.506390   1.000000
     22         -6.346220   1.000000
     23         -5.825900   1.000000
     24         -5.455309   1.000000
     25         -5.350500   1.000000
     26         -4.716209   1.000000
     27         -4.697310   1.000000
     28         -3.546738   1.000000
     29         -3.094071   1.000000
     30         -2.155325   1.000000
     31         -1.480984   1.000000
     32         -0.654330   0.000000
     33         -0.295678   0.000000
     34          0.485806   0.000000
     35          2.550657   0.000000
     36          3.009338   0.000000
     37          3.419188   0.000000
     38          3.424661   0.000000

  0.1262379E-14  0.5000000E+00  0.1262379E-14  0.1000000E-01
      1        -17.660020   1.000000
      2        -17.250490   1.000000
      3        -17.151630   1.000000
      4        -17.102449   1.000000
      5        -17.021803   1.000000
      6        -16.664230   1.000000
      7        -16.215760   1.000000
      8        -16.180749   1.000000
      9        -16.087900   1.000000
     10        -16.062475   1.000000
     11        -14.645590   1.000000
     12        -14.328800   1.000000
     13        -13.345517   1.000000
     14        -12.245047   1.000000
     15         -8.953111   1.000000
     16         -8.004980   1.000000
     17         -6.969755   1.000000
     18         -6.902848   1.000000
     19         -6.885988   1.000000
     20         -6.651832   1.000000
     21         -6.506390   1.000000
     22         -6.346221   1.000000
     23         -5.825900   1.000000
     24         -5.455308   1.000000
     25         -5.350501   1.000000
     26         -4.716210   1.000000
     27         -4.697309   1.000000
     28         -3.546738   1.000000
     29         -3.094069   1.000000
     30         -2.155325   1.000000
     31         -1.480985   1.000000
     32         -0.654330   0.000000
     33         -0.295677   0.000000
     34          0.485807   0.000000
     35          2.550658   0.000000
     36          3.009338   0.000000
     37          3.419188   0.000000
     38          3.424661   0.000000

  0.5000000E+00  0.5000000E+00  0.1262379E-14  0.1000000E-01
      1        -17.660019   1.000000
      2        -17.250490   1.000000
      3        -17.151631   1.000000
      4        -17.102451   1.000000
      5        -17.021801   1.000000
      6        -16.664230   1.000000
      7        -16.215760   1.000000
      8        -16.180749   1.000000
      9        -16.087900   1.000000
     10        -16.062475   1.000000
     11        -14.645589   1.000000
     12        -14.328800   1.000000
     13        -13.345517   1.000000
     14        -12.245047   1.000000
     15         -8.953112   1.000000
     16         -8.004980   1.000000
     17         -6.969755   1.000000
     18         -6.902847   1.000000
     19         -6.885990   1.000000
     20         -6.651829   1.000000
     21         -6.506393   1.000000
     22         -6.346219   1.000000
     23         -5.825900   1.000000
     24         -5.455309   1.000000
     25         -5.350501   1.000000
     26         -4.716210   1.000000
     27         -4.697309   1.000000
     28         -3.546738   1.000000
     29         -3.094070   1.000000
     30         -2.155323   1.000000
     31         -1.480985   1.000000
     32         -0.654329   0.000000
     33         -0.295677   0.000000
     34          0.485806   0.000000
     35          2.550659   0.000000
     36          3.009338   0.000000
     37          3.419188   0.000000
     38          3.424661   0.000000

  0.1000000E+00  0.1000000E+00  0.1262379E-14  0.2000000E-01
      1        -17.466820   1.000000
      2        -17.264090   1.000000
      3        -17.204847   1.000000
      4        -17.069509   1.000000
      5        -17.046842   1.000000
      6        -16.390403   1.000000
      7        -16.261039   1.000000
      8        -16.188879   1.000000
      9        -16.134162   1.000000
     10        -16.110257   1.000000
     11        -15.776505   1.000000
     12        -15.053975   1.000000
     13        -13.954005   1.000000
     14        -12.718671   1.000000
     15         -8.159435   1.000000
     16         -7.106775   1.000000
     17         -7.057662   1.000000
     18         -6.896960   1.000000
     19         -6.715662   1.000000
     20         -6.680086   1.000000
     21         -6.154661   1.000000
     22         -5.482989   1.000000
     23         -4.808401   1.000000
     24         -4.439687   1.000000
     25         -4.403872   1.000000
     26         -4.138220   1.000000
     27         -3.362247   1.000000
     28         -3.156459   1.000000
     29         -2.221484   1.000000
     30         -1.708086   1.000000
     31         -1.371855   1.000000
     32         -0.622784   0.000000
     33          0.639592   0.000000
     34          1.617238   0.000000
     35          2.292220   0.000000
     36          2.395325   0.000000
     37          2.689338   0.000000
     38          3.180184   0.000000

 -0.1000000E+00  0.2000000E+00  0.1262379E-14  0.2000000E-01
      1        -17.466819   1.000000
      2        -17.264090   1.000000
      3        -17.204847   1.000000
      4        -17.069509   1.000000
      5        -17.046842   1.000000
      6        -16.390405   1.000000
      7        -16.261036   1.000000
      8        -16.188879   1.000000
      9        -16.134161   1.000000
     10        -16.110258   1.000000
     11        -15.776505   1.000000
     12        -15.053976   1.000000
     13        -13.954005   1.000000
     14        -12.718671   1.000000
     15         -8.159435   1.000000
     16         -7.106776   1.000000
     17         -7.057661   1.000000
     18         -6.896961   1.000000
     19         -6.715665   1.000000
     20         -6.680084   1.000000
     21         -6.154662   1.000000
     22         -5.482990   1.000000
     23         -4.808401   1.000000
     24         -4.439688   1.000000
     25         -4.403872   1.000000
     26         -4.138221   1.000000
     27         -3.362246   1.000000
     28         -3.156458   1.000000
     29         -2.221485   1.000000
     30         -1.708086   1.000000
     31         -1.371854   1.000000
     32         -0.622783   0.000000
     33          0.639593   0.000000
     34          1.617238   0.000000
     35          2.292220   0.000000
     36          2.395326   0.000000
     37          2.689338   0.000000
     38          3.180142   0.000000

 -0.2000000E+00  0.1000000E+00  0.1262379E-14  0.2000000E-01
      1        -17.466819   1.000000
      2        -17.264090   1.000000
      3        -17.204848   1.000000
      4        -17.069511   1.000000
      5        -17.046840   1.000000
      6        -16.390403   1.000000
      7        -16.261039   1.000000
      8        -16.188879   1.000000
      9        -16.134162   1.000000
     10        -16.110257   1.000000
     11        -15.776504   1.000000
     12        -15.053975   1.000000
     13        -13.954005   1.000000
     14        -12.718671   1.000000
     15         -8.159435   1.000000
     16         -7.106776   1.000000
     17         -7.057661   1.000000
     18         -6.896961   1.000000
     19         -6.715664   1.000000
     20         -6.680084   1.000000
     21         -6.154661   1.000000
     22         -5.482989   1.000000
     23         -4.808401   1.000000
     24         -4.439686   1.000000
     25         -4.403873   1.000000
     26         -4.138220   1.000000
     27         -3.362247   1.000000
     28         -3.156460   1.000000
     29         -2.221485   1.000000
     30         -1.708085   1.000000
     31         -1.371855   1.000000
     32         -0.622783   0.000000
     33          0.639592   0.000000
     34          1.617237   0.000000
     35          2.292220   0.000000
     36          2.395325   0.000000
     37          2.689338   0.000000
     38          3.179954   0.000000

  0.2000000E+00  0.1000000E+00  0.1262379E-14  0.2000000E-01
      1        -17.543458   1.000000
      2        -17.264246   1.000000
      3        -17.182252   1.000000
      4        -17.082360   1.000000
      5        -17.043602   1.000000
      6        -16.494393   1.000000
      7        -16.259989   1.000000
      8        -16.159138   1.000000
      9        -16.137065   1.000000
     10        -16.096292   1.000000
     11        -15.401236   1.000000
     12        -14.798185   1.000000
     13        -13.704008   1.000000
     14        -12.546754   1.000000
     15         -8.187771   1.000000
     16         -7.122732   1.000000
     17         -7.039835   1.000000
     18         -6.992575   1.000000
     19         -6.751251   1.000000
     20         -6.677253   1.000000
     21         -6.547898   1.000000
     22         -5.987374   1.000000
     23         -5.219551   1.000000
     24         -5.152174   1.000000
     25         -4.715885   1.000000
     26         -4.354640   1.000000
     27         -3.792335   1.000000
     28         -3.251199   1.000000
     29         -2.986531   1.000000
     30         -1.846642   1.000000
     31         -1.542009   1.000000
     32         -0.249729   0.000000
     33          0.483344   0.000000
     34          1.299352   0.000000
     35          2.423451   0.000000
     36          2.839395   0.000000
     37          3.245131   0.000000
     38          3.595226   0.000000

 -0.1000000E+00  0.3000000E+00  0.1262379E-14  0.2000000E-01
      1        -17.543458   1.000000
      2        -17.264246   1.000000
      3        -17.182252   1.000000
      4        -17.082359   1.000000
      5        -17.043603   1.000000
      6        -16.494395   1.000000
      7        -16.259986   1.000000
      8        -16.159136   1.000000
      9        -16.137065   1.000000
     10        -16.096294   1.000000
     11        -15.401236   1.000000
     12        -14.798186   1.000000
     13        -13.704008   1.000000
     14        -12.546754   1.000000
     15         -8.187771   1.000000
     16         -7.122732   1.000000
     17         -7.039835   1.000000
     18         -6.992575   1.000000
     19         -6.751253   1.000000
     20         -6.677251   1.000000
     21         -6.547899   1.000000
     22         -5.987374   1.000000
     23         -5.219551   1.000000
     24         -5.152175   1.000000
     25         -4.715884   1.000000
     26         -4.354640   1.000000
     27         -3.792335   1.000000
     28         -3.251198   1.000000
     29         -2.986532   1.000000
     30         -1.846642   1.000000
     31         -1.542009   1.000000
     32         -0.249729   0.000000
     33          0.483345   0.000000
     34          1.299352   0.000000
     35          2.423451   0.000000
     36          2.839395   0.000000
     37          3.245132   0.000000
     38          3.593979   0.000000

 -0.3000000E+00  0.2000000E+00  0.1262379E-14  0.2000000E-01
      1        -17.543457   1.000000
      2        -17.264246   1.000000
      3        -17.182253   1.000000
      4        -17.082361   1.000000
      5        -17.043600   1.000000
      6        -16.494394   1.000000
      7        -16.259988   1.000000
      8        -16.159136   1.000000
      9        -16.137066   1.000000
     10        -16.096292   1.000000
     11        -15.401236   1.000000
     12        -14.798185   1.000000
     13        -13.704008   1.000000
     14        -12.546754   1.000000
     15         -8.187772   1.000000
     16         -7.122732   1.000000
     17         -7.039836   1.000000
     18         -6.992574   1.000000
     19         -6.751254   1.000000
     20         -6.677250   1.000000
     21         -6.547899   1.000000
     22         -5.987374   1.000000
     23         -5.219551   1.000000
     24         -5.152174   1.000000
     25         -4.715884   1.000000
     26         -4.354640   1.000000
     27         -3.792336   1.000000
     28         -3.251199   1.000000
     29         -2.986532   1.000000
     30         -1.846641   1.000000
     31         -1.542010   1.000000
     32         -0.249728   0.000000
     33          0.483344   0.000000
     34          1.299352   0.000000
     35          2.423450   0.000000
     36          2.839396   0.000000
     37          3.245132   0.000000
     38          3.596834   0.000000

 -0.2000000E+00  0.3000000E+00  0.1262379E-14  0.2000000E-01
      1        -17.543458   1.000000
      2        -17.264246   1.000000
      3        -17.182253   1.000000
      4        -17.082360   1.000000
      5        -17.043602   1.000000
      6        -16.494395   1.000000
      7        -16.259986   1.000000
      8        -16.159136   1.000000
      9        -16.137065   1.000000
     10        -16.096294   1.000000
     11        -15.401236   1.000000
     12        -14.798185   1.000000
     13        -13.704008   1.000000
     14        -12.546754   1.000000
     15         -8.187772   1.000000
     16         -7.122733   1.000000
     17         -7.039836   1.000000
     18         -6.992574   1.000000
     19         -6.751254   1.000000
     20         -6.677250   1.000000
     21         -6.547899   1.000000
     22         -5.987374   1.000000
     23         -5.219551   1.000000
     24         -5.152175   1.000000
     25         -4.715885   1.000000
     26         -4.354640   1.000000
     27         -3.792334   1.000000
     28         -3.251199   1.000000
     29         -2.986532   1.000000
     30         -1.846641   1.000000
     31         -1.542009   1.000000
     32         -0.249728   0.000000
     33          0.483345   0.000000
     34          1.299352   0.000000
     35          2.423451   0.000000
     36          2.839396   0.000000
     37          3.245132   0.000000
     38          3.594579   0.000000

  0.1000000E+00  0.2000000E+00  0.1262379E-14  0.2000000E-01
      1        -17.543458   1.000000
      2        -17.264246   1.000000
      3        -17.182252   1.000000
      4        -17.082359   1.000000
      5        -17.043603   1.000000
      6        -16.494394   1.000000
      7        -16.259987   1.000000
      8        -16.159136   1.000000
      9        -16.137066   1.000000
     10        -16.096292   1.000000
     11        -15.401236   1.000000
     12        -14.798185   1.000000
     13        -13.704008   1.000000
     14        -12.546754   1.000000
     15         -8.187771   1.000000
     16         -7.122732   1.000000
     17         -7.039835   1.000000
     18         -6.992575   1.000000
     19         -6.751252   1.000000
     20         -6.677253   1.000000
     21         -6.547899   1.000000
     22         -5.987374   1.000000
     23         -5.219551   1.000000
     24         -5.152175   1.000000
     25         -4.715884   1.000000
     26         -4.354640   1.000000
     27         -3.792336   1.000000
     28         -3.251198   1.000000
     29         -2.986531   1.000000
     30         -1.846642   1.000000
     31         -1.542009   1.000000
     32         -0.249729   0.000000
     33          0.483345   0.000000
     34          1.299352   0.000000
     35          2.423450   0.000000
     36          2.839395   0.000000
     37          3.245132   0.000000
     38          3.597009   0.000000

  0.3000000E+00 -0.1000000E+00  0.1262379E-14  0.2000000E-01
      1        -17.543457   1.000000
      2        -17.264246   1.000000
      3        -17.182253   1.000000
      4        -17.082361   1.000000
      5        -17.043601   1.000000
      6        -16.494393   1.000000
      7        -16.259989   1.000000
      8        -16.159138   1.000000
      9        -16.137065   1.000000
     10        -16.096292   1.000000
     11        -15.401236   1.000000
     12        -14.798185   1.000000
     13        -13.704008   1.000000
     14        -12.546754   1.000000
     15         -8.187771   1.000000
     16         -7.122732   1.000000
     17         -7.039835   1.000000
     18         -6.992575   1.000000
     19         -6.751253   1.000000
     20         -6.677251   1.000000
     21         -6.547898   1.000000
     22         -5.987374   1.000000
     23         -5.219551   1.000000
     24         -5.152174   1.000000
     25         -4.715884   1.000000
     26         -4.354640   1.000000
     27         -3.792335   1.000000
     28         -3.251199   1.000000
     29         -2.986531   1.000000
     30         -1.846641   1.000000
     31         -1.542010   1.000000
     32         -0.249729   0.000000
     33          0.483344   0.000000
     34          1.299351   0.000000
     35          2.423451   0.000000
     36          2.839395   0.000000
     37          3.245132   0.000000
     38          3.593936   0.000000

  0.3000000E+00  0.1000000E+00  0.1262379E-14  0.2000000E-01
      1        -17.614030   1.000000
      2        -17.255963   1.000000
      3        -17.164814   1.000000
      4        -17.092287   1.000000
      5        -17.035883   1.000000
      6        -16.587301   1.000000
      7        -16.255802   1.000000
      8        -16.164585   1.000000
      9        -16.114087   1.000000
     10        -16.078754   1.000000
     11        -14.974256   1.000000
     12        -14.495984   1.000000
     13        -13.480629   1.000000
     14        -12.364729   1.000000
     15         -8.497018   1.000000
     16         -7.589519   1.000000
     17         -6.991171   1.000000
     18         -6.933801   1.000000
     19         -6.799963   1.000000
     20         -6.699440   1.000000
     21         -6.648044   1.000000
     22         -6.212136   1.000000
     23         -5.713041   1.000000
     24         -5.461806   1.000000
     25         -4.969075   1.000000
     26         -4.771772   1.000000
     27         -4.212708   1.000000
     28         -3.507452   1.000000
     29         -3.215540   1.000000
     30         -2.223582   1.000000
     31         -1.464658   1.000000
     32         -0.264976   0.000000
     33          0.161993   0.000000
     34          0.954844   0.000000
     35          2.789480   0.000000
     36          2.931361   0.000000
     37          3.490384   0.000000
     38          3.754652   0.000000

 -0.1000000E+00  0.4000000E+00  0.1262379E-14  0.2000000E-01
      1        -17.614031   1.000000
      2        -17.255962   1.000000
      3        -17.164814   1.000000
      4        -17.092286   1.000000
      5        -17.035884   1.000000
      6        -16.587302   1.000000
      7        -16.255799   1.000000
      8        -16.164583   1.000000
      9        -16.114087   1.000000
     10        -16.078756   1.000000
     11        -14.974256   1.000000
     12        -14.495984   1.000000
     13        -13.480629   1.000000
     14        -12.364729   1.000000
     15         -8.497018   1.000000
     16         -7.589520   1.000000
     17         -6.991170   1.000000
     18         -6.933802   1.000000
     19         -6.799963   1.000000
     20         -6.699441   1.000000
     21         -6.648042   1.000000
     22         -6.212136   1.000000
     23         -5.713041   1.000000
     24         -5.461806   1.000000
     25         -4.969075   1.000000
     26         -4.771772   1.000000
     27         -4.212708   1.000000
     28         -3.507451   1.000000
     29         -3.215539   1.000000
     30         -2.223582   1.000000
     31         -1.464658   1.000000
     32         -0.264976   0.000000
     33          0.161994   0.000000
     34          0.954845   0.000000
     35          2.789479   0.000000
     36          2.931361   0.000000
     37          3.490385   0.000000
     38          3.754650   0.000000

 -0.4000000E+00  0.3000000E+00  0.1262379E-14  0.2000000E-01
      1        -17.614030   1.000000
      2        -17.255963   1.000000
      3        -17.164815   1.000000
      4        -17.092288   1.000000
      5        -17.035882   1.000000
      6        -16.587302   1.000000
      7        -16.255800   1.000000
      8        -16.164583   1.000000
      9        -16.114089   1.000000
     10        -16.078755   1.000000
     11        -14.974256   1.000000
     12        -14.495984   1.000000
     13        -13.480629   1.000000
     14        -12.364729   1.000000
     15         -8.497019   1.000000
     16         -7.589520   1.000000
     17         -6.991171   1.000000
     18         -6.933801   1.000000
     19         -6.799964   1.000000
     20         -6.699440   1.000000
     21         -6.648042   1.000000
     22         -6.212136   1.000000
     23         -5.713040   1.000000
     24         -5.461805   1.000000
     25         -4.969075   1.000000
     26         -4.771773   1.000000
     27         -4.212709   1.000000
     28         -3.507452   1.000000
     29         -3.215539   1.000000
     30         -2.223581   1.000000
     31         -1.464658   1.000000
     32         -0.264975   0.000000
     33          0.161994   0.000000
     34          0.954844   0.000000
     35          2.789479   0.000000
     36          2.931362   0.000000
     37          3.490385   0.000000
     38          3.754653   0.000000

 -0.3000000E+00  0.4000000E+00  0.1262379E-14  0.2000000E-01
      1        -17.614030   1.000000
      2        -17.255963   1.000000
      3        -17.164815   1.000000
      4        -17.092287   1.000000
      5        -17.035882   1.000000
      6        -16.587302   1.000000
      7        -16.255799   1.000000
      8        -16.164583   1.000000
      9        -16.114087   1.000000
     10        -16.078756   1.000000
     11        -14.974256   1.000000
     12        -14.495984   1.000000
     13        -13.480629   1.000000
     14        -12.364729   1.000000
     15         -8.497019   1.000000
     16         -7.589520   1.000000
     17         -6.991171   1.000000
     18         -6.933801   1.000000
     19         -6.799964   1.000000
     20         -6.699440   1.000000
     21         -6.648042   1.000000
     22         -6.212136   1.000000
     23         -5.713041   1.000000
     24         -5.461806   1.000000
     25         -4.969076   1.000000
     26         -4.771773   1.000000
     27         -4.212708   1.000000
     28         -3.507452   1.000000
     29         -3.215539   1.000000
     30         -2.223581   1.000000
     31         -1.464658   1.000000
     32         -0.264975   0.000000
     33          0.161994   0.000000
     34          0.954844   0.000000
     35          2.789480   0.000000
     36          2.931362   0.000000
     37          3.490385   0.000000
     38          3.754651   0.000000

  0.1000000E+00  0.3000000E+00  0.1262379E-14  0.2000000E-01
      1        -17.614031   1.000000
      2        -17.255962   1.000000
      3        -17.164814   1.000000
      4        -17.092286   1.000000
      5        -17.035884   1.000000
      6        -16.587302   1.000000
      7        -16.255800   1.000000
      8        -16.164583   1.000000
      9        -16.114089   1.000000
     10        -16.078755   1.000000
     11        -14.974257   1.000000
     12        -14.495984   1.000000
     13        -13.480629   1.000000
     14        -12.364729   1.000000
     15         -8.497018   1.000000
     16         -7.589520   1.000000
     17         -6.991171   1.000000
     18         -6.933801   1.000000
     19         -6.799963   1.000000
     20         -6.699440   1.000000
     21         -6.648044   1.000000
     22         -6.212136   1.000000
     23         -5.713041   1.000000
     24         -5.461805   1.000000
     25         -4.969075   1.000000
     26         -4.771772   1.000000
     27         -4.212708   1.000000
     28         -3.507451   1.000000
     29         -3.215539   1.000000
     30         -2.223582   1.000000
     31         -1.464658   1.000000
     32         -0.264976   0.000000
     33          0.161993   0.000000
     34          0.954845   0.000000
     35          2.789479   0.000000
     36          2.931361   0.000000
     37          3.490385   0.000000
     38          3.754652   0.000000

  0.4000000E+00 -0.1000000E+00  0.1262379E-14  0.2000000E-01
      1        -17.614030   1.000000
      2        -17.255962   1.000000
      3        -17.164815   1.000000
      4        -17.092288   1.000000
      5        -17.035882   1.000000
      6        -16.587301   1.000000
      7        -16.255802   1.000000
      8        -16.164585   1.000000
      9        -16.114087   1.000000
     10        -16.078755   1.000000
     11        -14.974256   1.000000
     12        -14.495984   1.000000
     13        -13.480629   1.000000
     14        -12.364729   1.000000
     15         -8.497018   1.000000
     16         -7.589519   1.000000
     17         -6.991170   1.000000
     18         -6.933802   1.000000
     19         -6.799963   1.000000
     20         -6.699441   1.000000
     21         -6.648042   1.000000
     22         -6.212136   1.000000
     23         -5.713041   1.000000
     24         -5.461805   1.000000
     25         -4.969075   1.000000
     26         -4.771772   1.000000
     27         -4.212708   1.000000
     28         -3.507452   1.000000
     29         -3.215540   1.000000
     30         -2.223582   1.000000
     31         -1.464658   1.000000
     32         -0.264976   0.000000
     33          0.161993   0.000000
     34          0.954844   0.000000
     35          2.789479   0.000000
     36          2.931361   0.000000
     37          3.490385   0.000000
     38          3.754651   0.000000

  0.4000000E+00  0.1000000E+00  0.1262379E-14  0.2000000E-01
      1        -17.654058   1.000000
      2        -17.250148   1.000000
      3        -17.156887   1.000000
      4        -17.097597   1.000000
      5        -17.028291   1.000000
      6        -16.639516   1.000000
      7        -16.254180   1.000000
      8        -16.171375   1.000000
      9        -16.092834   1.000000
     10        -16.071497   1.000000
     11        -14.652644   1.000000
     12        -14.290241   1.000000
     13        -13.364612   1.000000
     14        -12.246808   1.000000
     15         -8.857921   1.000000
     16         -7.938134   1.000000
     17         -6.962955   1.000000
     18         -6.906036   1.000000
     19         -6.853375   1.000000
     20         -6.669189   1.000000
     21         -6.533800   1.000000
     22         -6.293223   1.000000
     23         -5.931838   1.000000
     24         -5.587566   1.000000
     25         -5.385311   1.000000
     26         -4.877792   1.000000
     27         -4.552047   1.000000
     28         -3.638054   1.000000
     29         -3.218118   1.000000
     30         -2.432006   1.000000
     31         -1.438847   1.000000
     32         -0.360889   0.000000
     33         -0.070220   0.000000
     34          0.773641   0.000000
     35          2.793175   0.000000
     36          3.059232   0.000000
     37          3.238542   0.000000
     38          3.732979   0.000000

 -0.1000000E+00  0.5000000E+00  0.1262379E-14  0.2000000E-01
      1        -17.654059   1.000000
      2        -17.250148   1.000000
      3        -17.156887   1.000000
      4        -17.097596   1.000000
      5        -17.028292   1.000000
      6        -16.639518   1.000000
      7        -16.254178   1.000000
      8        -16.171373   1.000000
      9        -16.092835   1.000000
     10        -16.071499   1.000000
     11        -14.652644   1.000000
     12        -14.290242   1.000000
     13        -13.364611   1.000000
     14        -12.246808   1.000000
     15         -8.857922   1.000000
     16         -7.938136   1.000000
     17         -6.962955   1.000000
     18         -6.906036   1.000000
     19         -6.853376   1.000000
     20         -6.669189   1.000000
     21         -6.533801   1.000000
     22         -6.293223   1.000000
     23         -5.931838   1.000000
     24         -5.587566   1.000000
     25         -5.385311   1.000000
     26         -4.877791   1.000000
     27         -4.552048   1.000000
     28         -3.638054   1.000000
     29         -3.218117   1.000000
     30         -2.432006   1.000000
     31         -1.438847   1.000000
     32         -0.360889   0.000000
     33         -0.070220   0.000000
     34          0.773642   0.000000
     35          2.793175   0.000000
     36          3.059232   0.000000
     37          3.238542   0.000000
     38          3.732980   0.000000

  0.5000000E+00  0.4000000E+00  0.1262379E-14  0.2000000E-01
      1        -17.654058   1.000000
      2        -17.250148   1.000000
      3        -17.156888   1.000000
      4        -17.097598   1.000000
      5        -17.028290   1.000000
      6        -16.639517   1.000000
      7        -16.254178   1.000000
      8        -16.171373   1.000000
      9        -16.092836   1.000000
     10        -16.071498   1.000000
     11        -14.652644   1.000000
     12        -14.290241   1.000000
     13        -13.364612   1.000000
     14        -12.246808   1.000000
     15         -8.857923   1.000000
     16         -7.938136   1.000000
     17         -6.962955   1.000000
     18         -6.906036   1.000000
     19         -6.853377   1.000000
     20         -6.669186   1.000000
     21         -6.533802   1.000000
     22         -6.293222   1.000000
     23         -5.931838   1.000000
     24         -5.587566   1.000000
     25         -5.385312   1.000000
     26         -4.877791   1.000000
     27         -4.552048   1.000000
     28         -3.638054   1.000000
     29         -3.218117   1.000000
     30         -2.432005   1.000000
     31         -1.438847   1.000000
     32         -0.360888   0.000000
     33         -0.070220   0.000000
     34          0.773642   0.000000
     35          2.793176   0.000000
     36          3.059233   0.000000
     37          3.238542   0.000000
     38          3.732980   0.000000

 -0.4000000E+00  0.5000000E+00  0.1262379E-14  0.2000000E-01
      1        -17.654058   1.000000
      2        -17.250148   1.000000
      3        -17.156888   1.000000
      4        -17.097598   1.000000
      5        -17.028290   1.000000
      6        -16.639518   1.000000
      7        -16.254178   1.000000
      8        -16.171373   1.000000
      9        -16.092834   1.000000
     10        -16.071499   1.000000
     11        -14.652644   1.000000
     12        -14.290241   1.000000
     13        -13.364612   1.000000
     14        -12.246808   1.000000
     15         -8.857923   1.000000
     16         -7.938136   1.000000
     17         -6.962955   1.000000
     18         -6.906036   1.000000
     19         -6.853377   1.000000
     20         -6.669186   1.000000
     21         -6.533803   1.000000
     22         -6.293222   1.000000
     23         -5.931838   1.000000
     24         -5.587566   1.000000
     25         -5.385312   1.000000
     26         -4.877792   1.000000
     27         -4.552048   1.000000
     28         -3.638054   1.000000
     29         -3.218117   1.000000
     30         -2.432005   1.000000
     31         -1.438847   1.000000
     32         -0.360888   0.000000
     33         -0.070220   0.000000
     34          0.773642   0.000000
     35          2.793176   0.000000
     36          3.059233   0.000000
     37          3.238542   0.000000
     38          3.732980   0.000000

  0.1000000E+00  0.4000000E+00  0.1262379E-14  0.2000000E-01
      1        -17.654059   1.000000
      2        -17.250148   1.000000
      3        -17.156887   1.000000
      4        -17.097596   1.000000
      5        -17.028292   1.000000
      6        -16.639517   1.000000
      7        -16.254178   1.000000
      8        -16.171373   1.000000
      9        -16.092836   1.000000
     10        -16.071497   1.000000
     11        -14.652644   1.000000
     12        -14.290241   1.000000
     13        -13.364611   1.000000
     14        -12.246808   1.000000
     15         -8.857922   1.000000
     16         -7.938136   1.000000
     17         -6.962955   1.000000
     18         -6.906036   1.000000
     19         -6.853376   1.000000
     20         -6.669189   1.000000
     21         -6.533801   1.000000
     22         -6.293223   1.000000
     23         -5.931838   1.000000
     24         -5.587566   1.000000
     25         -5.385312   1.000000
     26         -4.877791   1.000000
     27         -4.552048   1.000000
     28         -3.638054   1.000000
     29         -3.218117   1.000000
     30         -2.432006   1.000000
     31         -1.438847   1.000000
     32         -0.360889   0.000000
     33         -0.070220   0.000000
     34          0.773642   0.000000
     35          2.793175   0.000000
     36          3.059232   0.000000
     37          3.238542   0.000000
     38          3.732980   0.000000

  0.5000000E+00 -0.1000000E+00  0.1262379E-14  0.2000000E-01
      1        -17.654058   1.000000
      2        -17.250148   1.000000
      3        -17.156888   1.000000
      4        -17.097597   1.000000
      5        -17.028290   1.000000
      6        -16.639516   1.000000
      7        -16.254180   1.000000
      8        -16.171375   1.000000
      9        -16.092834   1.000000
     10        -16.071497   1.000000
     11        -14.652644   1.000000
     12        -14.290241   1.000000
     13        -13.364612   1.000000
     14        -12.246808   1.000000
     15         -8.857922   1.000000
     16         -7.938134   1.000000
     17         -6.962955   1.000000
     18         -6.906036   1.000000
     19         -6.853376   1.000000
     20         -6.669189   1.000000
     21         -6.533800   1.000000
     22         -6.293223   1.000000
     23         -5.931838   1.000000
     24         -5.587566   1.000000
     25         -5.385311   1.000000
     26         -4.877791   1.000000
     27         -4.552048   1.000000
     28         -3.638054   1.000000
     29         -3.218118   1.000000
     30         -2.432006   1.000000
     31         -1.438847   1.000000
     32         -0.360889   0.000000
     33         -0.070220   0.000000
     34          0.773641   0.000000
     35          2.793175   0.000000
     36          3.059232   0.000000
     37          3.238542   0.000000
     38          3.732979   0.000000

  0.2000000E+00  0.2000000E+00  0.1262379E-14  0.2000000E-01
      1        -17.601759   1.000000
      2        -17.258012   1.000000
      3        -17.170249   1.000000
      4        -17.086659   1.000000
      5        -17.042564   1.000000
      6        -16.547087   1.000000
      7        -16.301212   1.000000
      8        -16.145286   1.000000
      9        -16.135082   1.000000
     10        -16.080673   1.000000
     11        -15.022768   1.000000
     12        -14.508069   1.000000
     13        -13.513980   1.000000
     14        -12.385517   1.000000
     15         -8.381484   1.000000
     16         -7.456213   1.000000
     17         -6.999936   1.000000
     18         -6.933885   1.000000
     19         -6.773120   1.000000
     20         -6.689151   1.000000
     21         -6.633350   1.000000
     22         -6.213680   1.000000
     23         -5.787883   1.000000
     24         -5.509042   1.000000
     25         -5.107802   1.000000
     26         -4.675608   1.000000
     27         -3.939404   1.000000
     28         -3.706525   1.000000
     29         -3.238426   1.000000
     30         -2.461615   1.000000
     31         -1.446317   1.000000
     32          0.022919   0.000000
     33          0.434424   0.000000
     34          1.551820   0.000000
     35          2.141657   0.000000
     36          3.315855   0.000000
     37          3.535892   0.000000
     38          3.913602   0.000000

 -0.2000000E+00  0.4000000E+00  0.1262379E-14  0.2000000E-01
      1        -17.601759   1.000000
      2        -17.258012   1.000000
      3        -17.170250   1.000000
      4        -17.086660   1.000000
      5        -17.042564   1.000000
      6        -16.547089   1.000000
      7        -16.301209   1.000000
      8        -16.145285   1.000000
      9        -16.135081   1.000000
     10        -16.080675   1.000000
     11        -15.022768   1.000000
     12        -14.508069   1.000000
     13        -13.513980   1.000000
     14        -12.385517   1.000000
     15         -8.381485   1.000000
     16         -7.456214   1.000000
     17         -6.999935   1.000000
     18         -6.933886   1.000000
     19         -6.773121   1.000000
     20         -6.689150   1.000000
     21         -6.633349   1.000000
     22         -6.213680   1.000000
     23         -5.787883   1.000000
     24         -5.509042   1.000000
     25         -5.107801   1.000000
     26         -4.675608   1.000000
     27         -3.939403   1.000000
     28         -3.706525   1.000000
     29         -3.238426   1.000000
     30         -2.461615   1.000000
     31         -1.446317   1.000000
     32          0.022919   0.000000
     33          0.434425   0.000000
     34          1.551820   0.000000
     35          2.141657   0.000000
     36          3.315854   0.000000
     37          3.535893   0.000000
     38          3.913644   0.000000

 -0.4000000E+00  0.2000000E+00  0.1262379E-14  0.2000000E-01
      1        -17.601758   1.000000
      2        -17.258012   1.000000
      3        -17.170250   1.000000
      4        -17.086661   1.000000
      5        -17.042562   1.000000
      6        -16.547087   1.000000
      7        -16.301212   1.000000
      8        -16.145286   1.000000
      9        -16.135082   1.000000
     10        -16.080673   1.000000
     11        -15.022768   1.000000
     12        -14.508069   1.000000
     13        -13.513980   1.000000
     14        -12.385517   1.000000
     15         -8.381485   1.000000
     16         -7.456213   1.000000
     17         -6.999936   1.000000
     18         -6.933886   1.000000
     19         -6.773121   1.000000
     20         -6.689150   1.000000
     21         -6.633349   1.000000
     22         -6.213680   1.000000
     23         -5.787883   1.000000
     24         -5.509041   1.000000
     25         -5.107801   1.000000
     26         -4.675608   1.000000
     27         -3.939404   1.000000
     28         -3.706526   1.000000
     29         -3.238426   1.000000
     30         -2.461615   1.000000
     31         -1.446317   1.000000
     32          0.022919   0.000000
     33          0.434424   0.000000
     34          1.551819   0.000000
     35          2.141657   0.000000
     36          3.315855   0.000000
     37          3.535892   0.000000
     38          3.913603   0.000000

  0.3000000E+00  0.2000000E+00  0.1262379E-14  0.2000000E-01
      1        -17.644021   1.000000
      2        -17.250175   1.000000
      3        -17.165283   1.000000
      4        -17.087169   1.000000
      5        -17.041412   1.000000
      6        -16.584468   1.000000
      7        -16.332098   1.000000
      8        -16.149295   1.000000
      9        -16.113996   1.000000
     10        -16.077990   1.000000
     11        -14.662516   1.000000
     12        -14.227813   1.000000
     13        -13.398143   1.000000
     14        -12.249655   1.000000
     15         -8.679989   1.000000
     16         -7.805977   1.000000
     17         -6.950453   1.000000
     18         -6.906499   1.000000
     19         -6.793387   1.000000
     20         -6.706778   1.000000
     21         -6.547054   1.000000
     22         -6.334455   1.000000
     23         -6.217590   1.000000
     24         -5.753248   1.000000
     25         -5.245545   1.000000
     26         -5.017668   1.000000
     27         -4.385753   1.000000
     28         -3.940967   1.000000
     29         -3.260824   1.000000
     30         -2.886124   1.000000
     31         -1.403871   1.000000
     32          0.088707   0.000000
     33          0.234197   0.000000
     34          1.476956   0.000000
     35          2.394213   0.000000
     36          3.335554   0.000000
     37          3.638118   0.000000
     38          4.314867   0.000000

 -0.2000000E+00  0.5000000E+00  0.1262379E-14  0.2000000E-01
      1        -17.644021   1.000000
      2        -17.250175   1.000000
      3        -17.165283   1.000000
      4        -17.087168   1.000000
      5        -17.041412   1.000000
      6        -16.584470   1.000000
      7        -16.332096   1.000000
      8        -16.149293   1.000000
      9        -16.113996   1.000000
     10        -16.077992   1.000000
     11        -14.662516   1.000000
     12        -14.227814   1.000000
     13        -13.398143   1.000000
     14        -12.249655   1.000000
     15         -8.679990   1.000000
     16         -7.805979   1.000000
     17         -6.950452   1.000000
     18         -6.906500   1.000000
     19         -6.793387   1.000000
     20         -6.706778   1.000000
     21         -6.547055   1.000000
     22         -6.334454   1.000000
     23         -6.217590   1.000000
     24         -5.753248   1.000000
     25         -5.245545   1.000000
     26         -5.017668   1.000000
     27         -4.385754   1.000000
     28         -3.940966   1.000000
     29         -3.260824   1.000000
     30         -2.886124   1.000000
     31         -1.403871   1.000000
     32          0.088707   0.000000
     33          0.234197   0.000000
     34          1.476956   0.000000
     35          2.394213   0.000000
     36          3.335554   0.000000
     37          3.638118   0.000000
     38          4.314941   0.000000

  0.5000000E+00  0.3000000E+00  0.1262379E-14  0.2000000E-01
      1        -17.644020   1.000000
      2        -17.250175   1.000000
      3        -17.165284   1.000000
      4        -17.087170   1.000000
      5        -17.041410   1.000000
      6        -16.584468   1.000000
      7        -16.332097   1.000000
      8        -16.149294   1.000000
      9        -16.113998   1.000000
     10        -16.077990   1.000000
     11        -14.662516   1.000000
     12        -14.227813   1.000000
     13        -13.398143   1.000000
     14        -12.249655   1.000000
     15         -8.679990   1.000000
     16         -7.805978   1.000000
     17         -6.950452   1.000000
     18         -6.906500   1.000000
     19         -6.793388   1.000000
     20         -6.706776   1.000000
     21         -6.547055   1.000000
     22         -6.334454   1.000000
     23         -6.217589   1.000000
     24         -5.753248   1.000000
     25         -5.245545   1.000000
     26         -5.017669   1.000000
     27         -4.385754   1.000000
     28         -3.940967   1.000000
     29         -3.260824   1.000000
     30         -2.886123   1.000000
     31         -1.403872   1.000000
     32          0.088707   0.000000
     33          0.234197   0.000000
     34          1.476956   0.000000
     35          2.394214   0.000000
     36          3.335554   0.000000
     37          3.638118   0.000000
     38          4.314910   0.000000

 -0.3000000E+00  0.5000000E+00  0.1262379E-14  0.2000000E-01
      1        -17.644020   1.000000
      2        -17.250175   1.000000
      3        -17.165283   1.000000
      4        -17.087169   1.000000
      5        -17.041411   1.000000
      6        -16.584470   1.000000
      7        -16.332096   1.000000
      8        -16.149293   1.000000
      9        -16.113996   1.000000
     10        -16.077992   1.000000
     11        -14.662516   1.000000
     12        -14.227814   1.000000
     13        -13.398143   1.000000
     14        -12.249655   1.000000
     15         -8.679990   1.000000
     16         -7.805979   1.000000
     17         -6.950452   1.000000
     18         -6.906500   1.000000
     19         -6.793388   1.000000
     20         -6.706776   1.000000
     21         -6.547055   1.000000
     22         -6.334454   1.000000
     23         -6.217590   1.000000
     24         -5.753248   1.000000
     25         -5.245545   1.000000
     26         -5.017669   1.000000
     27         -4.385754   1.000000
     28         -3.940967   1.000000
     29         -3.260824   1.000000
     30         -2.886124   1.000000
     31         -1.403871   1.000000
     32          0.088707   0.000000
     33          0.234197   0.000000
     34          1.476956   0.000000
     35          2.394213   0.000000
     36          3.335554   0.000000
     37          3.638119   0.000000
     38          4.314960   0.000000

  0.2000000E+00  0.3000000E+00  0.1262379E-14  0.2000000E-01
      1        -17.644021   1.000000
      2        -17.250175   1.000000
      3        -17.165283   1.000000
      4        -17.087168   1.000000
      5        -17.041412   1.000000
      6        -16.584469   1.000000
      7        -16.332097   1.000000
      8        -16.149293   1.000000
      9        -16.113998   1.000000
     10        -16.077990   1.000000
     11        -14.662516   1.000000
     12        -14.227814   1.000000
     13        -13.398143   1.000000
     14        -12.249655   1.000000
     15         -8.679989   1.000000
     16         -7.805978   1.000000
     17         -6.950453   1.000000
     18         -6.906499   1.000000
     19         -6.793387   1.000000
     20         -6.706778   1.000000
     21         -6.547054   1.000000
     22         -6.334455   1.000000
     23         -6.217590   1.000000
     24         -5.753248   1.000000
     25         -5.245545   1.000000
     26         -5.017668   1.000000
     27         -4.385754   1.000000
     28         -3.940966   1.000000
     29         -3.260824   1.000000
     30         -2.886124   1.000000
     31         -1.403871   1.000000
     32          0.088707   0.000000
     33          0.234197   0.000000
     34          1.476956   0.000000
     35          2.394213   0.000000
     36          3.335554   0.000000
     37          3.638118   0.000000
     38          4.314854   0.000000

  0.5000000E+00 -0.2000000E+00  0.1262379E-14  0.2000000E-01
      1        -17.644020   1.000000
      2        -17.250175   1.000000
      3        -17.165284   1.000000
      4        -17.087170   1.000000
      5        -17.041410   1.000000
      6        -16.584468   1.000000
      7        -16.332098   1.000000
      8        -16.149295   1.000000
      9        -16.113996   1.000000
     10        -16.077990   1.000000
     11        -14.662516   1.000000
     12        -14.227813   1.000000
     13        -13.398143   1.000000
     14        -12.249655   1.000000
     15         -8.679989   1.000000
     16         -7.805977   1.000000
     17         -6.950452   1.000000
     18         -6.906500   1.000000
     19         -6.793387   1.000000
     20         -6.706778   1.000000
     21         -6.547054   1.000000
     22         -6.334455   1.000000
     23         -6.217590   1.000000
     24         -5.753248   1.000000
     25         -5.245545   1.000000
     26         -5.017668   1.000000
     27         -4.385754   1.000000
     28         -3.940967   1.000000
     29         -3.260824   1.000000
     30         -2.886124   1.000000
     31         -1.403871   1.000000
     32          0.088707   0.000000
     33          0.234197   0.000000
     34          1.476956   0.000000
     35          2.394213   0.000000
     36          3.335554   0.000000
     37          3.638118   0.000000
     38          4.314992   0.000000

  0.4000000E+00  0.2000000E+00  0.1262379E-14  0.2000000E-01
      1        -17.659236   1.000000
      2        -17.246749   1.000000
      3        -17.164351   1.000000
      4        -17.086710   1.000000
      5        -17.040867   1.000000
      6        -16.598313   1.000000
      7        -16.343028   1.000000
      8        -16.151639   1.000000
      9        -16.092794   1.000000
     10        -16.089756   1.000000
     11        -14.502461   1.000000
     12        -14.107343   1.000000
     13        -13.371017   1.000000
     14        -12.196450   1.000000
     15         -8.826303   1.000000
     16         -7.957915   1.000000
     17         -6.948270   1.000000
     18         -6.897059   1.000000
     19         -6.810121   1.000000
     20         -6.689972   1.000000
     21         -6.472207   1.000000
     22         -6.424677   1.000000
     23         -6.255409   1.000000
     24         -5.881641   1.000000
     25         -5.442332   1.000000
     26         -4.924181   1.000000
     27         -4.661549   1.000000
     28         -4.048955   1.000000
     29         -3.266618   1.000000
     30         -2.997345   1.000000
     31         -1.398943   1.000000
     32          0.095736   0.000000
     33          0.119381   0.000000
     34          1.411492   0.000000
     35          2.485755   0.000000
     36          3.304388   0.000000
     37          3.679916   0.000000
     38          4.322595   0.000000

 -0.2000000E+00 -0.4000000E+00  0.1262379E-14  0.2000000E-01
      1        -17.659237   1.000000
      2        -17.246749   1.000000
      3        -17.164351   1.000000
      4        -17.086708   1.000000
      5        -17.040869   1.000000
      6        -16.598315   1.000000
      7        -16.343026   1.000000
      8        -16.151638   1.000000
      9        -16.092795   1.000000
     10        -16.089757   1.000000
     11        -14.502461   1.000000
     12        -14.107343   1.000000
     13        -13.371016   1.000000
     14        -12.196450   1.000000
     15         -8.826304   1.000000
     16         -7.957917   1.000000
     17         -6.948270   1.000000
     18         -6.897059   1.000000
     19         -6.810121   1.000000
     20         -6.689972   1.000000
     21         -6.472207   1.000000
     22         -6.424677   1.000000
     23         -6.255409   1.000000
     24         -5.881641   1.000000
     25         -5.442333   1.000000
     26         -4.924181   1.000000
     27         -4.661550   1.000000
     28         -4.048954   1.000000
     29         -3.266618   1.000000
     30         -2.997345   1.000000
     31         -1.398943   1.000000
     32          0.095737   0.000000
     33          0.119381   0.000000
     34          1.411492   0.000000
     35          2.485755   0.000000
     36          3.304388   0.000000
     37          3.679916   0.000000
     38          4.322598   0.000000

  0.4000000E+00  0.4000000E+00  0.1262379E-14  0.2000000E-01
      1        -17.659236   1.000000
      2        -17.246749   1.000000
      3        -17.164352   1.000000
      4        -17.086710   1.000000
      5        -17.040867   1.000000
      6        -16.598315   1.000000
      7        -16.343026   1.000000
      8        -16.151638   1.000000
      9        -16.092795   1.000000
     10        -16.089757   1.000000
     11        -14.502461   1.000000
     12        -14.107343   1.000000
     13        -13.371017   1.000000
     14        -12.196450   1.000000
     15         -8.826304   1.000000
     16         -7.957917   1.000000
     17         -6.948270   1.000000
     18         -6.897059   1.000000
     19         -6.810122   1.000000
     20         -6.689970   1.000000
     21         -6.472206   1.000000
     22         -6.424679   1.000000
     23         -6.255408   1.000000
     24         -5.881641   1.000000
     25         -5.442333   1.000000
     26         -4.924181   1.000000
     27         -4.661550   1.000000
     28         -4.048955   1.000000
     29         -3.266618   1.000000
     30         -2.997344   1.000000
     31         -1.398943   1.000000
     32          0.095737   0.000000
     33          0.119381   0.000000
     34          1.411492   0.000000
     35          2.485756   0.000000
     36          3.304388   0.000000
     37          3.679917   0.000000
     38          4.322597   0.000000

  0.3000000E+00  0.3000000E+00  0.1262379E-14  0.2000000E-01
      1        -17.659484   1.000000
      2        -17.245184   1.000000
      3        -17.168612   1.000000
      4        -17.075141   1.000000
      5        -17.053603   1.000000
      6        -16.554480   1.000000
      7        -16.407848   1.000000
      8        -16.129447   1.000000
      9        -16.112860   1.000000
     10        -16.091946   1.000000
     11        -14.447450   1.000000
     12        -14.011896   1.000000
     13        -13.392470   1.000000
     14        -12.177658   1.000000
     15         -8.761476   1.000000
     16         -7.939238   1.000000
     17         -6.937527   1.000000
     18         -6.901094   1.000000
     19         -6.815297   1.000000
     20         -6.721625   1.000000
     21         -6.702634   1.000000
     22         -6.378056   1.000000
     23         -6.292880   1.000000
     24         -5.990684   1.000000
     25         -5.267989   1.000000
     26         -5.076557   1.000000
     27         -4.663266   1.000000
     28         -4.269301   1.000000
     29         -3.395718   1.000000
     30         -3.140177   1.000000
     31         -1.390803   1.000000
     32          0.217231   0.000000
     33          0.260355   0.000000
     34          1.698310   0.000000
     35          2.439723   0.000000
     36          3.491285   0.000000
     37          3.939850   0.000000
     38          4.445847   0.000000

 -0.3000000E+00 -0.4000000E+00  0.1262379E-14  0.2000000E-01
      1        -17.659484   1.000000
      2        -17.245184   1.000000
      3        -17.168612   1.000000
      4        -17.075142   1.000000
      5        -17.053603   1.000000
      6        -16.554481   1.000000
      7        -16.407847   1.000000
      8        -16.129447   1.000000
      9        -16.112859   1.000000
     10        -16.091948   1.000000
     11        -14.447450   1.000000
     12        -14.011897   1.000000
     13        -13.392470   1.000000
     14        -12.177658   1.000000
     15         -8.761477   1.000000
     16         -7.939238   1.000000
     17         -6.937526   1.000000
     18         -6.901094   1.000000
     19         -6.815297   1.000000
     20         -6.721626   1.000000
     21         -6.702633   1.000000
     22         -6.378057   1.000000
     23         -6.292880   1.000000
     24         -5.990684   1.000000
     25         -5.267989   1.000000
     26         -5.076557   1.000000
     27         -4.663266   1.000000
     28         -4.269301   1.000000
     29         -3.395718   1.000000
     30         -3.140177   1.000000
     31         -1.390803   1.000000
     32          0.217231   0.000000
     33          0.260356   0.000000
     34          1.698310   0.000000
     35          2.439724   0.000000
     36          3.491286   0.000000
     37          3.939850   0.000000
     38          4.445846   0.000000

  0.4000000E+00  0.3000000E+00  0.1262379E-14  0.2000000E-01
      1        -17.659483   1.000000
      2        -17.245184   1.000000
      3        -17.168612   1.000000
      4        -17.075143   1.000000
      5        -17.053601   1.000000
      6        -16.554480   1.000000
      7        -16.407849   1.000000
      8        -16.129447   1.000000
      9        -16.112860   1.000000
     10        -16.091946   1.000000
     11        -14.447450   1.000000
     12        -14.011896   1.000000
     13        -13.392470   1.000000
     14        -12.177658   1.000000
     15         -8.761477   1.000000
     16         -7.939238   1.000000
     17         -6.937526   1.000000
     18         -6.901094   1.000000
     19         -6.815297   1.000000
     20         -6.721626   1.000000
     21         -6.702633   1.000000
     22         -6.378057   1.000000
     23         -6.292880   1.000000
     24         -5.990684   1.000000
     25         -5.267989   1.000000
     26         -5.076557   1.000000
     27         -4.663266   1.000000
     28         -4.269301   1.000000
     29         -3.395718   1.000000
     30         -3.140177   1.000000
     31         -1.390803   1.000000
     32          0.217231   0.000000
     33          0.260355   0.000000
     34          1.698310   0.000000
     35          2.439724   0.000000
     36          3.491285   0.000000
     37          3.939850   0.000000
     38          4.445846   0.000000
