 running    8 mpi-ranks, on    1 nodes
 distrk:  each k-point on    8 cores,    1 groups
 distr:  one band on    4 cores,    2 groups
 vasp.6.6.1 17Jul2026 (build Sep  7 2026 10:40:42) complex                       
 POSCAR found type information on POSCAR S InZn
 POSCAR found :  3 types and       7 ions
 scaLAPACK will be used
 LDA part: xc-table for (Slater+PW92), standard interpolation
 POSCAR, INCAR and KPOINTS ok, starting setup
 FFT: planning ... GRIDC
 FFT: planning ... GRID_SOFT
 FFT: planning ... GRID
 WAVECAR not read
 entering main loop
       N       E                     dE             d eps       ncg     rms          rms(c)
DAV:   1     0.531457320364E+03    0.53146E+03   -0.25838E+04  4168   0.141E+03
DAV:   2     0.454985842484E+02   -0.48596E+03   -0.47323E+03  4642   0.345E+02
DAV:   3    -0.252114399550E+02   -0.70710E+02   -0.69772E+02  5168   0.155E+02
DAV:   4    -0.283946581512E+02   -0.31832E+01   -0.31708E+01  4782   0.366E+01
DAV:   5    -0.285235680514E+02   -0.12891E+00   -0.12888E+00  6110   0.737E+00    0.131E+01
DAV:   6    -0.264160822691E+02    0.21075E+01   -0.44646E+00  6650   0.457E+01    0.107E+01
DAV:   7    -0.266159901767E+02   -0.19991E+00   -0.55661E+00  6256   0.199E+01    0.444E+00
DAV:   8    -0.265468103619E+02    0.69180E-01   -0.24804E+00  6304   0.231E+01    0.305E+00
DAV:   9    -0.265025446285E+02    0.44266E-01   -0.24158E+00  6154   0.992E+00    0.111E+00
DAV:  10    -0.264642307884E+02    0.38314E-01   -0.72216E-01  5980   0.575E+00    0.114E+00
DAV:  11    -0.264534064060E+02    0.10824E-01   -0.70757E-02  5190   0.210E+00    0.747E-01
DAV:  12    -0.264544081704E+02   -0.10018E-02   -0.55954E-02  6176   0.772E-01    0.566E-01
DAV:  13    -0.264539010167E+02    0.50715E-03   -0.14297E-02  5358   0.695E-01    0.338E-01
DAV:  14    -0.264540288272E+02   -0.12781E-03   -0.39627E-03  5016   0.317E-01    0.231E-01
DAV:  15    -0.264540462476E+02   -0.17420E-04   -0.28649E-04  6248   0.143E-01    0.197E-01
DAV:  16    -0.264541139689E+02   -0.67721E-04   -0.79460E-05  4650   0.471E-02    0.195E-01
DAV:  17    -0.264539304393E+02    0.18353E-03   -0.93305E-05  5192   0.810E-02    0.112E-01
DAV:  18    -0.264539045311E+02    0.25908E-04   -0.76792E-05  5276   0.478E-02    0.679E-02
DAV:  19    -0.264539062708E+02   -0.17397E-05   -0.12779E-05  4200   0.192E-02    0.575E-02
DAV:  20    -0.264539067741E+02   -0.50331E-06   -0.86223E-07  3076   0.662E-03
   1 F= -.28218471E+02 E0= -.28216841E+02  d E =-.325856E-02
