WP2-P01-A1-beta001-static-dipole        
           1
     3.878284    0.000000    0.000000
    -1.939142    3.358693    0.000000
     0.000000    0.000000   29.419858
   S    In   Zn
     4     2     1
Direct configuration=           1
   0.00000000  0.00000000  0.33990646
   0.66666666  0.33333331  0.46015602
   0.00000000  0.00000000  0.55500777
   0.33333331  0.66666666  0.66009354
   0.66666666  0.33333331  0.37684667
   0.33333331  0.66666666  0.51199774
   0.00000000  0.00000000  0.64125141
