   7   7   0   0
  0.2260644E+02  0.3878284E-09  0.3878284E-09  0.1214843E-08  0.5000000E-15
  1.000000000000000E-004
  CAR 
 ZnIn2S4 bulk final static SCF           
     13.78234530    -13.13724151  301      4.56238682      1.00000000
    -13.137  0.0000E+00  0.0000E+00
    -13.048  0.0000E+00  0.0000E+00
    -12.958  0.0000E+00  0.0000E+00
    -12.868  0.0000E+00  0.0000E+00
    -12.778  0.0000E+00  0.0000E+00
    -12.689  0.0000E+00  0.0000E+00
    -12.599  0.0000E+00  0.0000E+00
    -12.509  0.0000E+00  0.0000E+00
    -12.419  0.0000E+00  0.0000E+00
    -12.330  0.0000E+00  0.0000E+00
    -12.240  0.0000E+00  0.0000E+00
    -12.150  0.0000E+00  0.0000E+00
    -12.060  0.0000E+00  0.0000E+00
    -11.971  0.0000E+00  0.0000E+00
    -11.881  0.0000E+00  0.0000E+00
    -11.791  0.0000E+00  0.0000E+00
    -11.702  0.0000E+00  0.0000E+00
    -11.612  0.0000E+00  0.0000E+00
    -11.522  0.0000E+00  0.0000E+00
    -11.432  0.0000E+00  0.0000E+00
    -11.343  0.0000E+00  0.0000E+00
    -11.253  0.0000E+00  0.0000E+00
    -11.163  0.0000E+00  0.0000E+00
    -11.073  0.7701E+01  0.1211E+01
    -10.984  0.4475E+01  0.1710E+01
    -10.894  0.0000E+00  0.2000E+01
    -10.804  0.7176E+02  0.2652E+01
    -10.714  0.1019E+00  0.4000E+01
    -10.625  0.0000E+00  0.6000E+01
    -10.535  0.1573E+03  0.9638E+01
    -10.445  0.4044E+01  0.1152E+02
    -10.356  0.2421E+01  0.1179E+02
    -10.266  0.9711E+01  0.1236E+02
    -10.176  0.4399E+01  0.1411E+02
    -10.086  0.3094E+02  0.1694E+02
     -9.997  0.0000E+00  0.2000E+02
     -9.907  0.0000E+00  0.2000E+02
     -9.817  0.0000E+00  0.2000E+02
     -9.727  0.0000E+00  0.2000E+02
     -9.638  0.2561E+00  0.2000E+02
     -9.548  0.5817E+00  0.2006E+02
     -9.458  0.7012E+00  0.2011E+02
     -9.368  0.7173E+00  0.2018E+02
     -9.279  0.7616E+00  0.2025E+02
     -9.189  0.8264E+00  0.2032E+02
     -9.099  0.9614E+00  0.2039E+02
     -9.010  0.1742E+01  0.2054E+02
     -8.920  0.1940E+01  0.2071E+02
     -8.830  0.1953E+01  0.2088E+02
     -8.740  0.2118E+01  0.2106E+02
     -8.651  0.2190E+01  0.2125E+02
     -8.561  0.2352E+01  0.2146E+02
     -8.471  0.2617E+01  0.2168E+02
     -8.381  0.3012E+01  0.2193E+02
     -8.292  0.3611E+01  0.2223E+02
     -8.202  0.3694E+01  0.2259E+02
     -8.112  0.4178E+01  0.2293E+02
     -8.023  0.7354E+01  0.2338E+02
     -7.933  0.4283E+01  0.2385E+02
     -7.843  0.2695E+01  0.2415E+02
     -7.753  0.1222E+01  0.2435E+02
     -7.664  0.1459E+01  0.2447E+02
     -7.574  0.1734E+01  0.2461E+02
     -7.484  0.2481E+01  0.2480E+02
     -7.394  0.8323E+01  0.2515E+02
     -7.305  0.1437E+01  0.2611E+02
     -7.215  0.1571E+01  0.2624E+02
     -7.125  0.1843E+01  0.2640E+02
     -7.035  0.2153E+01  0.2658E+02
     -6.946  0.2904E+01  0.2680E+02
     -6.856  0.4825E+01  0.2712E+02
     -6.766  0.5872E+01  0.2778E+02
     -6.677  0.0000E+00  0.2800E+02
     -6.587  0.0000E+00  0.2800E+02
     -6.497  0.0000E+00  0.2800E+02
     -6.407  0.0000E+00  0.2800E+02
     -6.318  0.0000E+00  0.2800E+02
     -6.228  0.0000E+00  0.2800E+02
     -6.138  0.0000E+00  0.2800E+02
     -6.048  0.0000E+00  0.2800E+02
     -5.959  0.0000E+00  0.2800E+02
     -5.869  0.0000E+00  0.2800E+02
     -5.779  0.0000E+00  0.2800E+02
     -5.689  0.0000E+00  0.2800E+02
     -5.600  0.0000E+00  0.2800E+02
     -5.510  0.0000E+00  0.2800E+02
     -5.420  0.0000E+00  0.2800E+02
     -5.331  0.0000E+00  0.2800E+02
     -5.241  0.0000E+00  0.2800E+02
     -5.151  0.0000E+00  0.2800E+02
     -5.061  0.0000E+00  0.2800E+02
     -4.972  0.0000E+00  0.2800E+02
     -4.882  0.0000E+00  0.2800E+02
     -4.792  0.0000E+00  0.2800E+02
     -4.702  0.0000E+00  0.2800E+02
     -4.613  0.0000E+00  0.2800E+02
     -4.523  0.0000E+00  0.2800E+02
     -4.433  0.0000E+00  0.2800E+02
     -4.344  0.0000E+00  0.2800E+02
     -4.254  0.0000E+00  0.2800E+02
     -4.164  0.0000E+00  0.2800E+02
     -4.074  0.0000E+00  0.2800E+02
     -3.985  0.0000E+00  0.2800E+02
     -3.895  0.0000E+00  0.2800E+02
     -3.805  0.0000E+00  0.2800E+02
     -3.715  0.0000E+00  0.2800E+02
     -3.626  0.0000E+00  0.2800E+02
     -3.536  0.0000E+00  0.2800E+02
     -3.446  0.0000E+00  0.2800E+02
     -3.356  0.0000E+00  0.2800E+02
     -3.267  0.0000E+00  0.2800E+02
     -3.177  0.0000E+00  0.2800E+02
     -3.087  0.0000E+00  0.2800E+02
     -2.998  0.0000E+00  0.2800E+02
     -2.908  0.0000E+00  0.2800E+02
     -2.818  0.0000E+00  0.2800E+02
     -2.728  0.0000E+00  0.2800E+02
     -2.639  0.0000E+00  0.2800E+02
     -2.549  0.0000E+00  0.2800E+02
     -2.459  0.0000E+00  0.2800E+02
     -2.369  0.3161E+01  0.2811E+02
     -2.280  0.3663E+01  0.2838E+02
     -2.190  0.2882E+01  0.2881E+02
     -2.100  0.2369E+01  0.2903E+02
     -2.010  0.4305E+01  0.2928E+02
     -1.921  0.5627E+01  0.2987E+02
     -1.831  0.3441E+01  0.3041E+02
     -1.741  0.2222E+01  0.3066E+02
     -1.652  0.1779E+01  0.3083E+02
     -1.562  0.2214E+01  0.3100E+02
     -1.472  0.5092E+01  0.3226E+02
     -1.382  0.2046E+02  0.3298E+02
     -1.293  0.6940E+01  0.3533E+02
     -1.203  0.2133E+02  0.3633E+02
     -1.113  0.2678E+02  0.3797E+02
     -1.023  0.4914E+01  0.4003E+02
     -0.934  0.5828E+01  0.4068E+02
     -0.844  0.3120E+01  0.4114E+02
     -0.754  0.8786E+00  0.4138E+02
     -0.664  0.6248E+00  0.4144E+02
     -0.575  0.5921E+00  0.4150E+02
     -0.485  0.5680E+00  0.4155E+02
     -0.395  0.9402E+00  0.4161E+02
     -0.306  0.3624E+01  0.4181E+02
     -0.216  0.3925E+01  0.4225E+02
     -0.126  0.4139E+01  0.4260E+02
     -0.036  0.5448E+01  0.4306E+02
      0.053  0.6200E+01  0.4361E+02
      0.143  0.4220E+01  0.4406E+02
      0.233  0.3696E+01  0.4442E+02
      0.323  0.3329E+01  0.4473E+02
      0.412  0.3066E+01  0.4501E+02
      0.502  0.3945E+01  0.4533E+02
      0.592  0.5296E+01  0.4575E+02
      0.681  0.5424E+01  0.4625E+02
      0.771  0.4219E+01  0.4666E+02
      0.861  0.3806E+01  0.4702E+02
      0.951  0.3825E+01  0.4736E+02
      1.040  0.4037E+01  0.4771E+02
      1.130  0.3713E+01  0.4806E+02
      1.220  0.5789E+01  0.4850E+02
      1.310  0.5478E+01  0.4901E+02
      1.399  0.6234E+01  0.4953E+02
      1.489  0.4920E+01  0.5006E+02
      1.579  0.5174E+01  0.5049E+02
      1.669  0.7996E+01  0.5112E+02
      1.758  0.6110E+01  0.5175E+02
      1.848  0.4998E+01  0.5225E+02
      1.938  0.4968E+01  0.5270E+02
      2.027  0.4073E+01  0.5310E+02
      2.117  0.3800E+01  0.5346E+02
      2.207  0.3239E+01  0.5376E+02
      2.297  0.3579E+01  0.5407E+02
      2.386  0.4998E+01  0.5442E+02
      2.476  0.4868E+01  0.5491E+02
      2.566  0.3646E+01  0.5529E+02
      2.656  0.3566E+01  0.5561E+02
      2.745  0.4113E+01  0.5595E+02
      2.835  0.7499E+01  0.5642E+02
      2.925  0.8630E+01  0.5721E+02
      3.015  0.5375E+01  0.5783E+02
      3.104  0.2972E+01  0.5827E+02
      3.194  0.2104E+01  0.5846E+02
      3.284  0.2243E+01  0.5866E+02
      3.373  0.2334E+01  0.5887E+02
      3.463  0.1795E+01  0.5905E+02
      3.553  0.1723E+01  0.5921E+02
      3.643  0.1463E+01  0.5936E+02
      3.732  0.1148E+01  0.5947E+02
      3.822  0.1892E+01  0.5960E+02
      3.912  0.7772E+01  0.5995E+02
      4.002  0.7264E+01  0.6088E+02
      4.091  0.5977E+01  0.6153E+02
      4.181  0.1491E+01  0.6176E+02
      4.271  0.7845E+00  0.6185E+02
      4.360  0.6146E+00  0.6191E+02
      4.450  0.7899E+00  0.6197E+02
      4.540  0.0000E+00  0.6200E+02
      4.630  0.0000E+00  0.6200E+02
      4.719  0.0000E+00  0.6200E+02
      4.809  0.0000E+00  0.6200E+02
      4.899  0.1535E-02  0.6200E+02
      4.989  0.9072E-02  0.6200E+02
      5.078  0.2289E-01  0.6200E+02
      5.168  0.4300E-01  0.6200E+02
      5.258  0.8505E-01  0.6201E+02
      5.348  0.1367E+00  0.6202E+02
      5.437  0.1908E+00  0.6203E+02
      5.527  0.2798E+00  0.6206E+02
      5.617  0.5714E+00  0.6209E+02
      5.706  0.1180E+01  0.6217E+02
      5.796  0.1736E+01  0.6230E+02
      5.886  0.2102E+01  0.6247E+02
      5.976  0.2857E+01  0.6269E+02
      6.065  0.3725E+01  0.6300E+02
      6.155  0.2383E+01  0.6327E+02
      6.245  0.3043E+01  0.6349E+02
      6.335  0.5062E+01  0.6385E+02
      6.424  0.5078E+01  0.6430E+02
      6.514  0.3407E+01  0.6464E+02
      6.604  0.5361E+01  0.6499E+02
      6.694  0.4970E+01  0.6560E+02
      6.783  0.3484E+01  0.6598E+02
      6.873  0.1218E+00  0.6600E+02
      6.963  0.6552E+00  0.6604E+02
      7.052  0.1110E+01  0.6612E+02
      7.142  0.1126E+01  0.6622E+02
      7.232  0.1093E+01  0.6632E+02
      7.322  0.1136E+01  0.6642E+02
      7.411  0.1295E+01  0.6653E+02
      7.501  0.1455E+01  0.6665E+02
      7.591  0.1608E+01  0.6679E+02
      7.681  0.1885E+01  0.6694E+02
      7.770  0.2227E+01  0.6713E+02
      7.860  0.3239E+01  0.6735E+02
      7.950  0.4186E+01  0.6769E+02
      8.040  0.1739E+01  0.6790E+02
      8.129  0.9119E+00  0.6803E+02
      8.219  0.6412E+00  0.6809E+02
      8.309  0.6331E+00  0.6815E+02
      8.398  0.5583E+00  0.6820E+02
      8.488  0.7925E+00  0.6826E+02
      8.578  0.1732E+01  0.6837E+02
      8.668  0.4825E+01  0.6863E+02
      8.757  0.7059E+01  0.6923E+02
      8.847  0.1031E+02  0.7006E+02
      8.937  0.2764E+01  0.7055E+02
      9.027  0.2845E+01  0.7079E+02
      9.116  0.3644E+01  0.7108E+02
      9.206  0.3552E+01  0.7145E+02
      9.296  0.2843E+01  0.7172E+02
      9.385  0.3144E+01  0.7197E+02
      9.475  0.6440E+01  0.7235E+02
      9.565  0.6897E+01  0.7300E+02
      9.655  0.5725E+01  0.7354E+02
      9.744  0.5895E+01  0.7406E+02
      9.834  0.7300E+01  0.7462E+02
      9.924  0.5710E+01  0.7522E+02
     10.014  0.4762E+01  0.7573E+02
     10.103  0.2182E+01  0.7600E+02
     10.193  0.2104E+01  0.7619E+02
     10.283  0.2300E+01  0.7639E+02
     10.373  0.4386E+01  0.7666E+02
     10.462  0.4702E+01  0.7709E+02
     10.552  0.6038E+01  0.7758E+02
     10.642  0.2944E+01  0.7802E+02
     10.731  0.3985E+01  0.7836E+02
     10.821  0.3177E+01  0.7869E+02
     10.911  0.3713E+01  0.7896E+02
     11.001  0.3435E+01  0.7928E+02
     11.090  0.2463E+01  0.7966E+02
     11.180  0.8661E+00  0.7977E+02
     11.270  0.6678E+00  0.7984E+02
     11.360  0.5618E+00  0.7990E+02
     11.449  0.5503E+00  0.7994E+02
     11.539  0.2393E+00  0.7998E+02
     11.629  0.1030E+00  0.7999E+02
     11.719  0.1788E-01  0.8000E+02
     11.808  0.0000E+00  0.8000E+02
     11.898  0.0000E+00  0.8000E+02
     11.988  0.0000E+00  0.8000E+02
     12.077  0.0000E+00  0.8000E+02
     12.167  0.0000E+00  0.8000E+02
     12.257  0.0000E+00  0.8000E+02
     12.347  0.0000E+00  0.8000E+02
     12.436  0.0000E+00  0.8000E+02
     12.526  0.0000E+00  0.8000E+02
     12.616  0.0000E+00  0.8000E+02
     12.706  0.0000E+00  0.8000E+02
     12.795  0.0000E+00  0.8000E+02
     12.885  0.0000E+00  0.8000E+02
     12.975  0.0000E+00  0.8000E+02
     13.064  0.0000E+00  0.8000E+02
     13.154  0.0000E+00  0.8000E+02
     13.244  0.0000E+00  0.8000E+02
     13.334  0.0000E+00  0.8000E+02
     13.423  0.0000E+00  0.8000E+02
     13.513  0.0000E+00  0.8000E+02
     13.603  0.0000E+00  0.8000E+02
     13.693  0.0000E+00  0.8000E+02
     13.782  0.0000E+00  0.8000E+02
