  14  14   0   0
  0.2271671E+02  0.3883347E-09  0.3883347E-09  0.2435177E-08  0.5000000E-15
  1.000000000000000E-004
  CAR 
 ZnIn2S4 bulk final static SCF           
     13.63079986    -13.22340638  301      4.52274824      1.00000000
    -13.223  0.0000E+00  0.0000E+00
    -13.134  0.0000E+00  0.0000E+00
    -13.044  0.0000E+00  0.0000E+00
    -12.955  0.0000E+00  0.0000E+00
    -12.865  0.0000E+00  0.0000E+00
    -12.776  0.0000E+00  0.0000E+00
    -12.686  0.0000E+00  0.0000E+00
    -12.597  0.0000E+00  0.0000E+00
    -12.507  0.0000E+00  0.0000E+00
    -12.418  0.0000E+00  0.0000E+00
    -12.328  0.0000E+00  0.0000E+00
    -12.239  0.0000E+00  0.0000E+00
    -12.149  0.0000E+00  0.0000E+00
    -12.060  0.0000E+00  0.0000E+00
    -11.970  0.0000E+00  0.0000E+00
    -11.881  0.0000E+00  0.0000E+00
    -11.791  0.0000E+00  0.0000E+00
    -11.702  0.0000E+00  0.0000E+00
    -11.612  0.0000E+00  0.0000E+00
    -11.523  0.0000E+00  0.0000E+00
    -11.433  0.0000E+00  0.0000E+00
    -11.344  0.0000E+00  0.0000E+00
    -11.254  0.0000E+00  0.0000E+00
    -11.165  0.1591E+02  0.2339E+01
    -11.075  0.8747E+01  0.3357E+01
    -10.986  0.0000E+00  0.4000E+01
    -10.896  0.0000E+00  0.4000E+01
    -10.807  0.3868E+01  0.7983E+01
    -10.717  0.0000E+00  0.1200E+02
    -10.627  0.3131E+02  0.1596E+02
    -10.538  0.1390E+02  0.2250E+02
    -10.448  0.6556E+01  0.2332E+02
    -10.359  0.1305E+02  0.2396E+02
    -10.269  0.4407E+02  0.2564E+02
    -10.180  0.1307E+03  0.2935E+02
    -10.090  0.1206E+03  0.3853E+02
    -10.001  0.0000E+00  0.4000E+02
     -9.911  0.0000E+00  0.4000E+02
     -9.822  0.0000E+00  0.4000E+02
     -9.732  0.0000E+00  0.4000E+02
     -9.643  0.1531E+01  0.4008E+02
     -9.553  0.1318E+01  0.4019E+02
     -9.464  0.1459E+01  0.4032E+02
     -9.374  0.1467E+01  0.4045E+02
     -9.285  0.1593E+01  0.4058E+02
     -9.195  0.1653E+01  0.4073E+02
     -9.106  0.3644E+01  0.4092E+02
     -9.016  0.3758E+01  0.4124E+02
     -8.927  0.3816E+01  0.4159E+02
     -8.837  0.4104E+01  0.4194E+02
     -8.748  0.4299E+01  0.4232E+02
     -8.658  0.4567E+01  0.4272E+02
     -8.569  0.4997E+01  0.4314E+02
     -8.479  0.5662E+01  0.4362E+02
     -8.390  0.6661E+01  0.4417E+02
     -8.300  0.1168E+02  0.4482E+02
     -8.211  0.7753E+01  0.4557E+02
     -8.121  0.1030E+02  0.4633E+02
     -8.032  0.1066E+02  0.4731E+02
     -7.942  0.5748E+01  0.4802E+02
     -7.853  0.4510E+01  0.4849E+02
     -7.763  0.2639E+01  0.4876E+02
     -7.674  0.3066E+01  0.4902E+02
     -7.584  0.4152E+01  0.4933E+02
     -7.495  0.5410E+01  0.4976E+02
     -7.405  0.2710E+02  0.5107E+02
     -7.315  0.2984E+01  0.5225E+02
     -7.226  0.3225E+01  0.5252E+02
     -7.136  0.3777E+01  0.5283E+02
     -7.047  0.4452E+01  0.5320E+02
     -6.957  0.6005E+01  0.5367E+02
     -6.868  0.1048E+02  0.5436E+02
     -6.778  0.1106E+02  0.5570E+02
     -6.689  0.0000E+00  0.5600E+02
     -6.599  0.0000E+00  0.5600E+02
     -6.510  0.0000E+00  0.5600E+02
     -6.420  0.0000E+00  0.5600E+02
     -6.331  0.0000E+00  0.5600E+02
     -6.241  0.0000E+00  0.5600E+02
     -6.152  0.0000E+00  0.5600E+02
     -6.062  0.0000E+00  0.5600E+02
     -5.973  0.0000E+00  0.5600E+02
     -5.883  0.0000E+00  0.5600E+02
     -5.794  0.0000E+00  0.5600E+02
     -5.704  0.0000E+00  0.5600E+02
     -5.615  0.0000E+00  0.5600E+02
     -5.525  0.0000E+00  0.5600E+02
     -5.436  0.0000E+00  0.5600E+02
     -5.346  0.0000E+00  0.5600E+02
     -5.257  0.0000E+00  0.5600E+02
     -5.167  0.0000E+00  0.5600E+02
     -5.078  0.0000E+00  0.5600E+02
     -4.988  0.0000E+00  0.5600E+02
     -4.899  0.0000E+00  0.5600E+02
     -4.809  0.0000E+00  0.5600E+02
     -4.720  0.0000E+00  0.5600E+02
     -4.630  0.0000E+00  0.5600E+02
     -4.541  0.0000E+00  0.5600E+02
     -4.451  0.0000E+00  0.5600E+02
     -4.362  0.0000E+00  0.5600E+02
     -4.272  0.0000E+00  0.5600E+02
     -4.182  0.0000E+00  0.5600E+02
     -4.093  0.0000E+00  0.5600E+02
     -4.003  0.0000E+00  0.5600E+02
     -3.914  0.0000E+00  0.5600E+02
     -3.824  0.0000E+00  0.5600E+02
     -3.735  0.0000E+00  0.5600E+02
     -3.645  0.0000E+00  0.5600E+02
     -3.556  0.0000E+00  0.5600E+02
     -3.466  0.0000E+00  0.5600E+02
     -3.377  0.0000E+00  0.5600E+02
     -3.287  0.0000E+00  0.5600E+02
     -3.198  0.0000E+00  0.5600E+02
     -3.108  0.0000E+00  0.5600E+02
     -3.019  0.0000E+00  0.5600E+02
     -2.929  0.0000E+00  0.5600E+02
     -2.840  0.0000E+00  0.5600E+02
     -2.750  0.0000E+00  0.5600E+02
     -2.661  0.0000E+00  0.5600E+02
     -2.571  0.0000E+00  0.5600E+02
     -2.482  0.3734E+01  0.5609E+02
     -2.392  0.5956E+01  0.5657E+02
     -2.303  0.7037E+01  0.5740E+02
     -2.213  0.4355E+01  0.5786E+02
     -2.124  0.4215E+01  0.5824E+02
     -2.034  0.8656E+01  0.5872E+02
     -1.945  0.1180E+02  0.5988E+02
     -1.855  0.6433E+01  0.6094E+02
     -1.766  0.4154E+01  0.6140E+02
     -1.676  0.3431E+01  0.6173E+02
     -1.587  0.4359E+01  0.6206E+02
     -1.497  0.1120E+02  0.6450E+02
     -1.408  0.4434E+02  0.6594E+02
     -1.318  0.1274E+02  0.7068E+02
     -1.229  0.4047E+02  0.7251E+02
     -1.139  0.5113E+02  0.7583E+02
     -1.049  0.1098E+02  0.8014E+02
     -0.960  0.1179E+02  0.8139E+02
     -0.870  0.6130E+01  0.8232E+02
     -0.781  0.2274E+01  0.8279E+02
     -0.691  0.1243E+01  0.8291E+02
     -0.602  0.1173E+01  0.8302E+02
     -0.512  0.1132E+01  0.8312E+02
     -0.423  0.1777E+01  0.8323E+02
     -0.333  0.7517E+01  0.8365E+02
     -0.244  0.1067E+02  0.8449E+02
     -0.154  0.9635E+01  0.8536E+02
     -0.065  0.9691E+01  0.8633E+02
      0.025  0.1066E+02  0.8725E+02
      0.114  0.9907E+01  0.8817E+02
      0.204  0.7782E+01  0.8893E+02
      0.293  0.6913E+01  0.8958E+02
      0.383  0.6482E+01  0.9019E+02
      0.472  0.9103E+01  0.9090E+02
      0.562  0.9905E+01  0.9177E+02
      0.651  0.1220E+02  0.9272E+02
      0.741  0.8274E+01  0.9360E+02
      0.830  0.7771E+01  0.9428E+02
      0.920  0.7876E+01  0.9498E+02
      1.009  0.7330E+01  0.9568E+02
      1.099  0.1011E+02  0.9634E+02
      1.188  0.1068E+02  0.9735E+02
      1.278  0.1085E+02  0.9832E+02
      1.367  0.1261E+02  0.9934E+02
      1.457  0.9090E+01  0.1004E+03
      1.546  0.9676E+01  0.1012E+03
      1.636  0.1424E+02  0.1024E+03
      1.725  0.1273E+02  0.1035E+03
      1.815  0.1057E+02  0.1046E+03
      1.904  0.9759E+01  0.1055E+03
      1.994  0.8797E+01  0.1063E+03
      2.083  0.6574E+01  0.1070E+03
      2.173  0.6486E+01  0.1075E+03
      2.263  0.7536E+01  0.1082E+03
      2.352  0.1032E+02  0.1089E+03
      2.442  0.9624E+01  0.1099E+03
      2.531  0.6965E+01  0.1106E+03
      2.621  0.7067E+01  0.1112E+03
      2.710  0.9437E+01  0.1120E+03
      2.800  0.1412E+02  0.1130E+03
      2.889  0.1693E+02  0.1145E+03
      2.979  0.1028E+02  0.1158E+03
      3.068  0.5125E+01  0.1166E+03
      3.158  0.3998E+01  0.1169E+03
      3.247  0.4444E+01  0.1173E+03
      3.337  0.4771E+01  0.1177E+03
      3.426  0.3761E+01  0.1181E+03
      3.516  0.3664E+01  0.1184E+03
      3.605  0.2624E+01  0.1187E+03
      3.695  0.2196E+01  0.1189E+03
      3.784  0.2799E+01  0.1191E+03
      3.874  0.1254E+02  0.1198E+03
      3.963  0.1837E+02  0.1218E+03
      4.053  0.1005E+02  0.1232E+03
      4.142  0.2552E+01  0.1235E+03
      4.232  0.1576E+01  0.1237E+03
      4.321  0.1247E+01  0.1238E+03
      4.411  0.1755E+01  0.1239E+03
      4.500  0.8198E-01  0.1240E+03
      4.590  0.0000E+00  0.1240E+03
      4.679  0.0000E+00  0.1240E+03
      4.769  0.0000E+00  0.1240E+03
      4.858  0.6346E-02  0.1240E+03
      4.948  0.2992E-01  0.1240E+03
      5.037  0.6757E-01  0.1240E+03
      5.127  0.1187E+00  0.1240E+03
      5.216  0.1882E+00  0.1240E+03
      5.306  0.2672E+00  0.1240E+03
      5.396  0.3508E+00  0.1241E+03
      5.485  0.5039E+00  0.1241E+03
      5.575  0.1376E+01  0.1242E+03
      5.664  0.2489E+01  0.1244E+03
      5.754  0.3688E+01  0.1246E+03
      5.843  0.4599E+01  0.1250E+03
      5.933  0.5891E+01  0.1255E+03
      6.022  0.7562E+01  0.1261E+03
      6.112  0.6589E+01  0.1267E+03
      6.201  0.7923E+01  0.1273E+03
      6.291  0.8821E+01  0.1281E+03
      6.380  0.8124E+01  0.1290E+03
      6.470  0.5511E+01  0.1295E+03
      6.559  0.9073E+01  0.1301E+03
      6.649  0.9674E+01  0.1311E+03
      6.738  0.9908E+01  0.1319E+03
      6.828  0.0000E+00  0.1320E+03
      6.917  0.3789E+00  0.1320E+03
      7.007  0.1203E+01  0.1321E+03
      7.096  0.2363E+01  0.1322E+03
      7.186  0.3107E+01  0.1325E+03
      7.275  0.2813E+01  0.1328E+03
      7.365  0.2990E+01  0.1330E+03
      7.454  0.3298E+01  0.1333E+03
      7.544  0.3559E+01  0.1336E+03
      7.633  0.4136E+01  0.1339E+03
      7.723  0.4961E+01  0.1344E+03
      7.812  0.9213E+01  0.1349E+03
      7.902  0.4102E+01  0.1356E+03
      7.991  0.6791E+01  0.1360E+03
      8.081  0.9816E+00  0.1361E+03
      8.170  0.1261E+01  0.1362E+03
      8.260  0.1088E+01  0.1363E+03
      8.349  0.1093E+01  0.1364E+03
      8.439  0.1933E+01  0.1366E+03
      8.529  0.5052E+01  0.1369E+03
      8.618  0.1157E+02  0.1375E+03
      8.708  0.1358E+02  0.1387E+03
      8.797  0.1237E+02  0.1399E+03
      8.887  0.6659E+01  0.1408E+03
      8.976  0.6022E+01  0.1413E+03
      9.066  0.9440E+01  0.1420E+03
      9.155  0.7301E+01  0.1428E+03
      9.245  0.6892E+01  0.1434E+03
      9.334  0.7410E+01  0.1440E+03
      9.424  0.1033E+02  0.1448E+03
      9.513  0.1352E+02  0.1460E+03
      9.603  0.1198E+02  0.1471E+03
      9.692  0.1265E+02  0.1482E+03
      9.782  0.1495E+02  0.1496E+03
      9.871  0.1292E+02  0.1507E+03
      9.961  0.7318E+01  0.1515E+03
     10.050  0.4203E+01  0.1520E+03
     10.140  0.4068E+01  0.1524E+03
     10.229  0.4286E+01  0.1527E+03
     10.319  0.8664E+01  0.1534E+03
     10.408  0.8304E+01  0.1541E+03
     10.498  0.9046E+01  0.1549E+03
     10.587  0.8437E+01  0.1557E+03
     10.677  0.7164E+01  0.1564E+03
     10.766  0.8045E+01  0.1571E+03
     10.856  0.8527E+01  0.1579E+03
     10.945  0.7775E+01  0.1586E+03
     11.035  0.5890E+01  0.1593E+03
     11.124  0.1755E+01  0.1596E+03
     11.214  0.1118E+01  0.1598E+03
     11.303  0.9457E+00  0.1598E+03
     11.393  0.7268E+00  0.1599E+03
     11.482  0.4089E+00  0.1600E+03
     11.572  0.5046E-01  0.1600E+03
     11.661  0.0000E+00  0.1600E+03
     11.751  0.0000E+00  0.1600E+03
     11.841  0.0000E+00  0.1600E+03
     11.930  0.0000E+00  0.1600E+03
     12.020  0.0000E+00  0.1600E+03
     12.109  0.0000E+00  0.1600E+03
     12.199  0.0000E+00  0.1600E+03
     12.288  0.0000E+00  0.1600E+03
     12.378  0.0000E+00  0.1600E+03
     12.467  0.0000E+00  0.1600E+03
     12.557  0.0000E+00  0.1600E+03
     12.646  0.0000E+00  0.1600E+03
     12.736  0.0000E+00  0.1600E+03
     12.825  0.0000E+00  0.1600E+03
     12.915  0.0000E+00  0.1600E+03
     13.004  0.0000E+00  0.1600E+03
     13.094  0.0000E+00  0.1600E+03
     13.183  0.0000E+00  0.1600E+03
     13.273  0.0000E+00  0.1600E+03
     13.362  0.0000E+00  0.1600E+03
     13.452  0.0000E+00  0.1600E+03
     13.541  0.0000E+00  0.1600E+03
     13.631  0.0000E+00  0.1600E+03
