       N       E                     dE             d eps       ncg     rms          rms(c)
DAV:   1     0.132374552256E+04    0.13237E+04   -0.52535E+04  9136   0.174E+03
DAV:   2     0.197476710721E+03   -0.11263E+04   -0.10774E+04  9128   0.479E+02
DAV:   3    -0.349576915465E+02   -0.23243E+03   -0.22178E+03 10312   0.203E+02
DAV:   4    -0.558703660310E+02   -0.20913E+02   -0.20610E+02 11440   0.597E+01
DAV:   5    -0.568191427049E+02   -0.94878E+00   -0.94630E+00 12200   0.138E+01    0.195E+01
DAV:   6    -0.533295771833E+02    0.34896E+01   -0.54373E+00 14512   0.385E+01    0.137E+01
DAV:   7    -0.534574770033E+02   -0.12790E+00   -0.73713E+00 13432   0.135E+01    0.365E+00
DAV:   8    -0.532943867660E+02    0.16309E+00   -0.11264E+00 12904   0.661E+00    0.302E+00
DAV:   9    -0.532992270621E+02   -0.48403E-02   -0.16788E-01 11768   0.141E+00    0.159E+00
DAV:  10    -0.532976573679E+02    0.15697E-02   -0.19046E-02 12456   0.119E+00    0.103E+00
DAV:  11    -0.532981954036E+02   -0.53804E-03   -0.52878E-03 11080   0.339E-01    0.222E-01
DAV:  12    -0.532981661197E+02    0.29284E-04   -0.13505E-03 12248   0.184E-01    0.206E-01
DAV:  13    -0.532981757037E+02   -0.95839E-05   -0.12769E-04 13128   0.451E-02    0.199E-01
DAV:  14    -0.532982175028E+02   -0.41799E-04   -0.50479E-05 11944   0.426E-02    0.124E-01
DAV:  15    -0.532982142604E+02    0.32424E-05   -0.55317E-05 11504   0.753E-02    0.121E-01
DAV:  16    -0.532982013691E+02    0.12891E-04   -0.27179E-05 11336   0.204E-02    0.115E-01
DAV:  17    -0.532981929193E+02    0.84499E-05   -0.92597E-06 13568   0.159E-02    0.884E-02
DAV:  18    -0.532981930864E+02   -0.16713E-06   -0.11785E-06 10000   0.408E-03    0.874E-02
DAV:  19    -0.532981930499E+02    0.36536E-07   -0.28515E-08  5784   0.917E-04
   1 F= -.57503000E+02 E0= -.57503000E+02  d E =0.000000E+00
