 vasp.5.4.4.18Apr17-6-g9f103f2a35 (build Feb 10 2022 16:34:21) complex          
  
 executed on         VASP-optcell date 2026.09.03  21:57:47
 running on    8 total cores
 distrk:  each k-point on    8 cores,    1 groups
 distr:  one band on NCORES_PER_BAND=   1 cores,    8 groups


--------------------------------------------------------------------------------------------------------


 INCAR:
 POTCAR:    PAW_PBE In_d 06Sep2000                
 POTCAR:    PAW_PBE Zn 06Sep2000                  
 POTCAR:    PAW_PBE S 06Sep2000                   

 ----------------------------------------------------------------------------- 
|                                                                             |
|           W    W    AA    RRRRR   N    N  II  N    N   GGGG   !!!           |
|           W    W   A  A   R    R  NN   N  II  NN   N  G    G  !!!           |
|           W    W  A    A  R    R  N N  N  II  N N  N  G       !!!           |
|           W WW W  AAAAAA  RRRRR   N  N N  II  N  N N  G  GGG   !            |
|           WW  WW  A    A  R   R   N   NN  II  N   NN  G    G                |
|           W    W  A    A  R    R  N    N  II  N    N   GGGG   !!!           |
|                                                                             |
|      For optimal performance we recommend to set                            |
|        NCORE= 4 - approx SQRT( number of cores)                             |
|      NCORE specifies how many cores store one orbital (NPAR=cpu/NCORE).     |
|      This setting can  greatly improve the performance of VASP for DFT.     |
|      The default,   NCORE=1            might be grossly inefficient         |
|      on modern multi-core architectures or massively parallel machines.     |
|      Do your own testing !!!!                                               |
|      Unfortunately you need to use the default for GW and RPA calculations. |
|      (for HF NCORE is supported but not extensively tested yet)             |
|                                                                             |
 ----------------------------------------------------------------------------- 

 POTCAR:    PAW_PBE In_d 06Sep2000                
   VRHFIN =In: s2p1                                                             
   LEXCH  = PE                                                                  
   EATOM  =  1576.8302 eV,  115.8937 Ry                                         
                                                                                
   TITEL  = PAW_PBE In_d 06Sep2000                                              
   LULTRA =        F    use ultrasoft PP ?                                      
   IUNSCR =        1    unscreen: 0-lin 1-nonlin 2-no                           
   RPACOR =    2.200    partial core radius                                     
   POMASS =  114.820; ZVAL   =   13.000    mass and valenz                      
   RCORE  =    2.500    outmost cutoff radius                                   
   RWIGS  =    3.170; RWIGS  =    1.677    wigner-seitz radius (au A)           
   ENMAX  =  239.211; ENMIN  =  179.409 eV                                      
   ICORE  =        3    local potential                                         
   LCOR   =        T    correct aug charges                                     
   LPAW   =        T    paw PP                                                  
   EAUG   =  449.704                                                            
   DEXC   =    0.000                                                            
   RMAX   =    2.552    core radius for proj-oper                               
   RAUG   =    1.300    factor for augmentation sphere                          
   RDEP   =    2.630    radius for radial grids                                 
   RDEPT  =    2.033    core radius for aug-charge                              
                                                                                
   Atomic configuration                                                         
   12 entries                                                                   
     n  l   j            E        occ.                                          
     1  0  0.50    -27747.9169   2.0000                                         
     2  0  0.50     -4154.4438   2.0000                                         
     2  1  1.50     -3728.4305   6.0000                                         
     3  0  0.50      -788.3680   2.0000                                         
     3  1  1.50      -648.9215   6.0000                                         
     3  2  2.50      -432.5893  10.0000                                         
     4  0  0.50      -119.6363   2.0000                                         
     4  1  1.50       -78.1086   6.0000                                         
     4  2  2.50       -18.6227  10.0000                                         
     5  0  0.50        -8.2107   2.0000                                         
     5  1  0.50        -2.5185   1.0000                                         
     4  3  2.50        -2.7212   0.0000                                         
   Description                                                                  
     l       E           TYP  RCUT    TYP  RCUT                                 
     2    -18.6226981     23  2.500                                             
     2     -1.3605826     23  2.500                                             
     0     -8.2107305     23  2.500                                             
     0     -6.1485975     23  2.500                                             
     1     -2.5184867     23  2.500                                             
     1      3.2427302     23  2.500                                             
     3     -1.3605826      7  2.500                                             
  local pseudopotential read in
  partial core-charges read in
  partial kinetic energy density read in
  atomic valenz-charges read in
  non local Contribution for L=           2  read in
    real space projection operators read in
  non local Contribution for L=           2  read in
    real space projection operators read in
  non local Contribution for L=           0  read in
    real space projection operators read in
  non local Contribution for L=           0  read in
    real space projection operators read in
  non local Contribution for L=           1  read in
    real space projection operators read in
  non local Contribution for L=           1  read in
    real space projection operators read in
    PAW grid and wavefunctions read in
 
   number of l-projection  operators is LMAX  =           6
   number of lm-projection operators is LMMAX =          18
 
 POTCAR:    PAW_PBE Zn 06Sep2000                  
   VRHFIN =Zn: d10 p2                                                           
   LEXCH  = PE                                                                  
   EATOM  =  1748.8345 eV,  128.5357 Ry                                         
                                                                                
   TITEL  = PAW_PBE Zn 06Sep2000                                                
   LULTRA =        F    use ultrasoft PP ?                                      
   IUNSCR =        1    unscreen: 0-lin 1-nonlin 2-no                           
   RPACOR =    2.000    partial core radius                                     
   POMASS =   65.390; ZVAL   =   12.000    mass and valenz                      
   RCORE  =    2.300    outmost cutoff radius                                   
   RWIGS  =    2.400; RWIGS  =    1.270    wigner-seitz radius (au A)           
   ENMAX  =  276.723; ENMIN  =  207.542 eV                                      
   RCLOC  =    1.828    cutoff for local pot                                    
   LCOR   =        T    correct aug charges                                     
   LPAW   =        T    paw PP                                                  
   EAUG   =  575.892                                                            
   DEXC   =    0.000                                                            
   RMAX   =    2.347    core radius for proj-oper                               
   RAUG   =    1.300    factor for augmentation sphere                          
   RDEP   =    2.324    radius for radial grids                                 
   RDEPT  =    1.788    core radius for aug-charge                              
                                                                                
   Atomic configuration                                                         
    9 entries                                                                   
     n  l   j            E        occ.                                          
     1  0  0.50     -9524.6913   2.0000                                         
     2  0  0.50     -1158.1882   2.0000                                         
     2  1  1.50     -1003.8506   6.0000                                         
     3  0  0.50      -129.2194   2.0000                                         
     3  1  1.50       -83.3890   6.0000                                         
     3  2  2.50       -10.1410  10.0000                                         
     4  0  0.50        -5.9785   2.0000                                         
     4  1  0.50        -4.0817   0.0000                                         
     4  3  2.50        -1.3606   0.0000                                         
   Description                                                                  
     l       E           TYP  RCUT    TYP  RCUT                                 
     2    -10.1410010     23  2.300                                             
     2    -11.5015836     23  2.300                                             
     0     -5.9785163     23  2.300                                             
     0      1.1858015     23  2.300                                             
     1     -2.7211652     23  2.300                                             
     1     13.2444212     23  2.300                                             
  local pseudopotential read in
  partial core-charges read in
  partial kinetic energy density read in
  atomic valenz-charges read in
  non local Contribution for L=           2  read in
    real space projection operators read in
  non local Contribution for L=           2  read in
    real space projection operators read in
  non local Contribution for L=           0  read in
    real space projection operators read in
  non local Contribution for L=           0  read in
    real space projection operators read in
  non local Contribution for L=           1  read in
    real space projection operators read in
  non local Contribution for L=           1  read in
    real space projection operators read in
    PAW grid and wavefunctions read in
 
   number of l-projection  operators is LMAX  =           6
   number of lm-projection operators is LMMAX =          18
 
 POTCAR:    PAW_PBE S 06Sep2000                   
   VRHFIN =S : s2p4                                                             
   LEXCH  = PE                                                                  
   EATOM  =   276.8230 eV,   20.3459 Ry                                         
                                                                                
   TITEL  = PAW_PBE S 06Sep2000                                                 
   LULTRA =        F    use ultrasoft PP ?                                      
   IUNSCR =        1    unscreen: 0-lin 1-nonlin 2-no                           
   RPACOR =    1.500    partial core radius                                     
   POMASS =   32.066; ZVAL   =    6.000    mass and valenz                      
   RCORE  =    1.900    outmost cutoff radius                                   
   RWIGS  =    2.200; RWIGS  =    1.164    wigner-seitz radius (au A)           
   ENMAX  =  258.689; ENMIN  =  194.016 eV                                      
   ICORE  =        2    local potential                                         
   LCOR   =        T    correct aug charges                                     
   LPAW   =        T    paw PP                                                  
   EAUG   =  335.092                                                            
   DEXC   =    0.000                                                            
   RMAX   =    1.942    core radius for proj-oper                               
   RAUG   =    1.300    factor for augmentation sphere                          
   RDEP   =    1.954    radius for radial grids                                 
   RDEPT  =    1.744    core radius for aug-charge                              
                                                                                
   Atomic configuration                                                         
    6 entries                                                                   
     n  l   j            E        occ.                                          
     1  0  0.50     -2405.8406   2.0000                                         
     2  0  0.50      -211.7007   2.0000                                         
     2  1  1.50      -156.4958   6.0000                                         
     3  0  0.50       -17.2562   2.0000                                         
     3  1  0.50        -7.0085   4.0000                                         
     3  2  1.50        -6.8029   0.0000                                         
   Description                                                                  
     l       E           TYP  RCUT    TYP  RCUT                                 
     0    -17.2561641     23  1.900                                             
     0    -15.8743224     23  1.900                                             
     1     -7.0085400     23  1.900                                             
     1     -2.7779785     23  1.900                                             
     2     -6.8029130     23  1.900                                             
  local pseudopotential read in
  partial core-charges read in
  partial kinetic energy density read in
  atomic valenz-charges read in
  non local Contribution for L=           0  read in
    real space projection operators read in
  non local Contribution for L=           0  read in
    real space projection operators read in
  non local Contribution for L=           1  read in
    real space projection operators read in
  non local Contribution for L=           1  read in
    real space projection operators read in
    PAW grid and wavefunctions read in
 
   number of l-projection  operators is LMAX  =           4
   number of lm-projection operators is LMMAX =           8
 
  PAW_PBE In_d 06Sep2000                :
 energy of atom  1       EATOM=-1576.8302
 kinetic energy error for atom=    0.0036 (will be added to EATOM!!)
  PAW_PBE Zn 06Sep2000                  :
 energy of atom  2       EATOM=-1748.8345
 kinetic energy error for atom=    0.0029 (will be added to EATOM!!)
  PAW_PBE S 06Sep2000                   :
 energy of atom  3       EATOM= -276.8230
 kinetic energy error for atom=    0.0020 (will be added to EATOM!!)
 
 
 POSCAR: In2 S4 Zn                               
  positions in direct lattice
  velocities in cartesian coordinates
 exchange correlation table for  LEXCH =        8
   RHO(1)=    0.500       N(1)  =     2000
   RHO(2)=  100.500       N(2)  =     4000
 


--------------------------------------------------------------------------------------------------------


 ion  position               nearest neighbor table
   1  0.333  0.667  0.093-  11 2.45   9 2.49   9 2.49   9 2.49
   2  0.667  0.333  0.593-  12 2.45  10 2.49  10 2.49  10 2.49
   3  0.667  0.333  0.257-  13 2.57  13 2.57  13 2.57  11 2.71  11 2.71  11 2.71
   4  0.333  0.667  0.757-  14 2.57  14 2.57  14 2.57  12 2.71  12 2.71  12 2.71
   5  0.000  0.000  0.413-   7 2.31   7 2.31   7 2.31  13 2.54
   6  0.000  0.000  0.913-   8 2.31   8 2.31   8 2.31  14 2.54
   7  0.667  0.333  0.435-   5 2.31   5 2.31   5 2.31
   8  0.333  0.667  0.935-   6 2.31   6 2.31   6 2.31
   9  0.000  0.000  0.049-   1 2.49   1 2.49   1 2.49
  10  0.000  0.000  0.549-   2 2.49   2 2.49   2 2.49
  11  0.333  0.667  0.194-   1 2.45   3 2.71   3 2.71   3 2.71
  12  0.667  0.333  0.694-   2 2.45   4 2.71   4 2.71   4 2.71
  13  0.000  0.000  0.309-   5 2.54   3 2.57   3 2.57   3 2.57
  14  0.000  0.000  0.809-   6 2.54   4 2.57   4 2.57   4 2.57
 
  LATTYP: Found a hexagonal cell.
 ALAT       =     3.8833466124
 C/A-ratio  =     6.2708217685
  
  Lattice vectors:
  
 A1 = (   3.8833466123,   0.0000000000,   0.0000000000)
 A2 = (  -1.9416733062,   3.3630768180,   0.0000000000)
 A3 = (   0.0000000000,   0.0000000000,  24.3517744715)


Analysis of symmetry for initial positions (statically):
=====================================================================
 Subroutine PRICEL returns:
 Original cell was already a primitive cell.
 

 Routine SETGRP: Setting up the symmetry group for a 
 hexagonal supercell.


 Subroutine GETGRP returns: Found 12 space group operations
 (whereof  6 operations were pure point group operations)
 out of a pool of 24 trial point group operations.


The static configuration has the point symmetry C_3v.
 The point group associated with its full space group is C_6v.


Analysis of symmetry for dynamics (positions and initial velocities):
=====================================================================
 Subroutine PRICEL returns:
 Original cell was already a primitive cell.
 

 Routine SETGRP: Setting up the symmetry group for a 
 hexagonal supercell.


 Subroutine GETGRP returns: Found 12 space group operations
 (whereof  6 operations were pure point group operations)
 out of a pool of 24 trial point group operations.


The dynamic configuration has the point symmetry C_3v.
 The point group associated with its full space group is C_6v.


 Subroutine INISYM returns: Found 12 space group operations
 (whereof  6 operations are pure point group operations),
 and found     1 'primitive' translations

 
 
 KPOINTS: K-point convergence                     

Automatic generation of k-mesh.
Space group operators:
 irot       det(A)        alpha          n_x          n_y          n_z        tau_x        tau_y        tau_z
    1     1.000000     0.000000     1.000000     0.000000     0.000000     0.000000     0.000000     0.000000
    2     1.000000   120.000000     0.000000     0.000000    -1.000000     0.000000     0.000000     0.000000
    3     1.000000   120.000000     0.000000     0.000000     1.000000     0.000000     0.000000     0.000000
    4    -1.000000   180.000000     1.000000     0.000000     0.000000     0.000000     0.000000     0.000000
    5    -1.000000   180.000000     0.500000    -0.866025     0.000000     0.000000     0.000000     0.000000
    6    -1.000000   180.000000    -0.500000    -0.866025     0.000000     0.000000     0.000000     0.000000
    7     1.000000    60.000000     0.000000     0.000000    -1.000000     0.000000     0.000000     0.500000
    8     1.000000   180.000000     0.000000     0.000000     1.000000     0.000000     0.000000     0.500000
    9     1.000000    60.000000     0.000000     0.000000     1.000000     0.000000     0.000000     0.500000
   10    -1.000000   180.000000     0.866025    -0.500000     0.000000     0.000000     0.000000     0.500000
   11    -1.000000   180.000000     0.000000     1.000000     0.000000     0.000000     0.000000     0.500000
   12    -1.000000   180.000000     0.866025     0.500000     0.000000     0.000000     0.000000     0.500000
 
 Subroutine IBZKPT returns following result:
 ===========================================
 
 Found     57 irreducible k-points:
 
 Following reciprocal coordinates:
            Coordinates               Weight
  0.000000  0.000000  0.000000      1.000000
  0.083333  0.000000  0.000000      6.000000
  0.166667  0.000000  0.000000      6.000000
  0.250000  0.000000  0.000000      6.000000
  0.333333  0.000000  0.000000      6.000000
  0.416667  0.000000  0.000000      6.000000
  0.500000  0.000000  0.000000      3.000000
  0.083333  0.083333  0.000000      6.000000
  0.166667  0.083333  0.000000     12.000000
  0.250000  0.083333  0.000000     12.000000
  0.333333  0.083333  0.000000     12.000000
  0.416667  0.083333  0.000000     12.000000
  0.166667  0.166667  0.000000      6.000000
  0.250000  0.166667  0.000000     12.000000
  0.333333  0.166667  0.000000     12.000000
  0.416667  0.166667  0.000000      6.000000
  0.250000  0.250000  0.000000      6.000000
  0.333333  0.250000  0.000000     12.000000
  0.333333  0.333333  0.000000      2.000000
  0.000000  0.000000  0.250000      2.000000
  0.083333  0.000000  0.250000     12.000000
  0.166667  0.000000  0.250000     12.000000
  0.250000  0.000000  0.250000     12.000000
  0.333333  0.000000  0.250000     12.000000
  0.416667  0.000000  0.250000     12.000000
  0.500000  0.000000  0.250000      6.000000
  0.083333  0.083333  0.250000     12.000000
  0.166667  0.083333  0.250000     24.000000
  0.250000  0.083333  0.250000     24.000000
  0.333333  0.083333  0.250000     24.000000
  0.416667  0.083333  0.250000     24.000000
  0.166667  0.166667  0.250000     12.000000
  0.250000  0.166667  0.250000     24.000000
  0.333333  0.166667  0.250000     24.000000
  0.416667  0.166667  0.250000     12.000000
  0.250000  0.250000  0.250000     12.000000
  0.333333  0.250000  0.250000     24.000000
  0.333333  0.333333  0.250000      4.000000
  0.000000  0.000000  0.500000      1.000000
  0.083333  0.000000  0.500000      6.000000
  0.166667  0.000000  0.500000      6.000000
  0.250000  0.000000  0.500000      6.000000
  0.333333  0.000000  0.500000      6.000000
  0.416667  0.000000  0.500000      6.000000
  0.500000  0.000000  0.500000      3.000000
  0.083333  0.083333  0.500000      6.000000
  0.166667  0.083333  0.500000     12.000000
  0.250000  0.083333  0.500000     12.000000
  0.333333  0.083333  0.500000     12.000000
  0.416667  0.083333  0.500000     12.000000
  0.166667  0.166667  0.500000      6.000000
  0.250000  0.166667  0.500000     12.000000
  0.333333  0.166667  0.500000     12.000000
  0.416667  0.166667  0.500000      6.000000
  0.250000  0.250000  0.500000      6.000000
  0.333333  0.250000  0.500000     12.000000
  0.333333  0.333333  0.500000      2.000000
 
 Following cartesian coordinates:
            Coordinates               Weight
  0.000000  0.000000  0.000000      1.000000
  0.021459  0.012389  0.000000      6.000000
  0.042918  0.024779  0.000000      6.000000
  0.064377  0.037168  0.000000      6.000000
  0.085837  0.049558  0.000000      6.000000
  0.107296  0.061947  0.000000      6.000000
  0.128755  0.074337  0.000000      3.000000
  0.021459  0.037168  0.000000      6.000000
  0.042918  0.049558  0.000000     12.000000
  0.064377  0.061947  0.000000     12.000000
  0.085837  0.074337  0.000000     12.000000
  0.107296  0.086726  0.000000     12.000000
  0.042918  0.074337  0.000000      6.000000
  0.064377  0.086726  0.000000     12.000000
  0.085837  0.099116  0.000000     12.000000
  0.107296  0.111505  0.000000      6.000000
  0.064377  0.111505  0.000000      6.000000
  0.085837  0.123894  0.000000     12.000000
  0.085837  0.148673  0.000000      2.000000
  0.000000  0.000000  0.010266      2.000000
  0.021459  0.012389  0.010266     12.000000
  0.042918  0.024779  0.010266     12.000000
  0.064377  0.037168  0.010266     12.000000
  0.085837  0.049558  0.010266     12.000000
  0.107296  0.061947  0.010266     12.000000
  0.128755  0.074337  0.010266      6.000000
  0.021459  0.037168  0.010266     12.000000
  0.042918  0.049558  0.010266     24.000000
  0.064377  0.061947  0.010266     24.000000
  0.085837  0.074337  0.010266     24.000000
  0.107296  0.086726  0.010266     24.000000
  0.042918  0.074337  0.010266     12.000000
  0.064377  0.086726  0.010266     24.000000
  0.085837  0.099116  0.010266     24.000000
  0.107296  0.111505  0.010266     12.000000
  0.064377  0.111505  0.010266     12.000000
  0.085837  0.123894  0.010266     24.000000
  0.085837  0.148673  0.010266      4.000000
  0.000000  0.000000  0.020532      1.000000
  0.021459  0.012389  0.020532      6.000000
  0.042918  0.024779  0.020532      6.000000
  0.064377  0.037168  0.020532      6.000000
  0.085837  0.049558  0.020532      6.000000
  0.107296  0.061947  0.020532      6.000000
  0.128755  0.074337  0.020532      3.000000
  0.021459  0.037168  0.020532      6.000000
  0.042918  0.049558  0.020532     12.000000
  0.064377  0.061947  0.020532     12.000000
  0.085837  0.074337  0.020532     12.000000
  0.107296  0.086726  0.020532     12.000000
  0.042918  0.074337  0.020532      6.000000
  0.064377  0.086726  0.020532     12.000000
  0.085837  0.099116  0.020532     12.000000
  0.107296  0.111505  0.020532      6.000000
  0.064377  0.111505  0.020532      6.000000
  0.085837  0.123894  0.020532     12.000000
  0.085837  0.148673  0.020532      2.000000
 
 TETIRR: Found    586 inequivalent tetrahedra from     3456


--------------------------------------------------------------------------------------------------------




 Dimension of arrays:
   k-points           NKPTS =     57   k-points in BZ     NKDIM =     57   number of bands    NBANDS=     80
   number of dos      NEDOS =    301   number of ions     NIONS =     14
   non local maximal  LDIM  =      6   non local SUM 2l+1 LMDIM =     18
   total plane-waves  NPLWV = 141120
   max r-space proj   IRMAX =      1   max aug-charges    IRDMAX= 153514
   dimension x,y,z NGX =    28 NGY =   28 NGZ =  180
   dimension x,y,z NGXF=    56 NGYF=   56 NGZF=  360
   support grid    NGXF=   112 NGYF=  112 NGZF=  720
   ions per type =               4   2   8
   NGX,Y,Z   is equivalent  to a cutoff of  11.99, 11.99, 12.29 a.u.
   NGXF,Y,Z  is equivalent  to a cutoff of  23.97, 23.97, 24.58 a.u.

 SYSTEM =  ZnIn2S4 bulk final static SCF           
 POSCAR =  In2 S4 Zn                               

 Startparameter for this run:
   NWRITE =      2    write-flag & timer
   PREC   = accura    normal or accurate (medium, high low for compatibility)
   ISTART =      0    job   : 0-new  1-cont  2-samecut
   ICHARG =      2    charge: 1-file 2-atom 10-const
   ISPIN  =      1    spin polarized calculation?
   LNONCOLLINEAR =      F non collinear calculations
   LSORBIT =      F    spin-orbit coupling
   INIWAV =      1    electr: 0-lowe 1-rand  2-diag
   LASPH  =      T    aspherical Exc in radial PAW
   METAGGA=      F    non-selfconsistent MetaGGA calc.

 Electronic Relaxation 1
   ENCUT  =  500.0 eV  36.75 Ry    6.06 a.u.   7.08  7.08 44.40*2*pi/ulx,y,z
   ENINI  =  500.0     initial cutoff
   ENAUG  =  575.9 eV  augmentation charge cutoff
   NELM   =    150;   NELMIN=  2; NELMDL= -5     # of ELM steps 
   EDIFF  = 0.1E-06   stopping-criterion for ELM
   LREAL  =      F    real-space projection
   NLSPLINE    = F    spline interpolate recip. space projectors
   LCOMPAT=      F    compatible to vasp.4.4
   GGA_COMPAT  = T    GGA compatible to vasp.4.4-vasp.4.6
   LMAXPAW     = -100 max onsite density
   LMAXMIX     =    2 max onsite mixed and CHGCAR
   VOSKOWN=      0    Vosko Wilk Nusair interpolation
   ROPT   =    0.00000   0.00000   0.00000
 Ionic relaxation
   EDIFFG = 0.1E-05   stopping-criterion for IOM
   NSW    =      0    number of steps for IOM
   NBLOCK =      1;   KBLOCK =      1    inner block; outer block 
   IBRION =     -1    ionic relax: 0-MD 1-quasi-New 2-CG
   NFREE  =      0    steps in history (QN), initial steepest desc. (CG)
   ISIF   =      2    stress and relaxation
   IWAVPR =     10    prediction:  0-non 1-charg 2-wave 3-comb
   ISYM   =      2    0-nonsym 1-usesym 2-fastsym
   LCORR  =      T    Harris-Foulkes like correction to forces

   POTIM  = 0.5000    time-step for ionic-motion
   TEIN   =    0.0    initial temperature
   TEBEG  =    0.0;   TEEND  =   0.0 temperature during run
   SMASS  =  -3.00    Nose mass-parameter (am)
   estimated Nose-frequenzy (Omega)   =  0.10E-29 period in steps =****** mass=  -0.345E-27a.u.
   SCALEE = 1.0000    scale energy and forces
   NPACO  =    256;   APACO  = 16.0  distance and # of slots for P.C.
   PSTRESS=    0.0 pullay stress

  Mass of Ions in am
   POMASS = 114.82 65.39 32.07
  Ionic Valenz
   ZVAL   =  13.00 12.00  6.00
  Atomic Wigner-Seitz radii
   RWIGS  =  -1.00 -1.00 -1.00
  virtual crystal weights 
   VCA    =   1.00  1.00  1.00
   NELECT =     124.0000    total number of electrons
   NUPDOWN=      -1.0000    fix difference up-down

 DOS related values:
   EMIN   =  10.00;   EMAX   =-10.00  energy-range for DOS
   EFERMI =   0.00
   ISMEAR =    -5;   SIGMA  =   0.20  broadening in eV -4-tet -1-fermi 0-gaus

 Electronic relaxation 2 (details)
   IALGO  =     38    algorithm
   LDIAG  =      T    sub-space diagonalisation (order eigenvalues)
   LSUBROT=      F    optimize rotation matrix (better conditioning)
   TURBO    =      0    0=normal 1=particle mesh
   IRESTART =      0    0=no restart 2=restart with 2 vectors
   NREBOOT  =      0    no. of reboots
   NMIN     =      0    reboot dimension
   EREF     =   0.00    reference energy to select bands
   IMIX   =      4    mixing-type and parameters
     AMIX     =   0.40;   BMIX     =  1.00
     AMIX_MAG =   1.60;   BMIX_MAG =  1.00
     AMIN     =   0.10
     WC   =   100.;   INIMIX=   1;  MIXPRE=   1;  MAXMIX= -45

 Intra band minimization:
   WEIMIN = 0.0000     energy-eigenvalue tresh-hold
   EBREAK =  0.31E-09  absolut break condition
   DEPER  =   0.30     relativ break condition  

   TIME   =   0.40     timestep for ELM

  volume/ion in A,a.u.               =      22.72       153.30
  Fermi-wavevector in a.u.,A,eV,Ry     =   1.195981  2.260076 19.461366  1.430370
  Thomas-Fermi vector in A             =   2.331933
 
 Write flags
   LWAVE        =      F    write WAVECAR
   LDOWNSAMPLE  =      F    k-point downsampling of WAVECAR
   LCHARG       =      T    write CHGCAR
   LVTOT        =      F    write LOCPOT, total local potential
   LVHAR        =      F    write LOCPOT, Hartree potential only
   LELF         =      F    write electronic localiz. function (ELF)
   LORBIT       =      0    0 simple, 1 ext, 2 COOP (PROOUT), +10 PAW based schemes


 Dipole corrections
   LMONO  =      F    monopole corrections only (constant potential shift)
   LDIPOL =      F    correct potential (dipole corrections)
   IDIPOL =      0    1-x, 2-y, 3-z, 4-all directions 
   EPSILON=  1.0000000 bulk dielectric constant

 Exchange correlation treatment:
   GGA     =    PE    GGA type
   LEXCH   =     8    internal setting for exchange type
   VOSKOWN=      0    Vosko Wilk Nusair interpolation
   LHFCALC =     F    Hartree Fock is set to
   LHFONE  =     F    Hartree Fock one center treatment
   AEXX    =    0.0000 exact exchange contribution

 Linear response parameters
   LEPSILON=     F    determine dielectric tensor
   LRPA    =     F    only Hartree local field effects (RPA)
   LNABLA  =     F    use nabla operator in PAW spheres
   LVEL    =     F    velocity operator in full k-point grid
   LINTERFAST=   F  fast interpolation
   KINTER  =     0    interpolate to denser k-point grid
   CSHIFT  =0.1000    complex shift for real part using Kramers Kronig
   OMEGAMAX=  -1.0    maximum frequency
   DEG_THRESHOLD= 0.2000000E-02 threshold for treating states as degnerate
   RTIME   =   -0.100 relaxation time in fs
  (WPLASMAI=    0.000 imaginary part of plasma frequency in eV, 0.658/RTIME)
   DFIELD  = 0.0000000 0.0000000 0.0000000 field for delta impulse in time
 
 Orbital magnetization related:
   ORBITALMAG=     F  switch on orbital magnetization
   LCHIMAG   =     F  perturbation theory with respect to B field
   DQ        =  0.001000  dq finite difference perturbation B field
   LLRAUG    =     F  two centre corrections for induced B field



--------------------------------------------------------------------------------------------------------


 Static calculation
 charge density and potential will be updated during run
 non-spin polarized calculation
 Variant of blocked Davidson
 Davidson routine will perform the subspace rotation
 perform sub-space diagonalisation
    after iterative eigenvector-optimisation
 modified Broyden-mixing scheme, WC =      100.0
 initial mixing is a Kerker type mixing with AMIX =  0.4000 and BMIX =      1.0000
 Hartree-type preconditioning will be used
 using additional bands           18
 reciprocal scheme for non local part
 use partial core corrections
 calculate Harris-corrections to forces 
   (improved forces if not selfconsistent)
 use gradient corrections 
 use of overlap-Matrix (Vanderbilt PP)
 Fermi weights with tetrahedron method with Bloechl corrections


--------------------------------------------------------------------------------------------------------


  energy-cutoff  :      500.00
  volume of cell :      318.03
      direct lattice vectors                 reciprocal lattice vectors
     3.883346612  0.000000000  0.000000000     0.257509849  0.148673381  0.000000000
    -1.941673306  3.363076818  0.000000000     0.000000000  0.297346761  0.000000000
     0.000000000  0.000000000 24.351774471     0.000000000  0.000000000  0.041064769

  length of vectors
     3.883346612  3.883346612 24.351774471     0.297346761  0.297346761  0.041064769


 
 k-points in units of 2pi/SCALE and weight: K-point convergence                     
   0.00000000  0.00000000  0.00000000       0.002
   0.02145915  0.01238945  0.00000000       0.010
   0.04291831  0.02477890  0.00000000       0.010
   0.06437746  0.03716835  0.00000000       0.010
   0.08583662  0.04955779  0.00000000       0.010
   0.10729577  0.06194724  0.00000000       0.010
   0.12875492  0.07433669  0.00000000       0.005
   0.02145915  0.03716835  0.00000000       0.010
   0.04291831  0.04955779  0.00000000       0.021
   0.06437746  0.06194724  0.00000000       0.021
   0.08583662  0.07433669  0.00000000       0.021
   0.10729577  0.08672614  0.00000000       0.021
   0.04291831  0.07433669  0.00000000       0.010
   0.06437746  0.08672614  0.00000000       0.021
   0.08583662  0.09911559  0.00000000       0.021
   0.10729577  0.11150504  0.00000000       0.010
   0.06437746  0.11150504  0.00000000       0.010
   0.08583662  0.12389448  0.00000000       0.021
   0.08583662  0.14867338  0.00000000       0.003
   0.00000000  0.00000000  0.01026619       0.003
   0.02145915  0.01238945  0.01026619       0.021
   0.04291831  0.02477890  0.01026619       0.021
   0.06437746  0.03716835  0.01026619       0.021
   0.08583662  0.04955779  0.01026619       0.021
   0.10729577  0.06194724  0.01026619       0.021
   0.12875492  0.07433669  0.01026619       0.010
   0.02145915  0.03716835  0.01026619       0.021
   0.04291831  0.04955779  0.01026619       0.042
   0.06437746  0.06194724  0.01026619       0.042
   0.08583662  0.07433669  0.01026619       0.042
   0.10729577  0.08672614  0.01026619       0.042
   0.04291831  0.07433669  0.01026619       0.021
   0.06437746  0.08672614  0.01026619       0.042
   0.08583662  0.09911559  0.01026619       0.042
   0.10729577  0.11150504  0.01026619       0.021
   0.06437746  0.11150504  0.01026619       0.021
   0.08583662  0.12389448  0.01026619       0.042
   0.08583662  0.14867338  0.01026619       0.007
   0.00000000  0.00000000  0.02053238       0.002
   0.02145915  0.01238945  0.02053238       0.010
   0.04291831  0.02477890  0.02053238       0.010
   0.06437746  0.03716835  0.02053238       0.010
   0.08583662  0.04955779  0.02053238       0.010
   0.10729577  0.06194724  0.02053238       0.010
   0.12875492  0.07433669  0.02053238       0.005
   0.02145915  0.03716835  0.02053238       0.010
   0.04291831  0.04955779  0.02053238       0.021
   0.06437746  0.06194724  0.02053238       0.021
   0.08583662  0.07433669  0.02053238       0.021
   0.10729577  0.08672614  0.02053238       0.021
   0.04291831  0.07433669  0.02053238       0.010
   0.06437746  0.08672614  0.02053238       0.021
   0.08583662  0.09911559  0.02053238       0.021
   0.10729577  0.11150504  0.02053238       0.010
   0.06437746  0.11150504  0.02053238       0.010
   0.08583662  0.12389448  0.02053238       0.021
   0.08583662  0.14867338  0.02053238       0.003
 
 k-points in reciprocal lattice and weights: K-point convergence                     
   0.00000000  0.00000000  0.00000000       0.002
   0.08333333  0.00000000  0.00000000       0.010
   0.16666667  0.00000000  0.00000000       0.010
   0.25000000  0.00000000  0.00000000       0.010
   0.33333333  0.00000000  0.00000000       0.010
   0.41666667  0.00000000  0.00000000       0.010
   0.50000000  0.00000000  0.00000000       0.005
   0.08333333  0.08333333  0.00000000       0.010
   0.16666667  0.08333333  0.00000000       0.021
   0.25000000  0.08333333  0.00000000       0.021
   0.33333333  0.08333333  0.00000000       0.021
   0.41666667  0.08333333  0.00000000       0.021
   0.16666667  0.16666667  0.00000000       0.010
   0.25000000  0.16666667  0.00000000       0.021
   0.33333333  0.16666667  0.00000000       0.021
   0.41666667  0.16666667  0.00000000       0.010
   0.25000000  0.25000000  0.00000000       0.010
   0.33333333  0.25000000  0.00000000       0.021
   0.33333333  0.33333333  0.00000000       0.003
   0.00000000  0.00000000  0.25000000       0.003
   0.08333333  0.00000000  0.25000000       0.021
   0.16666667  0.00000000  0.25000000       0.021
   0.25000000  0.00000000  0.25000000       0.021
   0.33333333  0.00000000  0.25000000       0.021
   0.41666667  0.00000000  0.25000000       0.021
   0.50000000  0.00000000  0.25000000       0.010
   0.08333333  0.08333333  0.25000000       0.021
   0.16666667  0.08333333  0.25000000       0.042
   0.25000000  0.08333333  0.25000000       0.042
   0.33333333  0.08333333  0.25000000       0.042
   0.41666667  0.08333333  0.25000000       0.042
   0.16666667  0.16666667  0.25000000       0.021
   0.25000000  0.16666667  0.25000000       0.042
   0.33333333  0.16666667  0.25000000       0.042
   0.41666667  0.16666667  0.25000000       0.021
   0.25000000  0.25000000  0.25000000       0.021
   0.33333333  0.25000000  0.25000000       0.042
   0.33333333  0.33333333  0.25000000       0.007
   0.00000000  0.00000000  0.50000000       0.002
   0.08333333  0.00000000  0.50000000       0.010
   0.16666667  0.00000000  0.50000000       0.010
   0.25000000  0.00000000  0.50000000       0.010
   0.33333333  0.00000000  0.50000000       0.010
   0.41666667  0.00000000  0.50000000       0.010
   0.50000000  0.00000000  0.50000000       0.005
   0.08333333  0.08333333  0.50000000       0.010
   0.16666667  0.08333333  0.50000000       0.021
   0.25000000  0.08333333  0.50000000       0.021
   0.33333333  0.08333333  0.50000000       0.021
   0.41666667  0.08333333  0.50000000       0.021
   0.16666667  0.16666667  0.50000000       0.010
   0.25000000  0.16666667  0.50000000       0.021
   0.33333333  0.16666667  0.50000000       0.021
   0.41666667  0.16666667  0.50000000       0.010
   0.25000000  0.25000000  0.50000000       0.010
   0.33333333  0.25000000  0.50000000       0.021
   0.33333333  0.33333333  0.50000000       0.003
 
 position of ions in fractional coordinates (direct lattice) 
   0.33333334  0.66666669  0.09346173
   0.66666663  0.33333331  0.59346172
   0.66666669  0.33333334  0.25675253
   0.33333331  0.66666663  0.75675253
   0.00000000  0.00000000  0.41290129
   0.00000000  0.00000000  0.91290132
   0.66666669  0.33333334  0.43529967
   0.33333331  0.66666663  0.93529964
   0.00000000  0.00000000  0.04942583
   0.00000000  0.00000000  0.54942583
   0.33333334  0.66666669  0.19411541
   0.66666663  0.33333331  0.69411541
   0.00000000  0.00000000  0.30854351
   0.00000000  0.00000000  0.80854351
 
 position of ions in cartesian coordinates  (Angst):
  -0.00000000  2.24205128  2.27595898
   1.94167319  1.12102554 14.45184585
   1.94167337  1.12102564  6.25237974
  -0.00000000  2.24205108 18.42826698
   0.00000000  0.00000000 10.05487913
   0.00000000  0.00000000 22.23076709
   1.94167337  1.12102564 10.60031947
  -0.00000000  2.24205108 22.77620598
   0.00000000  0.00000000  1.20360660
   0.00000000  0.00000000 13.37949384
  -0.00000000  2.24205128  4.72705471
   1.94167319  1.12102554 16.90294195
   0.00000000  0.00000000  7.51358207
   0.00000000  0.00000000 19.68946930
 


--------------------------------------------------------------------------------------------------------


 k-point  1 :   0.0000 0.0000 0.0000  plane waves:    8027
 k-point  2 :   0.0833 0.0000 0.0000  plane waves:    8009
 k-point  3 :   0.1667 0.0000 0.0000  plane waves:    8044
 k-point  4 :   0.2500 0.0000 0.0000  plane waves:    8058
 k-point  5 :   0.3333 0.0000 0.0000  plane waves:    8070
 k-point  6 :   0.4167 0.0000 0.0000  plane waves:    8072
 k-point  7 :   0.5000 0.0000 0.0000  plane waves:    8080
 k-point  8 :   0.0833 0.0833 0.0000  plane waves:    8011
 k-point  9 :   0.1667 0.0833 0.0000  plane waves:    8029
 k-point 10 :   0.2500 0.0833 0.0000  plane waves:    8074
 k-point 11 :   0.3333 0.0833 0.0000  plane waves:    8069
 k-point 12 :   0.4167 0.0833 0.0000  plane waves:    8093
 k-point 13 :   0.1667 0.1667 0.0000  plane waves:    8065
 k-point 14 :   0.2500 0.1667 0.0000  plane waves:    8090
 k-point 15 :   0.3333 0.1667 0.0000  plane waves:    8097
 k-point 16 :   0.4167 0.1667 0.0000  plane waves:    8115
 k-point 17 :   0.2500 0.2500 0.0000  plane waves:    8087
 k-point 18 :   0.3333 0.2500 0.0000  plane waves:    8100
 k-point 19 :   0.3333 0.3333 0.0000  plane waves:    8127
 k-point 20 :   0.0000 0.0000 0.2500  plane waves:    8021
 k-point 21 :   0.0833 0.0000 0.2500  plane waves:    8012
 k-point 22 :   0.1667 0.0000 0.2500  plane waves:    8041
 k-point 23 :   0.2500 0.0000 0.2500  plane waves:    8063
 k-point 24 :   0.3333 0.0000 0.2500  plane waves:    8076
 k-point 25 :   0.4167 0.0000 0.2500  plane waves:    8066
 k-point 26 :   0.5000 0.0000 0.2500  plane waves:    8076
 k-point 27 :   0.0833 0.0833 0.2500  plane waves:    8007
 k-point 28 :   0.1667 0.0833 0.2500  plane waves:    8050
 k-point 29 :   0.2500 0.0833 0.2500  plane waves:    8073
 k-point 30 :   0.3333 0.0833 0.2500  plane waves:    8078
 k-point 31 :   0.4167 0.0833 0.2500  plane waves:    8093
 k-point 32 :   0.1667 0.1667 0.2500  plane waves:    8074
 k-point 33 :   0.2500 0.1667 0.2500  plane waves:    8093
 k-point 34 :   0.3333 0.1667 0.2500  plane waves:    8102
 k-point 35 :   0.4167 0.1667 0.2500  plane waves:    8087
 k-point 36 :   0.2500 0.2500 0.2500  plane waves:    8092
 k-point 37 :   0.3333 0.2500 0.2500  plane waves:    8103
 k-point 38 :   0.3333 0.3333 0.2500  plane waves:    8124
 k-point 39 :   0.0000 0.0000 0.5000  plane waves:    8056
 k-point 40 :   0.0833 0.0000 0.5000  plane waves:    8016
 k-point 41 :   0.1667 0.0000 0.5000  plane waves:    8040
 k-point 42 :   0.2500 0.0000 0.5000  plane waves:    8064
 k-point 43 :   0.3333 0.0000 0.5000  plane waves:    8074
 k-point 44 :   0.4167 0.0000 0.5000  plane waves:    8066
 k-point 45 :   0.5000 0.0000 0.5000  plane waves:    8080
 k-point 46 :   0.0833 0.0833 0.5000  plane waves:    8018
 k-point 47 :   0.1667 0.0833 0.5000  plane waves:    8048
 k-point 48 :   0.2500 0.0833 0.5000  plane waves:    8064
 k-point 49 :   0.3333 0.0833 0.5000  plane waves:    8078
 k-point 50 :   0.4167 0.0833 0.5000  plane waves:    8082
 k-point 51 :   0.1667 0.1667 0.5000  plane waves:    8074
 k-point 52 :   0.2500 0.1667 0.5000  plane waves:    8084
 k-point 53 :   0.3333 0.1667 0.5000  plane waves:    8102
 k-point 54 :   0.4167 0.1667 0.5000  plane waves:    8098
 k-point 55 :   0.2500 0.2500 0.5000  plane waves:    8096
 k-point 56 :   0.3333 0.2500 0.5000  plane waves:    8110
 k-point 57 :   0.3333 0.3333 0.5000  plane waves:    8106

 maximum and minimum number of plane-waves per node :      8127     8007

 maximum number of plane-waves:      8127
 maximum index in each direction: 
   IXMAX=    7   IYMAX=    7   IZMAX=   44
   IXMIN=   -7   IYMIN=   -7   IZMIN=  -44


 serial   3D FFT for wavefunctions
 parallel 3D FFT for charge:
    minimum data exchange during FFTs selected (reduces bandwidth)


 total amount of memory used by VASP MPI-rank0   343812. kBytes
=======================================================================

   base      :      30000. kBytes
   nonl-proj :     201964. kBytes
   fftplans  :      21173. kBytes
   grid      :      14726. kBytes
   one-center:        217. kBytes
   wavefun   :      75732. kBytes
 
     INWAV:  cpu time    0.0001: real time    0.0001
 Broyden mixing: mesh for mixing (old mesh)
   NGX = 15   NGY = 15   NGZ = 89
  (NGX  = 56   NGY  = 56   NGZ  =360)
  gives a total of  20025 points

 initial charge density was supplied:
 charge density of overlapping atoms calculated
 number of electron     124.0000000 magnetization 
 keeping initial charge density in first step


--------------------------------------------------------------------------------------------------------


 Maximum index for augmentation-charges        18539 (set IRDMAX)


--------------------------------------------------------------------------------------------------------


 First call to EWALD:  gamma=   0.260
 Maximum number of real-space cells 5x 5x 1
 Maximum number of reciprocal cells 2x 2x 9

    FEWALD:  cpu time    0.0024: real time    0.0025


--------------------------------------- Iteration      1(   1)  ---------------------------------------


    POTLOK:  cpu time    0.1609: real time    0.2674
    SETDIJ:  cpu time    0.4410: real time    0.4434
     EDDAV:  cpu time   26.8756: real time   27.0198
 BZINTS: Fermi energy: 23.509227;124.000000 electrons
         Band energy: 893.751285;  BLOECHL correction: -0.294754
       DOS:  cpu time    0.0880: real time    0.0884
    --------------------------------------------
      LOOP:  cpu time   27.5654: real time   27.8191

 eigenvalue-minimisations  :  9136
 total energy-change (2. order) : 0.1323746E+04  (-0.5253461E+04)
 number of electron     124.0000000 magnetization 
 augmentation part      124.0000000 magnetization 

 Free energy of the ion-electron system (eV)
  ---------------------------------------------------
  alpha Z        PSCENC =       291.43441221
  Ewald energy   TEWEN  =     -8116.26381694
  -Hartree energ DENC   =     -3851.71450062
  -exchange      EXHF   =         0.00000000
  -V(xc)+E(xc)   XCENC  =       379.37880753
  PAW double counting   =     10174.09225173   -10466.47096065
  entropy T*S    EENTRO =         0.00000000
  eigenvalues    EBANDS =       893.75128464
  atomic energy  EATOM  =     12019.53804467
  Solvation  Ediel_sol  =         0.00000000
  ---------------------------------------------------
  free energy    TOTEN  =      1323.74552256 eV

  energy without entropy =     1323.74552256  energy(sigma->0) =     1323.74552256


--------------------------------------------------------------------------------------------------------




--------------------------------------- Iteration      1(   2)  ---------------------------------------


     EDDAV:  cpu time   31.6546: real time   31.9807
 BZINTS: Fermi energy:  9.652155;124.000000 electrons
         Band energy:-232.517527;  BLOECHL correction: -0.089505
       DOS:  cpu time    0.0795: real time    0.0799
    --------------------------------------------
      LOOP:  cpu time   31.7341: real time   32.0606

 eigenvalue-minimisations  :  9128
 total energy-change (2. order) :-0.1126269E+04  (-0.1077363E+04)
 number of electron     124.0000000 magnetization 
 augmentation part      124.0000000 magnetization 

 Free energy of the ion-electron system (eV)
  ---------------------------------------------------
  alpha Z        PSCENC =       291.43441221
  Ewald energy   TEWEN  =     -8116.26381694
  -Hartree energ DENC   =     -3851.71450062
  -exchange      EXHF   =         0.00000000
  -V(xc)+E(xc)   XCENC  =       379.37880753
  PAW double counting   =     10174.09225173   -10466.47096065
  entropy T*S    EENTRO =         0.00000000
  eigenvalues    EBANDS =      -232.51752720
  atomic energy  EATOM  =     12019.53804467
  Solvation  Ediel_sol  =         0.00000000
  ---------------------------------------------------
  free energy    TOTEN  =       197.47671072 eV

  energy without entropy =      197.47671072  energy(sigma->0) =      197.47671072


--------------------------------------------------------------------------------------------------------




--------------------------------------- Iteration      1(   3)  ---------------------------------------


     EDDAV:  cpu time   34.8144: real time   34.9940
 BZINTS: Fermi energy:  4.303955;124.000000 electrons
         Band energy:-464.951929;  BLOECHL correction:  0.000000
       DOS:  cpu time    0.0174: real time    0.0175
    --------------------------------------------
      LOOP:  cpu time   34.8318: real time   35.0116

 eigenvalue-minimisations  : 10312
 total energy-change (2. order) :-0.2324344E+03  (-0.2217816E+03)
 number of electron     124.0000000 magnetization 
 augmentation part      124.0000000 magnetization 

 Free energy of the ion-electron system (eV)
  ---------------------------------------------------
  alpha Z        PSCENC =       291.43441221
  Ewald energy   TEWEN  =     -8116.26381694
  -Hartree energ DENC   =     -3851.71450062
  -exchange      EXHF   =         0.00000000
  -V(xc)+E(xc)   XCENC  =       379.37880753
  PAW double counting   =     10174.09225173   -10466.47096065
  entropy T*S    EENTRO =         0.00000000
  eigenvalues    EBANDS =      -464.95192947
  atomic energy  EATOM  =     12019.53804467
  Solvation  Ediel_sol  =         0.00000000
  ---------------------------------------------------
  free energy    TOTEN  =       -34.95769155 eV

  energy without entropy =      -34.95769155  energy(sigma->0) =      -34.95769155


--------------------------------------------------------------------------------------------------------




--------------------------------------- Iteration      1(   4)  ---------------------------------------


     EDDAV:  cpu time   40.5725: real time   40.7771
 BZINTS: Fermi energy:  3.371135;124.000000 electrons
         Band energy:-485.864604;  BLOECHL correction:  0.000000
       DOS:  cpu time    0.0150: real time    0.0151
    --------------------------------------------
      LOOP:  cpu time   40.5875: real time   40.7922

 eigenvalue-minimisations  : 11440
 total energy-change (2. order) :-0.2091267E+02  (-0.2060971E+02)
 number of electron     124.0000000 magnetization 
 augmentation part      124.0000000 magnetization 

 Free energy of the ion-electron system (eV)
  ---------------------------------------------------
  alpha Z        PSCENC =       291.43441221
  Ewald energy   TEWEN  =     -8116.26381694
  -Hartree energ DENC   =     -3851.71450062
  -exchange      EXHF   =         0.00000000
  -V(xc)+E(xc)   XCENC  =       379.37880753
  PAW double counting   =     10174.09225173   -10466.47096065
  entropy T*S    EENTRO =         0.00000000
  eigenvalues    EBANDS =      -485.86460395
  atomic energy  EATOM  =     12019.53804467
  Solvation  Ediel_sol  =         0.00000000
  ---------------------------------------------------
  free energy    TOTEN  =       -55.87036603 eV

  energy without entropy =      -55.87036603  energy(sigma->0) =      -55.87036603


--------------------------------------------------------------------------------------------------------




--------------------------------------- Iteration      1(   5)  ---------------------------------------


     EDDAV:  cpu time   45.0506: real time   45.2838
 BZINTS: Fermi energy:  3.317932;124.000000 electrons
         Band energy:-486.813381;  BLOECHL correction:  0.000000
       DOS:  cpu time    0.0145: real time    0.0145
    CHARGE:  cpu time    2.7289: real time    2.7416
    MIXING:  cpu time    0.0062: real time    0.0062
    --------------------------------------------
      LOOP:  cpu time   47.8003: real time   48.0463

 eigenvalue-minimisations  : 12200
 total energy-change (2. order) :-0.9487767E+00  (-0.9462954E+00)
 number of electron     124.0000001 magnetization 
 augmentation part       37.4417915 magnetization 

 Broyden mixing:
  rms(total) = 0.19500E+01    rms(broyden)= 0.19500E+01
  rms(prec ) = 0.19916E+01
  weight for this iteration     100.00

 Free energy of the ion-electron system (eV)
  ---------------------------------------------------
  alpha Z        PSCENC =       291.43441221
  Ewald energy   TEWEN  =     -8116.26381694
  -Hartree energ DENC   =     -3851.71450062
  -exchange      EXHF   =         0.00000000
  -V(xc)+E(xc)   XCENC  =       379.37880753
  PAW double counting   =     10174.09225173   -10466.47096065
  entropy T*S    EENTRO =         0.00000000
  eigenvalues    EBANDS =      -486.81338063
  atomic energy  EATOM  =     12019.53804467
  Solvation  Ediel_sol  =         0.00000000
  ---------------------------------------------------
  free energy    TOTEN  =       -56.81914270 eV

  energy without entropy =      -56.81914270  energy(sigma->0) =      -56.81914270


--------------------------------------------------------------------------------------------------------




--------------------------------------- Iteration      1(   6)  ---------------------------------------


    POTLOK:  cpu time    0.1518: real time    0.1538
    SETDIJ:  cpu time    0.4565: real time    0.4587
     EDDAV:  cpu time   45.2988: real time   45.5232
 BZINTS: Fermi energy:  3.946797;124.000000 electrons
         Band energy:-518.939142;  BLOECHL correction:  0.000000
       DOS:  cpu time    0.0148: real time    0.0149
    CHARGE:  cpu time    1.9435: real time    1.9531
    MIXING:  cpu time    0.0143: real time    0.0143
    --------------------------------------------
      LOOP:  cpu time   47.8798: real time   48.1181

 eigenvalue-minimisations  : 14512
 total energy-change (2. order) : 0.3489566E+01  (-0.5437281E+00)
 number of electron     124.0000001 magnetization 
 augmentation part       37.7860448 magnetization 

 Broyden mixing:
  rms(total) = 0.13663E+01    rms(broyden)= 0.13663E+01
  rms(prec ) = 0.13753E+01
  weight for this iteration     100.00

 eigenvalues of (default mixing * dielectric matrix)
  average eigenvalue GAMMA=   2.2456
  2.2456

 Free energy of the ion-electron system (eV)
  ---------------------------------------------------
  alpha Z        PSCENC =       291.43441221
  Ewald energy   TEWEN  =     -8116.26381694
  -Hartree energ DENC   =     -3826.84187722
  -exchange      EXHF   =         0.00000000
  -V(xc)+E(xc)   XCENC  =       380.35609706
  PAW double counting   =     12317.52082227   -12600.13411725
  entropy T*S    EENTRO =         0.00000000
  eigenvalues    EBANDS =      -518.93914197
  atomic energy  EATOM  =     12019.53804467
  Solvation  Ediel_sol  =         0.00000000
  ---------------------------------------------------
  free energy    TOTEN  =       -53.32957718 eV

  energy without entropy =      -53.32957718  energy(sigma->0) =      -53.32957718


--------------------------------------------------------------------------------------------------------




--------------------------------------- Iteration      1(   7)  ---------------------------------------


    POTLOK:  cpu time    0.1137: real time    0.1159
    SETDIJ:  cpu time    0.4410: real time    0.4424
     EDDAV:  cpu time   34.8902: real time   35.0689
 BZINTS: Fermi energy:  4.770596;124.000000 electrons
         Band energy:-511.929996;  BLOECHL correction:  0.000000
       DOS:  cpu time    0.0171: real time    0.0172
    CHARGE:  cpu time    1.8430: real time    1.8526
    MIXING:  cpu time    0.0100: real time    0.0101
    --------------------------------------------
      LOOP:  cpu time   37.3150: real time   37.5072

 eigenvalue-minimisations  : 13432
 total energy-change (2. order) :-0.1278998E+00  (-0.7371343E+00)
 number of electron     124.0000001 magnetization 
 augmentation part       37.8696721 magnetization 

 Broyden mixing:
  rms(total) = 0.36531E+00    rms(broyden)= 0.36531E+00
  rms(prec ) = 0.37770E+00
  weight for this iteration     100.00

 eigenvalues of (default mixing * dielectric matrix)
  average eigenvalue GAMMA=   1.6370
  1.1299  2.1441

 Free energy of the ion-electron system (eV)
  ---------------------------------------------------
  alpha Z        PSCENC =       291.43441221
  Ewald energy   TEWEN  =     -8116.26381694
  -Hartree energ DENC   =     -3829.33222221
  -exchange      EXHF   =         0.00000000
  -V(xc)+E(xc)   XCENC  =       382.14235424
  PAW double counting   =     16010.99538788   -16300.04164093
  entropy T*S    EENTRO =         0.00000000
  eigenvalues    EBANDS =      -511.92999591
  atomic energy  EATOM  =     12019.53804467
  Solvation  Ediel_sol  =         0.00000000
  ---------------------------------------------------
  free energy    TOTEN  =       -53.45747700 eV

  energy without entropy =      -53.45747700  energy(sigma->0) =      -53.45747700


--------------------------------------------------------------------------------------------------------




--------------------------------------- Iteration      1(   8)  ---------------------------------------


    POTLOK:  cpu time    0.1975: real time    0.8864
    SETDIJ:  cpu time    0.4811: real time    0.4835
     EDDAV:  cpu time   34.9363: real time   35.1243
 BZINTS: Fermi energy:  4.480963;124.000000 electrons
         Band energy:-510.403399;  BLOECHL correction:  0.000000
       DOS:  cpu time    0.0144: real time    0.0144
    CHARGE:  cpu time    1.9825: real time    1.9925
    MIXING:  cpu time    0.0047: real time    0.0048
    --------------------------------------------
      LOOP:  cpu time   37.6164: real time   38.5060

 eigenvalue-minimisations  : 12904
 total energy-change (2. order) : 0.1630902E+00  (-0.1126423E+00)
 number of electron     124.0000001 magnetization 
 augmentation part       37.8262596 magnetization 

 Broyden mixing:
  rms(total) = 0.30237E+00    rms(broyden)= 0.30237E+00
  rms(prec ) = 0.30363E+00
  weight for this iteration     100.00

 eigenvalues of (default mixing * dielectric matrix)
  average eigenvalue GAMMA=   1.3708
  1.9952  1.5029  0.6141

 Free energy of the ion-electron system (eV)
  ---------------------------------------------------
  alpha Z        PSCENC =       291.43441221
  Ewald energy   TEWEN  =     -8116.26381694
  -Hartree energ DENC   =     -3828.53274103
  -exchange      EXHF   =         0.00000000
  -V(xc)+E(xc)   XCENC  =       381.63738128
  PAW double counting   =     16444.71220587   -16735.41647423
  entropy T*S    EENTRO =         0.00000000
  eigenvalues    EBANDS =      -510.40339858
  atomic energy  EATOM  =     12019.53804467
  Solvation  Ediel_sol  =         0.00000000
  ---------------------------------------------------
  free energy    TOTEN  =       -53.29438677 eV

  energy without entropy =      -53.29438677  energy(sigma->0) =      -53.29438677


--------------------------------------------------------------------------------------------------------




--------------------------------------- Iteration      1(   9)  ---------------------------------------


    POTLOK:  cpu time    0.1281: real time    0.1418
    SETDIJ:  cpu time    0.4088: real time    0.4108
     EDDAV:  cpu time   32.5042: real time   32.6748
 BZINTS: Fermi energy:  4.441126;124.000000 electrons
         Band energy:-511.482660;  BLOECHL correction:  0.000000
       DOS:  cpu time    0.0176: real time    0.0177
    CHARGE:  cpu time    1.8668: real time    1.8762
    MIXING:  cpu time    0.0058: real time    0.0058
    --------------------------------------------
      LOOP:  cpu time   34.9313: real time   35.1271

 eigenvalue-minimisations  : 11768
 total energy-change (2. order) :-0.4840296E-02  (-0.1678827E-01)
 number of electron     124.0000001 magnetization 
 augmentation part       37.8099399 magnetization 

 Broyden mixing:
  rms(total) = 0.15862E+00    rms(broyden)= 0.15862E+00
  rms(prec ) = 0.15972E+00
  weight for this iteration     100.00

 eigenvalues of (default mixing * dielectric matrix)
  average eigenvalue GAMMA=   1.3670
  1.9390  1.3242  1.1023  1.1023

 Free energy of the ion-electron system (eV)
  ---------------------------------------------------
  alpha Z        PSCENC =       291.43441221
  Ewald energy   TEWEN  =     -8116.26381694
  -Hartree energ DENC   =     -3827.23653575
  -exchange      EXHF   =         0.00000000
  -V(xc)+E(xc)   XCENC  =       381.52336179
  PAW double counting   =     16512.31818541   -16803.13021850
  entropy T*S    EENTRO =         0.00000000
  eigenvalues    EBANDS =      -511.48265995
  atomic energy  EATOM  =     12019.53804467
  Solvation  Ediel_sol  =         0.00000000
  ---------------------------------------------------
  free energy    TOTEN  =       -53.29922706 eV

  energy without entropy =      -53.29922706  energy(sigma->0) =      -53.29922706


--------------------------------------------------------------------------------------------------------




--------------------------------------- Iteration      1(  10)  ---------------------------------------


    POTLOK:  cpu time    0.1202: real time    0.1237
    SETDIJ:  cpu time    0.4191: real time    0.4211
     EDDAV:  cpu time   38.2450: real time   38.4411
 BZINTS: Fermi energy:  4.529846;124.000000 electrons
         Band energy:-511.863855;  BLOECHL correction:  0.000000
       DOS:  cpu time    0.0170: real time    0.0171
    CHARGE:  cpu time    2.3582: real time    2.3704
    MIXING:  cpu time    0.0061: real time    0.0061
    --------------------------------------------
      LOOP:  cpu time   41.1657: real time   41.3795

 eigenvalue-minimisations  : 12456
 total energy-change (2. order) : 0.1569694E-02  (-0.1904631E-02)
 number of electron     124.0000001 magnetization 
 augmentation part       37.8182495 magnetization 

 Broyden mixing:
  rms(total) = 0.10325E+00    rms(broyden)= 0.10325E+00
  rms(prec ) = 0.10360E+00
  weight for this iteration     100.00

 eigenvalues of (default mixing * dielectric matrix)
  average eigenvalue GAMMA=   1.6491
  2.5738  2.5738  1.1434  1.1434  0.8112

 Free energy of the ion-electron system (eV)
  ---------------------------------------------------
  alpha Z        PSCENC =       291.43441221
  Ewald energy   TEWEN  =     -8116.26381694
  -Hartree energ DENC   =     -3827.05351012
  -exchange      EXHF   =         0.00000000
  -V(xc)+E(xc)   XCENC  =       381.61701627
  PAW double counting   =     16456.85520031   -16747.56114914
  entropy T*S    EENTRO =         0.00000000
  eigenvalues    EBANDS =      -511.86385463
  atomic energy  EATOM  =     12019.53804467
  Solvation  Ediel_sol  =         0.00000000
  ---------------------------------------------------
  free energy    TOTEN  =       -53.29765737 eV

  energy without entropy =      -53.29765737  energy(sigma->0) =      -53.29765737


--------------------------------------------------------------------------------------------------------




--------------------------------------- Iteration      1(  11)  ---------------------------------------


    POTLOK:  cpu time    0.1424: real time    0.1453
    SETDIJ:  cpu time    0.4587: real time    0.4612
     EDDAV:  cpu time   37.0048: real time   37.1968
 BZINTS: Fermi energy:  4.532701;124.000000 electrons
         Band energy:-511.603359;  BLOECHL correction:  0.000000
       DOS:  cpu time    0.0176: real time    0.0177
    CHARGE:  cpu time    2.4053: real time    2.4174
    MIXING:  cpu time    0.0055: real time    0.0055
    --------------------------------------------
      LOOP:  cpu time   40.0343: real time   40.2439

 eigenvalue-minimisations  : 11080
 total energy-change (2. order) :-0.5380356E-03  (-0.5287831E-03)
 number of electron     124.0000001 magnetization 
 augmentation part       37.8157320 magnetization 

 Broyden mixing:
  rms(total) = 0.22161E-01    rms(broyden)= 0.22161E-01
  rms(prec ) = 0.22338E-01
  weight for this iteration     100.00

 eigenvalues of (default mixing * dielectric matrix)
  average eigenvalue GAMMA=   1.4858
  2.3637  2.3637  1.1441  1.1441  0.9497  0.9497

 Free energy of the ion-electron system (eV)
  ---------------------------------------------------
  alpha Z        PSCENC =       291.43441221
  Ewald energy   TEWEN  =     -8116.26381694
  -Hartree energ DENC   =     -3827.19516016
  -exchange      EXHF   =         0.00000000
  -V(xc)+E(xc)   XCENC  =       381.64668120
  PAW double counting   =     16382.08777498   -16672.94277250
  entropy T*S    EENTRO =         0.00000000
  eigenvalues    EBANDS =      -511.60335886
  atomic energy  EATOM  =     12019.53804467
  Solvation  Ediel_sol  =         0.00000000
  ---------------------------------------------------
  free energy    TOTEN  =       -53.29819540 eV

  energy without entropy =      -53.29819540  energy(sigma->0) =      -53.29819540


--------------------------------------------------------------------------------------------------------




--------------------------------------- Iteration      1(  12)  ---------------------------------------


    POTLOK:  cpu time    0.1368: real time    0.1389
    SETDIJ:  cpu time    0.4542: real time    0.4565
     EDDAV:  cpu time   37.1981: real time   37.4263
 BZINTS: Fermi energy:  4.528217;124.000000 electrons
         Band energy:-511.663386;  BLOECHL correction:  0.000000
       DOS:  cpu time    0.0167: real time    0.0168
    CHARGE:  cpu time    2.2634: real time    2.2754
    MIXING:  cpu time    0.0072: real time    0.0073
    --------------------------------------------
      LOOP:  cpu time   40.0764: real time   40.3212

 eigenvalue-minimisations  : 12248
 total energy-change (2. order) : 0.2928383E-04  (-0.1350479E-03)
 number of electron     124.0000001 magnetization 
 augmentation part       37.8152404 magnetization 

 Broyden mixing:
  rms(total) = 0.20634E-01    rms(broyden)= 0.20634E-01
  rms(prec ) = 0.20720E-01
  weight for this iteration     100.00

 eigenvalues of (default mixing * dielectric matrix)
  average eigenvalue GAMMA=   1.3006
  2.3733  2.3733  1.1451  1.1451  0.9515  0.9515  0.1646

 Free energy of the ion-electron system (eV)
  ---------------------------------------------------
  alpha Z        PSCENC =       291.43441221
  Ewald energy   TEWEN  =     -8116.26381694
  -Hartree energ DENC   =     -3827.12153924
  -exchange      EXHF   =         0.00000000
  -V(xc)+E(xc)   XCENC  =       381.63807308
  PAW double counting   =     16407.70115284   -16698.56110701
  entropy T*S    EENTRO =         0.00000000
  eigenvalues    EBANDS =      -511.66338574
  atomic energy  EATOM  =     12019.53804467
  Solvation  Ediel_sol  =         0.00000000
  ---------------------------------------------------
  free energy    TOTEN  =       -53.29816612 eV

  energy without entropy =      -53.29816612  energy(sigma->0) =      -53.29816612


--------------------------------------------------------------------------------------------------------




--------------------------------------- Iteration      1(  13)  ---------------------------------------


    POTLOK:  cpu time    0.1363: real time    0.1390
    SETDIJ:  cpu time    0.4231: real time    0.4252
     EDDAV:  cpu time   38.2032: real time   38.4130
 BZINTS: Fermi energy:  4.526446;124.000000 electrons
         Band energy:-511.645305;  BLOECHL correction:  0.000000
       DOS:  cpu time    0.0170: real time    0.0171
    CHARGE:  cpu time    2.1138: real time    2.1244
    MIXING:  cpu time    0.0238: real time    0.0239
    --------------------------------------------
      LOOP:  cpu time   40.9173: real time   41.1426

 eigenvalue-minimisations  : 13128
 total energy-change (2. order) :-0.9583930E-05  (-0.1276855E-04)
 number of electron     124.0000001 magnetization 
 augmentation part       37.8146720 magnetization 

 Broyden mixing:
  rms(total) = 0.19937E-01    rms(broyden)= 0.19937E-01
  rms(prec ) = 0.20007E-01
  weight for this iteration     100.00

 eigenvalues of (default mixing * dielectric matrix)
  average eigenvalue GAMMA=   1.3814
  2.5568  2.5568  1.2124  1.0745  1.0745  0.8299  0.8731  0.8731

 Free energy of the ion-electron system (eV)
  ---------------------------------------------------
  alpha Z        PSCENC =       291.43441221
  Ewald energy   TEWEN  =     -8116.26381694
  -Hartree energ DENC   =     -3827.13683467
  -exchange      EXHF   =         0.00000000
  -V(xc)+E(xc)   XCENC  =       381.63857528
  PAW double counting   =     16402.21853609   -16693.08178731
  entropy T*S    EENTRO =         0.00000000
  eigenvalues    EBANDS =      -511.64530503
  atomic energy  EATOM  =     12019.53804467
  Solvation  Ediel_sol  =         0.00000000
  ---------------------------------------------------
  free energy    TOTEN  =       -53.29817570 eV

  energy without entropy =      -53.29817570  energy(sigma->0) =      -53.29817570


--------------------------------------------------------------------------------------------------------




--------------------------------------- Iteration      1(  14)  ---------------------------------------


    POTLOK:  cpu time    0.1424: real time    0.1449
    SETDIJ:  cpu time    0.4399: real time    0.4419
     EDDAV:  cpu time   32.8147: real time   32.9882
 BZINTS: Fermi energy:  4.526191;124.000000 electrons
         Band energy:-511.631779;  BLOECHL correction:  0.000000
       DOS:  cpu time    0.0156: real time    0.0157
    CHARGE:  cpu time    1.5081: real time    1.5309
    MIXING:  cpu time    0.0056: real time    0.0057
    --------------------------------------------
      LOOP:  cpu time   34.9262: real time   35.1273

 eigenvalue-minimisations  : 11944
 total energy-change (2. order) :-0.4179917E-04  (-0.5047880E-05)
 number of electron     124.0000001 magnetization 
 augmentation part       37.8149250 magnetization 

 Broyden mixing:
  rms(total) = 0.12395E-01    rms(broyden)= 0.12394E-01
  rms(prec ) = 0.12472E-01
  weight for this iteration     100.00

 eigenvalues of (default mixing * dielectric matrix)
  average eigenvalue GAMMA=   1.4744
  2.7613  2.1885  1.4847  1.4847  1.3401  1.3401  0.7810  0.9448  0.9448

 Free energy of the ion-electron system (eV)
  ---------------------------------------------------
  alpha Z        PSCENC =       291.43441221
  Ewald energy   TEWEN  =     -8116.26381694
  -Hartree energ DENC   =     -3827.17066819
  -exchange      EXHF   =         0.00000000
  -V(xc)+E(xc)   XCENC  =       381.64357744
  PAW double counting   =     16377.91268266   -16668.76067024
  entropy T*S    EENTRO =         0.00000000
  eigenvalues    EBANDS =      -511.63177911
  atomic energy  EATOM  =     12019.53804467
  Solvation  Ediel_sol  =         0.00000000
  ---------------------------------------------------
  free energy    TOTEN  =       -53.29821750 eV

  energy without entropy =      -53.29821750  energy(sigma->0) =      -53.29821750


--------------------------------------------------------------------------------------------------------




--------------------------------------- Iteration      1(  15)  ---------------------------------------


    POTLOK:  cpu time    0.1433: real time    0.1611
    SETDIJ:  cpu time    0.4095: real time    0.4113
     EDDAV:  cpu time   28.3401: real time   28.4997
 BZINTS: Fermi energy:  4.525813;124.000000 electrons
         Band energy:-511.479013;  BLOECHL correction:  0.000000
       DOS:  cpu time    0.0177: real time    0.0178
    CHARGE:  cpu time    1.6763: real time    1.6852
    MIXING:  cpu time    0.0048: real time    0.0049
    --------------------------------------------
      LOOP:  cpu time   30.5917: real time   30.7800

 eigenvalue-minimisations  : 11504
 total energy-change (2. order) : 0.3242392E-05  (-0.5531741E-05)
 number of electron     124.0000001 magnetization 
 augmentation part       37.8136562 magnetization 

 Broyden mixing:
  rms(total) = 0.12101E-01    rms(broyden)= 0.12101E-01
  rms(prec ) = 0.12148E-01
  weight for this iteration     100.00

 eigenvalues of (default mixing * dielectric matrix)
  average eigenvalue GAMMA=   1.4483
  2.7773  2.4658  2.4658  0.9152  0.9152  1.1251  1.1251  0.8114  0.9411  0.9411

 Free energy of the ion-electron system (eV)
  ---------------------------------------------------
  alpha Z        PSCENC =       291.43441221
  Ewald energy   TEWEN  =     -8116.26381694
  -Hartree energ DENC   =     -3827.27652829
  -exchange      EXHF   =         0.00000000
  -V(xc)+E(xc)   XCENC  =       381.64754717
  PAW double counting   =     16360.46919823   -16651.36805854
  entropy T*S    EENTRO =         0.00000000
  eigenvalues    EBANDS =      -511.47901276
  atomic energy  EATOM  =     12019.53804467
  Solvation  Ediel_sol  =         0.00000000
  ---------------------------------------------------
  free energy    TOTEN  =       -53.29821426 eV

  energy without entropy =      -53.29821426  energy(sigma->0) =      -53.29821426


--------------------------------------------------------------------------------------------------------




--------------------------------------- Iteration      1(  16)  ---------------------------------------


    POTLOK:  cpu time    0.1117: real time    0.1135
    SETDIJ:  cpu time    0.3810: real time    0.3833
     EDDAV:  cpu time   28.0766: real time   28.2265
 BZINTS: Fermi energy:  4.524954;124.000000 electrons
         Band energy:-511.488886;  BLOECHL correction:  0.000000
       DOS:  cpu time    0.0167: real time    0.0168
    CHARGE:  cpu time    1.7685: real time    1.7778
    MIXING:  cpu time    0.0062: real time    0.0062
    --------------------------------------------
      LOOP:  cpu time   30.3606: real time   30.5240

 eigenvalue-minimisations  : 11336
 total energy-change (2. order) : 0.1289130E-04  (-0.2717924E-05)
 number of electron     124.0000001 magnetization 
 augmentation part       37.8136043 magnetization 

 Broyden mixing:
  rms(total) = 0.11463E-01    rms(broyden)= 0.11463E-01
  rms(prec ) = 0.11488E-01
  weight for this iteration     100.00

 eigenvalues of (default mixing * dielectric matrix)
  average eigenvalue GAMMA=   1.4113
  3.0575  2.3427  2.3427  0.8709  0.8709  1.2821  1.0426  1.0426  0.9397  0.9397
  0.7928

 Free energy of the ion-electron system (eV)
  ---------------------------------------------------
  alpha Z        PSCENC =       291.43441221
  Ewald energy   TEWEN  =     -8116.26381694
  -Hartree energ DENC   =     -3827.26869732
  -exchange      EXHF   =         0.00000000
  -V(xc)+E(xc)   XCENC  =       381.64743723
  PAW double counting   =     16352.13360852   -16643.03030341
  entropy T*S    EENTRO =         0.00000000
  eigenvalues    EBANDS =      -511.48888633
  atomic energy  EATOM  =     12019.53804467
  Solvation  Ediel_sol  =         0.00000000
  ---------------------------------------------------
  free energy    TOTEN  =       -53.29820137 eV

  energy without entropy =      -53.29820137  energy(sigma->0) =      -53.29820137


--------------------------------------------------------------------------------------------------------




--------------------------------------- Iteration      1(  17)  ---------------------------------------


    POTLOK:  cpu time    0.1170: real time    0.1194
    SETDIJ:  cpu time    0.4161: real time    0.4178
     EDDAV:  cpu time   35.4680: real time   35.6526
 BZINTS: Fermi energy:  4.524153;124.000000 electrons
         Band energy:-511.485711;  BLOECHL correction:  0.000000
       DOS:  cpu time    0.0145: real time    0.0147
    CHARGE:  cpu time    1.6612: real time    1.6692
    MIXING:  cpu time    0.0056: real time    0.0056
    --------------------------------------------
      LOOP:  cpu time   37.6824: real time   37.8793

 eigenvalue-minimisations  : 13568
 total energy-change (2. order) : 0.8449877E-05  (-0.9259717E-06)
 number of electron     124.0000001 magnetization 
 augmentation part       37.8134076 magnetization 

 Broyden mixing:
  rms(total) = 0.88368E-02    rms(broyden)= 0.88367E-02
  rms(prec ) = 0.88520E-02
  weight for this iteration     100.00

 eigenvalues of (default mixing * dielectric matrix)
  average eigenvalue GAMMA=   1.3098
  3.0821  2.3491  2.3491  0.8788  0.8788  1.2781  1.0453  1.0453  0.7930  0.9330
  0.9330  0.1521

 Free energy of the ion-electron system (eV)
  ---------------------------------------------------
  alpha Z        PSCENC =       291.43441221
  Ewald energy   TEWEN  =     -8116.26381694
  -Hartree energ DENC   =     -3827.26212326
  -exchange      EXHF   =         0.00000000
  -V(xc)+E(xc)   XCENC  =       381.64691935
  PAW double counting   =     16355.03520533   -16645.94112312
  entropy T*S    EENTRO =         0.00000000
  eigenvalues    EBANDS =      -511.48571116
  atomic energy  EATOM  =     12019.53804467
  Solvation  Ediel_sol  =         0.00000000
  ---------------------------------------------------
  free energy    TOTEN  =       -53.29819292 eV

  energy without entropy =      -53.29819292  energy(sigma->0) =      -53.29819292


--------------------------------------------------------------------------------------------------------




--------------------------------------- Iteration      1(  18)  ---------------------------------------


    POTLOK:  cpu time    0.1151: real time    0.1166
    SETDIJ:  cpu time    0.4054: real time    0.4072
     EDDAV:  cpu time   30.7835: real time   30.9435
 BZINTS: Fermi energy:  4.523459;124.000000 electrons
         Band energy:-511.485618;  BLOECHL correction:  0.000000
       DOS:  cpu time    0.0162: real time    0.0163
    CHARGE:  cpu time    2.4034: real time    2.4157
    MIXING:  cpu time    0.0076: real time    0.0077
    --------------------------------------------
      LOOP:  cpu time   33.7313: real time   33.9070

 eigenvalue-minimisations  : 10000
 total energy-change (2. order) :-0.1671287E-06  (-0.1178546E-06)
 number of electron     124.0000001 magnetization 
 augmentation part       37.8133811 magnetization 

 Broyden mixing:
  rms(total) = 0.87372E-02    rms(broyden)= 0.87370E-02
  rms(prec ) = 0.87520E-02
  weight for this iteration     100.00

 eigenvalues of (default mixing * dielectric matrix)
  average eigenvalue GAMMA=   1.2079
  3.0835  2.3502  2.3502  1.2757  1.0423  1.0423  0.7928  0.9343  0.9343  0.8748
  0.8748  0.1394  0.0081

 Free energy of the ion-electron system (eV)
  ---------------------------------------------------
  alpha Z        PSCENC =       291.43441221
  Ewald energy   TEWEN  =     -8116.26381694
  -Hartree energ DENC   =     -3827.26229493
  -exchange      EXHF   =         0.00000000
  -V(xc)+E(xc)   XCENC  =       381.64692411
  PAW double counting   =     16354.95482688   -16645.86067088
  entropy T*S    EENTRO =         0.00000000
  eigenvalues    EBANDS =      -511.48561821
  atomic energy  EATOM  =     12019.53804467
  Solvation  Ediel_sol  =         0.00000000
  ---------------------------------------------------
  free energy    TOTEN  =       -53.29819309 eV

  energy without entropy =      -53.29819309  energy(sigma->0) =      -53.29819309


--------------------------------------------------------------------------------------------------------




--------------------------------------- Iteration      1(  19)  ---------------------------------------


    POTLOK:  cpu time    0.1351: real time    0.1415
    SETDIJ:  cpu time    0.4420: real time    0.4436
     EDDAV:  cpu time   23.3253: real time   23.4428
 BZINTS: Fermi energy:  4.522748;124.000000 electrons
         Band energy:-511.485735;  BLOECHL correction:  0.000000
       DOS:  cpu time    0.0162: real time    0.0162
    --------------------------------------------
      LOOP:  cpu time   23.9185: real time   24.0441

 eigenvalue-minimisations  :  5784
 total energy-change (2. order) : 0.3653622E-07  (-0.2851450E-08)
 number of electron     124.0000001 magnetization 
 augmentation part       37.8133811 magnetization 

 Free energy of the ion-electron system (eV)
  ---------------------------------------------------
  alpha Z        PSCENC =       291.43441221
  Ewald energy   TEWEN  =     -8116.26381694
  -Hartree energ DENC   =     -3827.26212465
  -exchange      EXHF   =         0.00000000
  -V(xc)+E(xc)   XCENC  =       381.64691484
  PAW double counting   =     16354.98515514   -16645.89104302
  entropy T*S    EENTRO =         0.00000000
  eigenvalues    EBANDS =      -511.48573530
  atomic energy  EATOM  =     12019.53804467
  Solvation  Ediel_sol  =         0.00000000
  ---------------------------------------------------
  free energy    TOTEN  =       -53.29819305 eV

  energy without entropy =      -53.29819305  energy(sigma->0) =      -53.29819305


--------------------------------------------------------------------------------------------------------




 average (electrostatic) potential at core
  the test charge radii are     1.0774  0.9521  0.9698
  (the norm of the test charge is              1.0000)
       1 -97.4237       2 -97.4238       3 -96.9382       4 -96.9382       5 -33.6506
       6 -33.6506       7 -85.5638       8 -85.5638       9 -87.6960      10 -87.6960
      11 -87.1699      12 -87.1699      13 -86.9073      14 -86.9073
 
 
 
 E-fermi :   4.5227     XC(G=0):  -9.4330     alpha+bet :-10.1115


 k-point     1 :       0.0000    0.0000    0.0000
  band No.  band energies     occupation 
      1     -11.0005      2.00000
      2     -11.0004      2.00000
      3     -10.7980      2.00000
      4     -10.7980      2.00000
      5     -10.7980      2.00000
      6     -10.7980      2.00000
      7     -10.6222      2.00000
      8     -10.6222      2.00000
      9     -10.6222      2.00000
     10     -10.6222      2.00000
     11     -10.2716      2.00000
     12     -10.2716      2.00000
     13     -10.2716      2.00000
     14     -10.2716      2.00000
     15     -10.2595      2.00000
     16     -10.2592      2.00000
     17     -10.1260      2.00000
     18     -10.1260      2.00000
     19     -10.1260      2.00000
     20     -10.1260      2.00000
     21      -9.7310      2.00000
     22      -9.7222      2.00000
     23      -9.1534      2.00000
     24      -9.1241      2.00000
     25      -8.1906      2.00000
     26      -8.1370      2.00000
     27      -7.4349      2.00000
     28      -7.3969      2.00000
     29      -2.0776      2.00000
     30      -2.0316      2.00000
     31      -1.5673      2.00000
     32      -1.5673      2.00000
     33      -1.5673      2.00000
     34      -1.5673      2.00000
     35      -1.3498      2.00000
     36      -1.1223      2.00000
     37      -1.1223      2.00000
     38      -1.1223      2.00000
     39      -1.1223      2.00000
     40      -1.0836      2.00000
     41      -0.1297      2.00000
     42       0.4462      2.00000
     43       1.3989      2.00000
     44       2.0631      2.00000
     45       2.0631      2.00000
     46       2.0650      2.00000
     47       2.0650      2.00000
     48       2.1587      2.00000
     49       2.6994      2.00000
     50       2.6994      2.00000
     51       2.7091      2.00000
     52       2.7091      2.00000
     53       2.9821      2.00000
     54       2.9821      2.00000
     55       2.9906      2.00000
     56       2.9906      2.00000
     57       3.1070      2.00000
     58       3.9010      2.00000
     59       4.5043      2.00000
     60       4.5043      2.00000
     61       4.5049      2.00000
     62       4.5049      2.00000
     63       4.7832      0.00000
     64       5.4928      0.00000
     65       6.0709      0.00000
     66       6.3512      0.00000
     67       7.1972      0.00000
     68       7.2545      0.00000
     69       7.6930      0.00000
     70       7.8677      0.00000
     71       8.9792      0.00000
     72       8.9792      0.00000
     73       9.0010      0.00000
     74       9.0010      0.00000
     75       9.0170      0.00000
     76       9.0727      0.00000
     77       9.5803      0.00000
     78       9.5803      0.00000
     79       9.6206      0.00000
     80       9.6206      0.00000

 k-point     2 :       0.0833    0.0000    0.0000
  band No.  band energies     occupation 
      1     -11.0089      2.00000
      2     -11.0089      2.00000
      3     -10.8172      2.00000
      4     -10.8171      2.00000
      5     -10.7916      2.00000
      6     -10.7916      2.00000
      7     -10.6284      2.00000
      8     -10.6284      2.00000
      9     -10.6218      2.00000
     10     -10.6218      2.00000
     11     -10.3120      2.00000
     12     -10.3120      2.00000
     13     -10.2661      2.00000
     14     -10.2661      2.00000
     15     -10.2376      2.00000
     16     -10.2375      2.00000
     17     -10.1321      2.00000
     18     -10.1321      2.00000
     19     -10.1251      2.00000
     20     -10.1251      2.00000
     21      -9.6469      2.00000
     22      -9.6373      2.00000
     23      -9.0999      2.00000
     24      -9.0704      2.00000
     25      -8.1258      2.00000
     26      -8.0728      2.00000
     27      -7.3963      2.00000
     28      -7.3588      2.00000
     29      -2.0562      2.00000
     30      -2.0028      2.00000
     31      -1.5669      2.00000
     32      -1.5665      2.00000
     33      -1.5527      2.00000
     34      -1.5527      2.00000
     35      -1.3419      2.00000
     36      -1.1381      2.00000
     37      -1.1304      2.00000
     38      -1.1225      2.00000
     39      -1.1225      2.00000
     40      -1.0722      2.00000
     41      -0.1234      2.00000
     42       0.3710      2.00000
     43       1.3773      2.00000
     44       1.6334      2.00000
     45       1.7367      2.00000
     46       1.9737      2.00000
     47       1.9773      2.00000
     48       2.0872      2.00000
     49       2.2461      2.00000
     50       2.3156      2.00000
     51       2.5315      2.00000
     52       2.5435      2.00000
     53       2.7437      2.00000
     54       2.7954      2.00000
     55       3.0432      2.00000
     56       3.0535      2.00000
     57       3.4893      2.00000
     58       3.9243      2.00000
     59       4.0703      2.00000
     60       4.1380      2.00000
     61       4.4065      2.00000
     62       4.4084      2.00000
     63       5.1954      0.00000
     64       5.6546      0.00000
     65       6.3030      0.00000
     66       6.5513      0.00000
     67       7.5184      0.00000
     68       7.5798      0.00000
     69       7.9866      0.00000
     70       8.1144      0.00000
     71       8.5879      0.00000
     72       8.6514      0.00000
     73       9.0890      0.00000
     74       9.0952      0.00000
     75       9.1194      0.00000
     76       9.1725      0.00000
     77       9.5514      0.00000
     78       9.7193      0.00000
     79       9.7507      0.00000
     80       9.7947      0.00000

 k-point     3 :       0.1667    0.0000    0.0000
  band No.  band energies     occupation 
      1     -11.0434      2.00000
      2     -11.0433      2.00000
      3     -10.8484      2.00000
      4     -10.8483      2.00000
      5     -10.7748      2.00000
      6     -10.7748      2.00000
      7     -10.6407      2.00000
      8     -10.6407      2.00000
      9     -10.6197      2.00000
     10     -10.6197      2.00000
     11     -10.3949      2.00000
     12     -10.3948      2.00000
     13     -10.2523      2.00000
     14     -10.2523      2.00000
     15     -10.2048      2.00000
     16     -10.2048      2.00000
     17     -10.1424      2.00000
     18     -10.1424      2.00000
     19     -10.1211      2.00000
     20     -10.1211      2.00000
     21      -9.4237      2.00000
     22      -9.4126      2.00000
     23      -8.9419      2.00000
     24      -8.9126      2.00000
     25      -7.9550      2.00000
     26      -7.9050      2.00000
     27      -7.2885      2.00000
     28      -7.2536      2.00000
     29      -2.0096      2.00000
     30      -1.9407      2.00000
     31      -1.5606      2.00000
     32      -1.5578      2.00000
     33      -1.5123      2.00000
     34      -1.5123      2.00000
     35      -1.3216      2.00000
     36      -1.1706      2.00000
     37      -1.1523      2.00000
     38      -1.1223      2.00000
     39      -1.1223      2.00000
     40      -1.0628      2.00000
     41      -0.1848      2.00000
     42       0.0570      2.00000
     43       0.8416      2.00000
     44       0.9929      2.00000
     45       1.2701      2.00000
     46       1.5898      2.00000
     47       1.7115      2.00000
     48       1.7448      2.00000
     49       1.7520      2.00000
     50       1.9563      2.00000
     51       2.2149      2.00000
     52       2.2189      2.00000
     53       2.2358      2.00000
     54       2.3475      2.00000
     55       3.0747      2.00000
     56       3.0909      2.00000
     57       3.2532      2.00000
     58       3.4427      2.00000
     59       3.8211      2.00000
     60       4.0449      2.00000
     61       4.1559      2.00000
     62       4.1628      2.00000
     63       5.7298      0.00000
     64       5.8868      0.00000
     65       6.6255      0.00000
     66       6.7464      0.00000
     67       7.7532      0.00000
     68       7.8512      0.00000
     69       8.2415      0.00000
     70       8.3741      0.00000
     71       8.6935      0.00000
     72       8.8122      0.00000
     73       9.0703      0.00000
     74       9.3107      0.00000
     75       9.3718      0.00000
     76       9.3947      0.00000
     77       9.7772      0.00000
     78      10.1826      0.00000
     79      10.2006      0.00000
     80      10.2484      0.00000

 k-point     4 :       0.2500    0.0000    0.0000
  band No.  band energies     occupation 
      1     -11.1039      2.00000
      2     -11.1039      2.00000
      3     -10.8633      2.00000
      4     -10.8632      2.00000
      5     -10.7542      2.00000
      6     -10.7542      2.00000
      7     -10.6533      2.00000
      8     -10.6533      2.00000
      9     -10.6142      2.00000
     10     -10.6142      2.00000
     11     -10.4893      2.00000
     12     -10.4892      2.00000
     13     -10.2376      2.00000
     14     -10.2376      2.00000
     15     -10.1801      2.00000
     16     -10.1801      2.00000
     17     -10.1426      2.00000
     18     -10.1426      2.00000
     19     -10.1113      2.00000
     20     -10.1113      2.00000
     21      -9.1105      2.00000
     22      -9.0989      2.00000
     23      -8.6966      2.00000
     24      -8.6692      2.00000
     25      -7.7334      2.00000
     26      -7.6916      2.00000
     27      -7.1356      2.00000
     28      -7.1078      2.00000
     29      -1.9978      2.00000
     30      -1.9288      2.00000
     31      -1.5375      2.00000
     32      -1.5269      2.00000
     33      -1.4566      2.00000
     34      -1.4566      2.00000
     35      -1.3094      2.00000
     36      -1.2175      2.00000
     37      -1.1846      2.00000
     38      -1.1192      2.00000
     39      -1.1191      2.00000
     40      -1.1051      2.00000
     41      -0.5860      2.00000
     42      -0.5298      2.00000
     43       0.2480      2.00000
     44       0.4389      2.00000
     45       0.7523      2.00000
     46       1.0069      2.00000
     47       1.4388      2.00000
     48       1.4610      2.00000
     49       1.4722      2.00000
     50       1.5451      2.00000
     51       1.7786      2.00000
     52       1.8903      2.00000
     53       1.9129      2.00000
     54       1.9337      2.00000
     55       2.6760      2.00000
     56       2.9099      2.00000
     57       3.0367      2.00000
     58       3.0643      2.00000
     59       3.8461      2.00000
     60       3.8641      2.00000
     61       3.9596      2.00000
     62       3.9964      2.00000
     63       5.9385      0.00000
     64       6.0084      0.00000
     65       6.4796      0.00000
     66       6.5487      0.00000
     67       7.4107      0.00000
     68       7.4971      0.00000
     69       8.4935      0.00000
     70       8.6835      0.00000
     71       8.9786      0.00000
     72       9.1174      0.00000
     73       9.6344      0.00000
     74       9.6359      0.00000
     75       9.6652      0.00000
     76       9.7686      0.00000
     77      10.1009      0.00000
     78      10.4608      0.00000
     79      10.7609      0.00000
     80      10.7969      0.00000

 k-point     5 :       0.3333    0.0000    0.0000
  band No.  band energies     occupation 
      1     -11.1654      2.00000
      2     -11.1654      2.00000
      3     -10.8710      2.00000
      4     -10.8708      2.00000
      5     -10.7373      2.00000
      6     -10.7373      2.00000
      7     -10.6651      2.00000
      8     -10.6650      2.00000
      9     -10.6046      2.00000
     10     -10.6046      2.00000
     11     -10.5648      2.00000
     12     -10.5647      2.00000
     13     -10.2281      2.00000
     14     -10.2281      2.00000
     15     -10.1808      2.00000
     16     -10.1808      2.00000
     17     -10.1220      2.00000
     18     -10.1220      2.00000
     19     -10.0957      2.00000
     20     -10.0957      2.00000
     21      -8.7590      2.00000
     22      -8.7485      2.00000
     23      -8.4130      2.00000
     24      -8.3908      2.00000
     25      -7.5267      2.00000
     26      -7.4995      2.00000
     27      -6.9773      2.00000
     28      -6.9617      2.00000
     29      -2.1283      2.00000
     30      -2.0934      2.00000
     31      -1.5392      2.00000
     32      -1.4843      2.00000
     33      -1.4165      2.00000
     34      -1.4019      2.00000
     35      -1.4019      2.00000
     36      -1.3682      2.00000
     37      -1.2098      2.00000
     38      -1.1943      2.00000
     39      -1.1108      2.00000
     40      -1.1107      2.00000
     41      -1.0658      2.00000
     42      -1.0014      2.00000
     43      -0.0955      2.00000
     44       0.0510      2.00000
     45       0.4529      2.00000
     46       0.6040      2.00000
     47       0.8658      2.00000
     48       0.9693      2.00000
     49       1.2028      2.00000
     50       1.2174      2.00000
     51       1.6040      2.00000
     52       1.6113      2.00000
     53       1.6388      2.00000
     54       1.8162      2.00000
     55       2.4651      2.00000
     56       2.5998      2.00000
     57       2.9579      2.00000
     58       3.0026      2.00000
     59       3.5694      2.00000
     60       3.6040      2.00000
     61       3.9009      2.00000
     62       3.9654      2.00000
     63       5.7622      0.00000
     64       5.9053      0.00000
     65       6.2291      0.00000
     66       6.3199      0.00000
     67       7.0891      0.00000
     68       7.2377      0.00000
     69       8.5045      0.00000
     70       8.7421      0.00000
     71       8.8504      0.00000
     72       9.0589      0.00000
     73       9.6965      0.00000
     74       9.7184      0.00000
     75       9.7615      0.00000
     76       9.9537      0.00000
     77      10.2516      0.00000
     78      10.6782      0.00000
     79      10.7427      0.00000
     80      11.1570      0.00000

 k-point     6 :       0.4167    0.0000    0.0000
  band No.  band energies     occupation 
      1     -11.2081      2.00000
      2     -11.2080      2.00000
      3     -10.8797      2.00000
      4     -10.8796      2.00000
      5     -10.7278      2.00000
      6     -10.7277      2.00000
      7     -10.6751      2.00000
      8     -10.6751      2.00000
      9     -10.6062      2.00000
     10     -10.6061      2.00000
     11     -10.5945      2.00000
     12     -10.5945      2.00000
     13     -10.2243      2.00000
     14     -10.2243      2.00000
     15     -10.1867      2.00000
     16     -10.1867      2.00000
     17     -10.1037      2.00000
     18     -10.1037      2.00000
     19     -10.0810      2.00000
     20     -10.0810      2.00000
     21      -8.4462      2.00000
     22      -8.4382      2.00000
     23      -8.1823      2.00000
     24      -8.1679      2.00000
     25      -7.3938      2.00000
     26      -7.3819      2.00000
     27      -6.8606      2.00000
     28      -6.8556      2.00000
     29      -2.3941      2.00000
     30      -2.3836      2.00000
     31      -1.8293      2.00000
     32      -1.7957      2.00000
     33      -1.4182      2.00000
     34      -1.3870      2.00000
     35      -1.3643      2.00000
     36      -1.3642      2.00000
     37      -1.2658      2.00000
     38      -1.2404      2.00000
     39      -1.0990      2.00000
     40      -1.0990      2.00000
     41      -1.0458      2.00000
     42      -1.0159      2.00000
     43      -0.3114      2.00000
     44      -0.2321      2.00000
     45       0.0981      2.00000
     46       0.2878      2.00000
     47       0.5051      2.00000
     48       0.7615      2.00000
     49       1.0266      2.00000
     50       1.0436      2.00000
     51       1.4262      2.00000
     52       1.4573      2.00000
     53       1.5478      2.00000
     54       1.7445      2.00000
     55       2.4073      2.00000
     56       2.4548      2.00000
     57       2.8782      2.00000
     58       2.9388      2.00000
     59       3.3894      2.00000
     60       3.4399      2.00000
     61       3.8071      2.00000
     62       3.9204      2.00000
     63       5.5549      0.00000
     64       5.7389      0.00000
     65       6.0337      0.00000
     66       6.1499      0.00000
     67       6.9130      0.00000
     68       7.1326      0.00000
     69       8.4191      0.00000
     70       8.5171      0.00000
     71       8.8079      0.00000
     72       8.9032      0.00000
     73       9.4717      0.00000
     74       9.6842      0.00000
     75       9.7048      0.00000
     76       9.7823      0.00000
     77      10.2493      0.00000
     78      10.6370      0.00000
     79      10.7313      0.00000
     80      11.0983      0.00000

 k-point     7 :       0.5000    0.0000    0.0000
  band No.  band energies     occupation 
      1     -11.2231      2.00000
      2     -11.2231      2.00000
      3     -10.8843      2.00000
      4     -10.8842      2.00000
      5     -10.7249      2.00000
      6     -10.7249      2.00000
      7     -10.6796      2.00000
      8     -10.6796      2.00000
      9     -10.6178      2.00000
     10     -10.6177      2.00000
     11     -10.5901      2.00000
     12     -10.5901      2.00000
     13     -10.2235      2.00000
     14     -10.2234      2.00000
     15     -10.1892      2.00000
     16     -10.1892      2.00000
     17     -10.0971      2.00000
     18     -10.0971      2.00000
     19     -10.0750      2.00000
     20     -10.0750      2.00000
     21      -8.3056      2.00000
     22      -8.2994      2.00000
     23      -8.0993      2.00000
     24      -8.0895      2.00000
     25      -7.3530      2.00000
     26      -7.3473      2.00000
     27      -6.8186      2.00000
     28      -6.8169      2.00000
     29      -2.5365      2.00000
     30      -2.5200      2.00000
     31      -1.9755      2.00000
     32      -1.9477      2.00000
     33      -1.4074      2.00000
     34      -1.3730      2.00000
     35      -1.3514      2.00000
     36      -1.3514      2.00000
     37      -1.2837      2.00000
     38      -1.2552      2.00000
     39      -1.0930      2.00000
     40      -1.0930      2.00000
     41      -0.9234      2.00000
     42      -0.9234      2.00000
     43      -0.4544      2.00000
     44      -0.3978      2.00000
     45      -0.1125      2.00000
     46       0.0967      2.00000
     47       0.4995      2.00000
     48       0.7769      2.00000
     49       0.9644      2.00000
     50       0.9823      2.00000
     51       1.3616      2.00000
     52       1.3939      2.00000
     53       1.5519      2.00000
     54       1.6708      2.00000
     55       2.3433      2.00000
     56       2.4710      2.00000
     57       2.8440      2.00000
     58       2.9106      2.00000
     59       3.3295      2.00000
     60       3.3859      2.00000
     61       3.7548      2.00000
     62       3.9088      2.00000
     63       5.4801      0.00000
     64       5.6713      0.00000
     65       5.9535      0.00000
     66       6.0823      0.00000
     67       6.8590      0.00000
     68       7.1099      0.00000
     69       8.3627      0.00000
     70       8.4409      0.00000
     71       8.7585      0.00000
     72       8.8922      0.00000
     73       9.3024      0.00000
     74       9.6048      0.00000
     75       9.6890      0.00000
     76       9.7786      0.00000
     77      10.2450      0.00000
     78      10.5630      0.00000
     79      10.6906      0.00000
     80      11.0423      0.00000

 k-point     8 :       0.0833    0.0833    0.0000
  band No.  band energies     occupation 
      1     -11.0307      2.00000
      2     -11.0306      2.00000
      3     -10.8413      2.00000
      4     -10.8412      2.00000
      5     -10.7802      2.00000
      6     -10.7802      2.00000
      7     -10.6369      2.00000
      8     -10.6369      2.00000
      9     -10.6209      2.00000
     10     -10.6209      2.00000
     11     -10.3658      2.00000
     12     -10.3657      2.00000
     13     -10.2658      2.00000
     14     -10.2658      2.00000
     15     -10.2093      2.00000
     16     -10.2093      2.00000
     17     -10.1399      2.00000
     18     -10.1399      2.00000
     19     -10.1228      2.00000
     20     -10.1228      2.00000
     21      -9.4938      2.00000
     22      -9.4831      2.00000
     23      -8.9934      2.00000
     24      -8.9639      2.00000
     25      -8.0084      2.00000
     26      -7.9573      2.00000
     27      -7.3231      2.00000
     28      -7.2871      2.00000
     29      -2.0218      2.00000
     30      -1.9568      2.00000
     31      -1.5635      2.00000
     32      -1.5618      2.00000
     33      -1.5250      2.00000
     34      -1.5250      2.00000
     35      -1.3277      2.00000
     36      -1.1607      2.00000
     37      -1.1449      2.00000
     38      -1.1228      2.00000
     39      -1.1228      2.00000
     40      -1.0624      2.00000
     41      -0.1467      2.00000
     42       0.1777      2.00000
     43       1.0991      2.00000
     44       1.1321      2.00000
     45       1.4780      2.00000
     46       1.6145      2.00000
     47       1.7798      2.00000
     48       1.8537      2.00000
     49       1.9666      2.00000
     50       1.9916      2.00000
     51       2.0661      2.00000
     52       2.0797      2.00000
     53       2.7849      2.00000
     54       2.7937      2.00000
     55       2.8541      2.00000
     56       2.8891      2.00000
     57       3.4833      2.00000
     58       3.6457      2.00000
     59       3.7802      2.00000
     60       4.0379      2.00000
     61       4.2026      2.00000
     62       4.2077      2.00000
     63       5.6155      0.00000
     64       5.8448      0.00000
     65       6.6022      0.00000
     66       6.7655      0.00000
     67       7.9168      0.00000
     68       8.0352      0.00000
     69       8.1395      0.00000
     70       8.2435      0.00000
     71       8.5939      0.00000
     72       8.5979      0.00000
     73       8.8284      0.00000
     74       9.0569      0.00000
     75       9.4096      0.00000
     76       9.4540      0.00000
     77       9.6073      0.00000
     78       9.9636      0.00000
     79      10.1298      0.00000
     80      10.1595      0.00000

 k-point     9 :       0.1667    0.0833    0.0000
  band No.  band energies     occupation 
      1     -11.0797      2.00000
      2     -11.0797      2.00000
      3     -10.8598      2.00000
      4     -10.8597      2.00000
      5     -10.7624      2.00000
      6     -10.7624      2.00000
      7     -10.6476      2.00000
      8     -10.6476      2.00000
      9     -10.6181      2.00000
     10     -10.6181      2.00000
     11     -10.4475      2.00000
     12     -10.4475      2.00000
     13     -10.2615      2.00000
     14     -10.2615      2.00000
     15     -10.1777      2.00000
     16     -10.1777      2.00000
     17     -10.1474      2.00000
     18     -10.1474      2.00000
     19     -10.1152      2.00000
     20     -10.1152      2.00000
     21      -9.2258      2.00000
     22      -9.2143      2.00000
     23      -8.7881      2.00000
     24      -8.7598      2.00000
     25      -7.8146      2.00000
     26      -7.7691      2.00000
     27      -7.1924      2.00000
     28      -7.1615      2.00000
     29      -1.9890      2.00000
     30      -1.9157      2.00000
     31      -1.5478      2.00000
     32      -1.5410      2.00000
     33      -1.4766      2.00000
     34      -1.4765      2.00000
     35      -1.3087      2.00000
     36      -1.1970      2.00000
     37      -1.1710      2.00000
     38      -1.1216      2.00000
     39      -1.1215      2.00000
     40      -1.0772      2.00000
     41      -0.3703      2.00000
     42      -0.2847      2.00000
     43       0.4938      2.00000
     44       0.6220      2.00000
     45       0.9836      2.00000
     46       1.2082      2.00000
     47       1.3860      2.00000
     48       1.4295      2.00000
     49       1.5840      2.00000
     50       1.6810      2.00000
     51       1.7311      2.00000
     52       1.7711      2.00000
     53       2.3414      2.00000
     54       2.4282      2.00000
     55       2.7658      2.00000
     56       2.8637      2.00000
     57       3.0056      2.00000
     58       3.1139      2.00000
     59       3.8387      2.00000
     60       3.8525      2.00000
     61       3.9850      2.00000
     62       4.0508      2.00000
     63       6.0086      0.00000
     64       6.0243      0.00000
     65       6.7103      0.00000
     66       6.7422      0.00000
     67       7.7892      0.00000
     68       7.8270      0.00000
     69       8.5824      0.00000
     70       8.5977      0.00000
     71       8.8182      0.00000
     72       8.9104      0.00000
     73       9.1776      0.00000
     74       9.2327      0.00000
     75       9.7021      0.00000
     76       9.7327      0.00000
     77       9.9621      0.00000
     78      10.2823      0.00000
     79      10.5619      0.00000
     80      10.6840      0.00000

 k-point    10 :       0.2500    0.0833    0.0000
  band No.  band energies     occupation 
      1     -11.1405      2.00000
      2     -11.1404      2.00000
      3     -10.8671      2.00000
      4     -10.8670      2.00000
      5     -10.7452      2.00000
      6     -10.7452      2.00000
      7     -10.6580      2.00000
      8     -10.6580      2.00000
      9     -10.6117      2.00000
     10     -10.6117      2.00000
     11     -10.5279      2.00000
     12     -10.5278      2.00000
     13     -10.2540      2.00000
     14     -10.2540      2.00000
     15     -10.1709      2.00000
     16     -10.1709      2.00000
     17     -10.1367      2.00000
     18     -10.1367      2.00000
     19     -10.1009      2.00000
     20     -10.1009      2.00000
     21      -8.8897      2.00000
     22      -8.8787      2.00000
     23      -8.5159      2.00000
     24      -8.4913      2.00000
     25      -7.6048      2.00000
     26      -7.5713      2.00000
     27      -7.0361      2.00000
     28      -7.0156      2.00000
     29      -2.0392      2.00000
     30      -1.9864      2.00000
     31      -1.5161      2.00000
     32      -1.4952      2.00000
     33      -1.4218      2.00000
     34      -1.4209      2.00000
     35      -1.3356      2.00000
     36      -1.2774      2.00000
     37      -1.2013      2.00000
     38      -1.1515      2.00000
     39      -1.1148      2.00000
     40      -1.1141      2.00000
     41      -0.8889      2.00000
     42      -0.8405      2.00000
     43       0.0634      2.00000
     44       0.2210      2.00000
     45       0.5682      2.00000
     46       0.7380      2.00000
     47       1.0245      2.00000
     48       1.0682      2.00000
     49       1.1990      2.00000
     50       1.2874      2.00000
     51       1.3844      2.00000
     52       1.6120      2.00000
     53       1.9521      2.00000
     54       2.0382      2.00000
     55       2.4932      2.00000
     56       2.7361      2.00000
     57       2.8258      2.00000
     58       2.9067      2.00000
     59       3.5142      2.00000
     60       3.5313      2.00000
     61       3.9683      2.00000
     62       4.0308      2.00000
     63       6.0034      0.00000
     64       6.1196      0.00000
     65       6.4653      0.00000
     66       6.5474      0.00000
     67       7.4395      0.00000
     68       7.5163      0.00000
     69       8.7410      0.00000
     70       8.8605      0.00000
     71       9.1445      0.00000
     72       9.2617      0.00000
     73       9.3638      0.00000
     74       9.4554      0.00000
     75       9.7452      0.00000
     76      10.0432      0.00000
     77      10.2452      0.00000
     78      10.4737      0.00000
     79      10.7234      0.00000
     80      10.7867      0.00000

 k-point    11 :       0.3333    0.0833    0.0000
  band No.  band energies     occupation 
      1     -11.1910      2.00000
      2     -11.1909      2.00000
      3     -10.8734      2.00000
      4     -10.8733      2.00000
      5     -10.7338      2.00000
      6     -10.7338      2.00000
      7     -10.6673      2.00000
      8     -10.6673      2.00000
      9     -10.6032      2.00000
     10     -10.6032      2.00000
     11     -10.5830      2.00000
     12     -10.5829      2.00000
     13     -10.2492      2.00000
     14     -10.2492      2.00000
     15     -10.1780      2.00000
     16     -10.1780      2.00000
     17     -10.1157      2.00000
     18     -10.1157      2.00000
     19     -10.0873      2.00000
     20     -10.0873      2.00000
     21      -8.5458      2.00000
     22      -8.5367      2.00000
     23      -8.2478      2.00000
     24      -8.2299      2.00000
     25      -7.4428      2.00000
     26      -7.4254      2.00000
     27      -6.8982      2.00000
     28      -6.8898      2.00000
     29      -2.2468      2.00000
     30      -2.2315      2.00000
     31      -1.6679      2.00000
     32      -1.6247      2.00000
     33      -1.4235      2.00000
     34      -1.3998      2.00000
     35      -1.3765      2.00000
     36      -1.3686      2.00000
     37      -1.2310      2.00000
     38      -1.2198      2.00000
     39      -1.1215      2.00000
     40      -1.1110      2.00000
     41      -1.0743      2.00000
     42      -1.0438      2.00000
     43      -0.1849      2.00000
     44      -0.0858      2.00000
     45       0.3030      2.00000
     46       0.4154      2.00000
     47       0.5684      2.00000
     48       0.6863      2.00000
     49       0.9281      2.00000
     50       0.9805      2.00000
     51       1.2705      2.00000
     52       1.4450      2.00000
     53       1.6389      2.00000
     54       1.9060      2.00000
     55       2.3548      2.00000
     56       2.4993      2.00000
     57       2.7820      2.00000
     58       2.8601      2.00000
     59       3.2692      2.00000
     60       3.2908      2.00000
     61       3.8822      2.00000
     62       3.9818      2.00000
     63       5.8305      0.00000
     64       5.9729      0.00000
     65       6.2717      0.00000
     66       6.3746      0.00000
     67       7.1935      0.00000
     68       7.3217      0.00000
     69       8.6918      0.00000
     70       8.8724      0.00000
     71       8.9583      0.00000
     72       9.1977      0.00000
     73       9.4172      0.00000
     74       9.4980      0.00000
     75       9.7003      0.00000
     76       9.9363      0.00000
     77      10.2910      0.00000
     78      10.7429      0.00000
     79      10.8727      0.00000
     80      10.9148      0.00000

 k-point    12 :       0.4167    0.0833    0.0000
  band No.  band energies     occupation 
      1     -11.2187      2.00000
      2     -11.2187      2.00000
      3     -10.8795      2.00000
      4     -10.8794      2.00000
      5     -10.7287      2.00000
      6     -10.7287      2.00000
      7     -10.6740      2.00000
      8     -10.6740      2.00000
      9     -10.6094      2.00000
     10     -10.6093      2.00000
     11     -10.5947      2.00000
     12     -10.5947      2.00000
     13     -10.2474      2.00000
     14     -10.2474      2.00000
     15     -10.1830      2.00000
     16     -10.1830      2.00000
     17     -10.1003      2.00000
     18     -10.1003      2.00000
     19     -10.0814      2.00000
     20     -10.0814      2.00000
     21      -8.2961      2.00000
     22      -8.2893      2.00000
     23      -8.0876      2.00000
     24      -8.0767      2.00000
     25      -7.3676      2.00000
     26      -7.3612      2.00000
     27      -6.8195      2.00000
     28      -6.8176      2.00000
     29      -2.4727      2.00000
     30      -2.4583      2.00000
     31      -1.9284      2.00000
     32      -1.8997      2.00000
     33      -1.4006      2.00000
     34      -1.3738      2.00000
     35      -1.3541      2.00000
     36      -1.3497      2.00000
     37      -1.2703      2.00000
     38      -1.2453      2.00000
     39      -1.1041      2.00000
     40      -1.1027      2.00000
     41      -0.9528      2.00000
     42      -0.9398      2.00000
     43      -0.3842      2.00000
     44      -0.3191      2.00000
     45      -0.0293      2.00000
     46       0.1455      2.00000
     47       0.4321      2.00000
     48       0.5968      2.00000
     49       0.8028      2.00000
     50       0.8267      2.00000
     51       1.2347      2.00000
     52       1.3815      2.00000
     53       1.5536      2.00000
     54       1.7539      2.00000
     55       2.3121      2.00000
     56       2.3540      2.00000
     57       2.7603      2.00000
     58       2.8549      2.00000
     59       3.1413      2.00000
     60       3.1663      2.00000
     61       3.8112      2.00000
     62       3.9371      2.00000
     63       5.6938      0.00000
     64       5.8534      0.00000
     65       6.1511      0.00000
     66       6.2719      0.00000
     67       7.0809      0.00000
     68       7.2479      0.00000
     69       8.6354      0.00000
     70       8.6879      0.00000
     71       8.9844      0.00000
     72       9.0578      0.00000
     73       9.3337      0.00000
     74       9.4243      0.00000
     75       9.5802      0.00000
     76       9.8613      0.00000
     77      10.3139      0.00000
     78      10.6548      0.00000
     79      10.8242      0.00000
     80      10.8481      0.00000

 k-point    13 :       0.1667    0.1667    0.0000
  band No.  band energies     occupation 
      1     -11.1295      2.00000
      2     -11.1295      2.00000
      3     -10.8658      2.00000
      4     -10.8657      2.00000
      5     -10.7496      2.00000
      6     -10.7495      2.00000
      7     -10.6536      2.00000
      8     -10.6536      2.00000
      9     -10.6161      2.00000
     10     -10.6161      2.00000
     11     -10.5032      2.00000
     12     -10.5032      2.00000
     13     -10.2804      2.00000
     14     -10.2804      2.00000
     15     -10.1545      2.00000
     16     -10.1545      2.00000
     17     -10.1537      2.00000
     18     -10.1537      2.00000
     19     -10.1019      2.00000
     20     -10.1019      2.00000
     21      -8.9328      2.00000
     22      -8.9218      2.00000
     23      -8.5489      2.00000
     24      -8.5236      2.00000
     25      -7.6364      2.00000
     26      -7.6008      2.00000
     27      -7.0577      2.00000
     28      -7.0356      2.00000
     29      -2.0092      2.00000
     30      -1.9495      2.00000
     31      -1.5174      2.00000
     32      -1.5016      2.00000
     33      -1.4279      2.00000
     34      -1.4273      2.00000
     35      -1.3159      2.00000
     36      -1.2519      2.00000
     37      -1.1963      2.00000
     38      -1.1318      2.00000
     39      -1.1162      2.00000
     40      -1.1121      2.00000
     41      -0.7492      2.00000
     42      -0.7435      2.00000
     43       0.2421      2.00000
     44       0.2457      2.00000
     45       0.6685      2.00000
     46       0.7206      2.00000
     47       0.9812      2.00000
     48       1.0130      2.00000
     49       1.1926      2.00000
     50       1.2023      2.00000
     51       1.2995      2.00000
     52       1.6795      2.00000
     53       2.1839      2.00000
     54       2.3863      2.00000
     55       2.4345      2.00000
     56       2.4547      2.00000
     57       2.8332      2.00000
     58       2.8500      2.00000
     59       3.3666      2.00000
     60       3.4140      2.00000
     61       4.0065      2.00000
     62       4.0710      2.00000
     63       6.1632      0.00000
     64       6.2709      0.00000
     65       6.6774      0.00000
     66       6.7397      0.00000
     67       7.8963      0.00000
     68       7.9127      0.00000
     69       8.5879      0.00000
     70       8.8029      0.00000
     71       9.1716      0.00000
     72       9.2041      0.00000
     73       9.3994      0.00000
     74       9.5254      0.00000
     75       9.7306      0.00000
     76       9.7901      0.00000
     77      10.3096      0.00000
     78      10.4178      0.00000
     79      10.7018      0.00000
     80      10.8374      0.00000

 k-point    14 :       0.2500    0.1667    0.0000
  band No.  band energies     occupation 
      1     -11.1769      2.00000
      2     -11.1769      2.00000
      3     -10.8682      2.00000
      4     -10.8681      2.00000
      5     -10.7406      2.00000
      6     -10.7406      2.00000
      7     -10.6580      2.00000
      8     -10.6580      2.00000
      9     -10.6127      2.00000
     10     -10.6127      2.00000
     11     -10.5514      2.00000
     12     -10.5514      2.00000
     13     -10.2946      2.00000
     14     -10.2946      2.00000
     15     -10.1611      2.00000
     16     -10.1611      2.00000
     17     -10.1352      2.00000
     18     -10.1352      2.00000
     19     -10.0899      2.00000
     20     -10.0899      2.00000
     21      -8.5929      2.00000
     22      -8.5834      2.00000
     23      -8.2754      2.00000
     24      -8.2558      2.00000
     25      -7.4812      2.00000
     26      -7.4605      2.00000
     27      -6.9207      2.00000
     28      -6.9104      2.00000
     29      -2.1333      2.00000
     30      -2.1079      2.00000
     31      -1.5395      2.00000
     32      -1.5043      2.00000
     33      -1.4154      2.00000
     34      -1.3886      2.00000
     35      -1.3804      2.00000
     36      -1.3639      2.00000
     37      -1.2107      2.00000
     38      -1.1805      2.00000
     39      -1.1155      2.00000
     40      -1.1097      2.00000
     41      -1.0606      2.00000
     42      -1.0397      2.00000
     43      -0.0398      2.00000
     44       0.0360      2.00000
     45       0.3291      2.00000
     46       0.4025      2.00000
     47       0.5518      2.00000
     48       0.6266      2.00000
     49       0.7730      2.00000
     50       0.8796      2.00000
     51       1.1209      2.00000
     52       1.4491      2.00000
     53       1.8192      2.00000
     54       2.0935      2.00000
     55       2.1701      2.00000
     56       2.3868      2.00000
     57       2.6307      2.00000
     58       2.8189      2.00000
     59       2.9668      2.00000
     60       3.0472      2.00000
     61       3.9418      2.00000
     62       4.0504      2.00000
     63       6.2298      0.00000
     64       6.3012      0.00000
     65       6.5654      0.00000
     66       6.6169      0.00000
     67       7.7770      0.00000
     68       7.8070      0.00000
     69       8.7792      0.00000
     70       8.8447      0.00000
     71       9.3167      0.00000
     72       9.4345      0.00000
     73       9.5755      0.00000
     74       9.7671      0.00000
     75       9.8235      0.00000
     76      10.0590      0.00000
     77      10.3457      0.00000
     78      10.5909      0.00000
     79      10.7116      0.00000
     80      10.8966      0.00000

 k-point    15 :       0.3333    0.1667    0.0000
  band No.  band energies     occupation 
      1     -11.2097      2.00000
      2     -11.2097      2.00000
      3     -10.8704      2.00000
      4     -10.8703      2.00000
      5     -10.7363      2.00000
      6     -10.7363      2.00000
      7     -10.6616      2.00000
      8     -10.6616      2.00000
      9     -10.6082      2.00000
     10     -10.6082      2.00000
     11     -10.5823      2.00000
     12     -10.5823      2.00000
     13     -10.3029      2.00000
     14     -10.3029      2.00000
     15     -10.1669      2.00000
     16     -10.1669      2.00000
     17     -10.1153      2.00000
     18     -10.1153      2.00000
     19     -10.0879      2.00000
     20     -10.0879      2.00000
     21      -8.2815      2.00000
     22      -8.2744      2.00000
     23      -8.0571      2.00000
     24      -8.0449      2.00000
     25      -7.3993      2.00000
     26      -7.3916      2.00000
     27      -6.8212      2.00000
     28      -6.8190      2.00000
     29      -2.3321      2.00000
     30      -2.3237      2.00000
     31      -1.8164      2.00000
     32      -1.7882      2.00000
     33      -1.3858      2.00000
     34      -1.3783      2.00000
     35      -1.3562      2.00000
     36      -1.3444      2.00000
     37      -1.2332      2.00000
     38      -1.2234      2.00000
     39      -1.1329      2.00000
     40      -1.1272      2.00000
     41      -0.9827      2.00000
     42      -0.9707      2.00000
     43      -0.2300      2.00000
     44      -0.1645      2.00000
     45       0.0783      2.00000
     46       0.1694      2.00000
     47       0.2116      2.00000
     48       0.2961      2.00000
     49       0.5065      2.00000
     50       0.7004      2.00000
     51       1.0748      2.00000
     52       1.4185      2.00000
     53       1.4941      2.00000
     54       1.8571      2.00000
     55       2.0165      2.00000
     56       2.2087      2.00000
     57       2.5677      2.00000
     58       2.7447      2.00000
     59       2.8167      2.00000
     60       2.8852      2.00000
     61       3.8858      2.00000
     62       3.9736      2.00000
     63       6.1310      0.00000
     64       6.2244      0.00000
     65       6.4729      0.00000
     66       6.5515      0.00000
     67       7.6306      0.00000
     68       7.6774      0.00000
     69       8.7116      0.00000
     70       8.9294      0.00000
     71       9.2793      0.00000
     72       9.4081      0.00000
     73       9.5565      0.00000
     74       9.7372      0.00000
     75       9.8980      0.00000
     76      10.0197      0.00000
     77      10.4960      0.00000
     78      10.7222      0.00000
     79      10.7722      0.00000
     80      10.9637      0.00000

 k-point    16 :       0.4167    0.1667    0.0000
  band No.  band energies     occupation 
      1     -11.2213      2.00000
      2     -11.2213      2.00000
      3     -10.8716      2.00000
      4     -10.8716      2.00000
      5     -10.7351      2.00000
      6     -10.7350      2.00000
      7     -10.6633      2.00000
      8     -10.6633      2.00000
      9     -10.6048      2.00000
     10     -10.6048      2.00000
     11     -10.5936      2.00000
     12     -10.5936      2.00000
     13     -10.3057      2.00000
     14     -10.3057      2.00000
     15     -10.1691      2.00000
     16     -10.1691      2.00000
     17     -10.1003      2.00000
     18     -10.1003      2.00000
     19     -10.0949      2.00000
     20     -10.0949      2.00000
     21      -8.1338      2.00000
     22      -8.1280      2.00000
     23      -7.9842      2.00000
     24      -7.9760      2.00000
     25      -7.3832      2.00000
     26      -7.3801      2.00000
     27      -6.7857      2.00000
     28      -6.7854      2.00000
     29      -2.4361      2.00000
     30      -2.4202      2.00000
     31      -1.9456      2.00000
     32      -1.9199      2.00000
     33      -1.3776      2.00000
     34      -1.3670      2.00000
     35      -1.3480      2.00000
     36      -1.3390      2.00000
     37      -1.2487      2.00000
     38      -1.2332      2.00000
     39      -1.1199      2.00000
     40      -1.1186      2.00000
     41      -0.8705      2.00000
     42      -0.8647      2.00000
     43      -0.3681      2.00000
     44      -0.3074      2.00000
     45      -0.0213      2.00000
     46       0.0327      2.00000
     47       0.1313      2.00000
     48       0.1711      2.00000
     49       0.4401      2.00000
     50       0.6261      2.00000
     51       1.1208      2.00000
     52       1.2943      2.00000
     53       1.6292      2.00000
     54       1.6416      2.00000
     55       1.9508      2.00000
     56       2.1068      2.00000
     57       2.5777      2.00000
     58       2.6761      2.00000
     59       2.7387      2.00000
     60       2.9169      2.00000
     61       3.8494      2.00000
     62       3.9454      2.00000
     63       6.0753      0.00000
     64       6.1609      0.00000
     65       6.4610      0.00000
     66       6.5263      0.00000
     67       7.5761      0.00000
     68       7.6261      0.00000
     69       8.6618      0.00000
     70       8.9647      0.00000
     71       9.2718      0.00000
     72       9.4271      0.00000
     73       9.4958      0.00000
     74       9.6067      0.00000
     75       9.8949      0.00000
     76       9.9778      0.00000
     77      10.5856      0.00000
     78      10.6083      0.00000
     79      10.7335      0.00000
     80      10.9637      0.00000

 k-point    17 :       0.2500    0.2500    0.0000
  band No.  band energies     occupation 
      1     -11.2050      2.00000
      2     -11.2050      2.00000
      3     -10.8662      2.00000
      4     -10.8662      2.00000
      5     -10.7400      2.00000
      6     -10.7400      2.00000
      7     -10.6538      2.00000
      8     -10.6538      2.00000
      9     -10.6159      2.00000
     10     -10.6159      2.00000
     11     -10.5633      2.00000
     12     -10.5633      2.00000
     13     -10.3371      2.00000
     14     -10.3370      2.00000
     15     -10.1514      2.00000
     16     -10.1514      2.00000
     17     -10.1316      2.00000
     18     -10.1316      2.00000
     19     -10.0891      2.00000
     20     -10.0891      2.00000
     21      -8.2761      2.00000
     22      -8.2692      2.00000
     23      -8.0384      2.00000
     24      -8.0258      2.00000
     25      -7.4166      2.00000
     26      -7.4083      2.00000
     27      -6.8220      2.00000
     28      -6.8198      2.00000
     29      -2.2522      2.00000
     30      -2.2517      2.00000
     31      -1.7449      2.00000
     32      -1.7231      2.00000
     33      -1.3808      2.00000
     34      -1.3770      2.00000
     35      -1.3527      2.00000
     36      -1.3481      2.00000
     37      -1.2113      2.00000
     38      -1.1922      2.00000
     39      -1.1510      2.00000
     40      -1.1499      2.00000
     41      -0.9915      2.00000
     42      -0.9859      2.00000
     43      -0.1352      2.00000
     44      -0.0967      2.00000
     45       0.0278      2.00000
     46       0.0865      2.00000
     47       0.0901      2.00000
     48       0.1330      2.00000
     49       0.5580      2.00000
     50       0.6467      2.00000
     51       1.1604      2.00000
     52       1.2750      2.00000
     53       1.5235      2.00000
     54       1.7843      2.00000
     55       2.0241      2.00000
     56       2.0262      2.00000
     57       2.4795      2.00000
     58       2.5110      2.00000
     59       2.7235      2.00000
     60       2.8923      2.00000
     61       3.9162      2.00000
     62       3.9872      2.00000
     63       6.3615      0.00000
     64       6.4197      0.00000
     65       6.5916      0.00000
     66       6.6527      0.00000
     67       7.9846      0.00000
     68       8.0080      0.00000
     69       8.5783      0.00000
     70       8.7815      0.00000
     71       9.4600      0.00000
     72       9.6143      0.00000
     73       9.8798      0.00000
     74       9.9399      0.00000
     75      10.3802      0.00000
     76      10.4893      0.00000
     77      10.4957      0.00000
     78      10.6704      0.00000
     79      10.9453      0.00000
     80      11.0607      0.00000

 k-point    18 :       0.3333    0.2500    0.0000
  band No.  band energies     occupation 
      1     -11.2202      2.00000
      2     -11.2201      2.00000
      3     -10.8638      2.00000
      4     -10.8638      2.00000
      5     -10.7407      2.00000
      6     -10.7407      2.00000
      7     -10.6492      2.00000
      8     -10.6492      2.00000
      9     -10.6184      2.00000
     10     -10.6184      2.00000
     11     -10.5683      2.00000
     12     -10.5682      2.00000
     13     -10.3639      2.00000
     14     -10.3639      2.00000
     15     -10.1487      2.00000
     16     -10.1487      2.00000
     17     -10.1174      2.00000
     18     -10.1174      2.00000
     19     -10.0989      2.00000
     20     -10.0989      2.00000
     21      -8.0364      2.00000
     22      -8.0326      2.00000
     23      -7.8909      2.00000
     24      -7.8855      2.00000
     25      -7.4234      2.00000
     26      -7.4217      2.00000
     27      -6.7669      2.00000
     28      -6.7669      2.00000
     29      -2.3448      2.00000
     30      -2.3338      2.00000
     31      -1.9175      2.00000
     32      -1.8980      2.00000
     33      -1.3634      2.00000
     34      -1.3622      2.00000
     35      -1.3472      2.00000
     36      -1.3437      2.00000
     37      -1.2130      2.00000
     38      -1.2093      2.00000
     39      -1.1408      2.00000
     40      -1.1401      2.00000
     41      -0.8472      2.00000
     42      -0.8414      2.00000
     43      -0.2744      2.00000
     44      -0.2281      2.00000
     45      -0.2091      2.00000
     46      -0.1827      2.00000
     47      -0.1121      2.00000
     48      -0.0820      2.00000
     49       0.3927      2.00000
     50       0.6772      2.00000
     51       1.0901      2.00000
     52       1.2077      2.00000
     53       1.3479      2.00000
     54       1.6319      2.00000
     55       1.7435      2.00000
     56       1.8914      2.00000
     57       2.3083      2.00000
     58       2.3456      2.00000
     59       2.6535      2.00000
     60       2.9670      2.00000
     61       3.8885      2.00000
     62       3.9250      2.00000
     63       6.3375      0.00000
     64       6.3680      0.00000
     65       6.6763      0.00000
     66       6.6963      0.00000
     67       7.9654      0.00000
     68       7.9787      0.00000
     69       8.4831      0.00000
     70       8.8690      0.00000
     71       9.5219      0.00000
     72       9.7124      0.00000
     73       9.9051      0.00000
     74      10.0522      0.00000
     75      10.4125      0.00000
     76      10.5335      0.00000
     77      10.6922      0.00000
     78      10.9376      0.00000
     79      11.1949      0.00000
     80      11.3929      0.00000

 k-point    19 :       0.3333    0.3333    0.0000
  band No.  band energies     occupation 
      1     -11.2234      2.00000
      2     -11.2234      2.00000
      3     -10.8604      2.00000
      4     -10.8604      2.00000
      5     -10.7429      2.00000
      6     -10.7428      2.00000
      7     -10.6345      2.00000
      8     -10.6345      2.00000
      9     -10.6326      2.00000
     10     -10.6326      2.00000
     11     -10.5561      2.00000
     12     -10.5561      2.00000
     13     -10.3944      2.00000
     14     -10.3944      2.00000
     15     -10.1308      2.00000
     16     -10.1308      2.00000
     17     -10.1256      2.00000
     18     -10.1256      2.00000
     19     -10.1072      2.00000
     20     -10.1072      2.00000
     21      -7.9323      2.00000
     22      -7.9320      2.00000
     23      -7.8042      2.00000
     24      -7.8042      2.00000
     25      -7.4660      2.00000
     26      -7.4656      2.00000
     27      -6.7477      2.00000
     28      -6.7477      2.00000
     29      -2.3225      2.00000
     30      -2.3225      2.00000
     31      -1.9485      2.00000
     32      -1.9485      2.00000
     33      -1.3585      2.00000
     34      -1.3565      2.00000
     35      -1.3490      2.00000
     36      -1.3490      2.00000
     37      -1.1994      2.00000
     38      -1.1994      2.00000
     39      -1.1432      2.00000
     40      -1.1432      2.00000
     41      -0.7671      2.00000
     42      -0.7671      2.00000
     43      -0.3935      2.00000
     44      -0.3935      2.00000
     45      -0.3429      2.00000
     46      -0.2543      2.00000
     47      -0.1686      2.00000
     48      -0.1686      2.00000
     49       0.4393      2.00000
     50       0.8270      2.00000
     51       0.9698      2.00000
     52       0.9698      2.00000
     53       1.3497      2.00000
     54       1.5299      2.00000
     55       1.5299      2.00000
     56       1.9338      2.00000
     57       2.1584      2.00000
     58       2.1584      2.00000
     59       2.6648      2.00000
     60       3.0042      2.00000
     61       3.8927      2.00000
     62       3.8927      2.00000
     63       6.3765      0.00000
     64       6.3765      0.00000
     65       6.7777      0.00000
     66       6.7777      0.00000
     67       8.0195      0.00000
     68       8.0196      0.00000
     69       8.4220      0.00000
     70       8.8973      0.00000
     71       9.6621      0.00000
     72       9.8820      0.00000
     73       9.8820      0.00000
     74      10.2575      0.00000
     75      10.6806      0.00000
     76      10.6806      0.00000
     77      11.1286      0.00000
     78      11.1286      0.00000
     79      11.5995      0.00000
     80      11.6308      0.00000

 k-point    20 :       0.0000    0.0000    0.2500
  band No.  band energies     occupation 
      1     -11.0005      2.00000
      2     -11.0004      2.00000
      3     -10.7980      2.00000
      4     -10.7980      2.00000
      5     -10.7980      2.00000
      6     -10.7980      2.00000
      7     -10.6222      2.00000
      8     -10.6222      2.00000
      9     -10.6222      2.00000
     10     -10.6222      2.00000
     11     -10.2716      2.00000
     12     -10.2716      2.00000
     13     -10.2716      2.00000
     14     -10.2716      2.00000
     15     -10.2594      2.00000
     16     -10.2593      2.00000
     17     -10.1260      2.00000
     18     -10.1260      2.00000
     19     -10.1260      2.00000
     20     -10.1260      2.00000
     21      -9.7298      2.00000
     22      -9.7235      2.00000
     23      -9.1492      2.00000
     24      -9.1284      2.00000
     25      -8.1829      2.00000
     26      -8.1451      2.00000
     27      -7.4290      2.00000
     28      -7.4022      2.00000
     29      -2.0718      2.00000
     30      -2.0394      2.00000
     31      -1.5673      2.00000
     32      -1.5673      2.00000
     33      -1.5673      2.00000
     34      -1.5673      2.00000
     35      -1.3165      2.00000
     36      -1.1313      2.00000
     37      -1.1223      2.00000
     38      -1.1223      2.00000
     39      -1.1223      2.00000
     40      -1.1223      2.00000
     41      -0.0509      2.00000
     42       0.3436      2.00000
     43       1.5171      2.00000
     44       2.0315      2.00000
     45       2.0633      2.00000
     46       2.0633      2.00000
     47       2.0647      2.00000
     48       2.0647      2.00000
     49       2.7008      2.00000
     50       2.7008      2.00000
     51       2.7076      2.00000
     52       2.7076      2.00000
     53       2.9833      2.00000
     54       2.9833      2.00000
     55       2.9894      2.00000
     56       2.9894      2.00000
     57       3.2361      2.00000
     58       3.7710      2.00000
     59       4.5044      2.00000
     60       4.5044      2.00000
     61       4.5048      2.00000
     62       4.5048      2.00000
     63       4.9051      0.00000
     64       5.3826      0.00000
     65       6.1369      0.00000
     66       6.3244      0.00000
     67       7.2026      0.00000
     68       7.2423      0.00000
     69       7.7219      0.00000
     70       7.8446      0.00000
     71       8.9822      0.00000
     72       8.9822      0.00000
     73       8.9976      0.00000
     74       8.9976      0.00000
     75       9.0248      0.00000
     76       9.0643      0.00000
     77       9.5863      0.00000
     78       9.5863      0.00000
     79       9.6148      0.00000
     80       9.6148      0.00000

 k-point    21 :       0.0833    0.0000    0.2500
  band No.  band energies     occupation 
      1     -11.0089      2.00000
      2     -11.0089      2.00000
      3     -10.8172      2.00000
      4     -10.8171      2.00000
      5     -10.7916      2.00000
      6     -10.7916      2.00000
      7     -10.6284      2.00000
      8     -10.6284      2.00000
      9     -10.6218      2.00000
     10     -10.6218      2.00000
     11     -10.3120      2.00000
     12     -10.3120      2.00000
     13     -10.2661      2.00000
     14     -10.2661      2.00000
     15     -10.2376      2.00000
     16     -10.2375      2.00000
     17     -10.1321      2.00000
     18     -10.1321      2.00000
     19     -10.1251      2.00000
     20     -10.1251      2.00000
     21      -9.6456      2.00000
     22      -9.6387      2.00000
     23      -9.0956      2.00000
     24      -9.0748      2.00000
     25      -8.1182      2.00000
     26      -8.0808      2.00000
     27      -7.3905      2.00000
     28      -7.3640      2.00000
     29      -2.0495      2.00000
     30      -2.0120      2.00000
     31      -1.5669      2.00000
     32      -1.5666      2.00000
     33      -1.5527      2.00000
     34      -1.5527      2.00000
     35      -1.3086      2.00000
     36      -1.1473      2.00000
     37      -1.1301      2.00000
     38      -1.1225      2.00000
     39      -1.1225      2.00000
     40      -1.1088      2.00000
     41      -0.0526      2.00000
     42       0.2893      2.00000
     43       1.4485      2.00000
     44       1.6211      2.00000
     45       1.7551      2.00000
     46       1.9742      2.00000
     47       1.9768      2.00000
     48       1.9892      2.00000
     49       2.2801      2.00000
     50       2.3143      2.00000
     51       2.5332      2.00000
     52       2.5417      2.00000
     53       2.7560      2.00000
     54       2.7911      2.00000
     55       3.0447      2.00000
     56       3.0520      2.00000
     57       3.5449      2.00000
     58       3.8406      2.00000
     59       4.0963      2.00000
     60       4.1341      2.00000
     61       4.4068      2.00000
     62       4.4081      2.00000
     63       5.2599      0.00000
     64       5.5774      0.00000
     65       6.3546      0.00000
     66       6.5246      0.00000
     67       7.5253      0.00000
     68       7.5681      0.00000
     69       8.0079      0.00000
     70       8.0977      0.00000
     71       8.5976      0.00000
     72       8.6426      0.00000
     73       9.0969      0.00000
     74       9.0986      0.00000
     75       9.1157      0.00000
     76       9.1540      0.00000
     77       9.5812      0.00000
     78       9.6982      0.00000
     79       9.7573      0.00000
     80       9.7883      0.00000

 k-point    22 :       0.1667    0.0000    0.2500
  band No.  band energies     occupation 
      1     -11.0434      2.00000
      2     -11.0433      2.00000
      3     -10.8483      2.00000
      4     -10.8483      2.00000
      5     -10.7748      2.00000
      6     -10.7748      2.00000
      7     -10.6407      2.00000
      8     -10.6407      2.00000
      9     -10.6197      2.00000
     10     -10.6197      2.00000
     11     -10.3949      2.00000
     12     -10.3948      2.00000
     13     -10.2523      2.00000
     14     -10.2523      2.00000
     15     -10.2048      2.00000
     16     -10.2048      2.00000
     17     -10.1424      2.00000
     18     -10.1424      2.00000
     19     -10.1211      2.00000
     20     -10.1211      2.00000
     21      -9.4221      2.00000
     22      -9.4143      2.00000
     23      -8.9376      2.00000
     24      -8.9169      2.00000
     25      -7.9478      2.00000
     26      -7.9125      2.00000
     27      -7.2831      2.00000
     28      -7.2584      2.00000
     29      -2.0010      2.00000
     30      -1.9527      2.00000
     31      -1.5604      2.00000
     32      -1.5586      2.00000
     33      -1.5123      2.00000
     34      -1.5123      2.00000
     35      -1.2899      2.00000
     36      -1.1765      2.00000
     37      -1.1507      2.00000
     38      -1.1223      2.00000
     39      -1.1223      2.00000
     40      -1.0960      2.00000
     41      -0.1441      2.00000
     42       0.0256      2.00000
     43       0.8565      2.00000
     44       0.9579      2.00000
     45       1.3177      2.00000
     46       1.5210      2.00000
     47       1.7459      2.00000
     48       1.7509      2.00000
     49       1.7751      2.00000
     50       1.9300      2.00000
     51       2.2213      2.00000
     52       2.2333      2.00000
     53       2.2365      2.00000
     54       2.3296      2.00000
     55       3.0771      2.00000
     56       3.0885      2.00000
     57       3.2748      2.00000
     58       3.4048      2.00000
     59       3.8641      2.00000
     60       4.0182      2.00000
     61       4.1569      2.00000
     62       4.1618      2.00000
     63       5.7510      0.00000
     64       5.8615      0.00000
     65       6.6460      0.00000
     66       6.7310      0.00000
     67       7.7648      0.00000
     68       7.8331      0.00000
     69       8.2638      0.00000
     70       8.3560      0.00000
     71       8.7114      0.00000
     72       8.7942      0.00000
     73       9.0967      0.00000
     74       9.2587      0.00000
     75       9.3750      0.00000
     76       9.3912      0.00000
     77       9.8496      0.00000
     78      10.1282      0.00000
     79      10.2077      0.00000
     80      10.2415      0.00000

 k-point    23 :       0.2500    0.0000    0.2500
  band No.  band energies     occupation 
      1     -11.1039      2.00000
      2     -11.1039      2.00000
      3     -10.8632      2.00000
      4     -10.8632      2.00000
      5     -10.7542      2.00000
      6     -10.7542      2.00000
      7     -10.6533      2.00000
      8     -10.6533      2.00000
      9     -10.6142      2.00000
     10     -10.6142      2.00000
     11     -10.4893      2.00000
     12     -10.4893      2.00000
     13     -10.2376      2.00000
     14     -10.2376      2.00000
     15     -10.1801      2.00000
     16     -10.1801      2.00000
     17     -10.1426      2.00000
     18     -10.1426      2.00000
     19     -10.1113      2.00000
     20     -10.1113      2.00000
     21      -9.1089      2.00000
     22      -9.1007      2.00000
     23      -8.6925      2.00000
     24      -8.6732      2.00000
     25      -7.7274      2.00000
     26      -7.6979      2.00000
     27      -7.1313      2.00000
     28      -7.1117      2.00000
     29      -1.9889      2.00000
     30      -1.9404      2.00000
     31      -1.5366      2.00000
     32      -1.5295      2.00000
     33      -1.4566      2.00000
     34      -1.4566      2.00000
     35      -1.2867      2.00000
     36      -1.2220      2.00000
     37      -1.1810      2.00000
     38      -1.1254      2.00000
     39      -1.1192      2.00000
     40      -1.1191      2.00000
     41      -0.5770      2.00000
     42      -0.5376      2.00000
     43       0.2697      2.00000
     44       0.3993      2.00000
     45       0.8016      2.00000
     46       0.9764      2.00000
     47       1.4505      2.00000
     48       1.4626      2.00000
     49       1.4705      2.00000
     50       1.5278      2.00000
     51       1.7997      2.00000
     52       1.8936      2.00000
     53       1.9089      2.00000
     54       1.9096      2.00000
     55       2.7158      2.00000
     56       2.8799      2.00000
     57       3.0407      2.00000
     58       3.0602      2.00000
     59       3.8488      2.00000
     60       3.8615      2.00000
     61       3.9647      2.00000
     62       3.9909      2.00000
     63       5.9488      0.00000
     64       5.9982      0.00000
     65       6.4899      0.00000
     66       6.5386      0.00000
     67       7.4229      0.00000
     68       7.4840      0.00000
     69       8.5167      0.00000
     70       8.6480      0.00000
     71       9.0057      0.00000
     72       9.1010      0.00000
     73       9.6347      0.00000
     74       9.6357      0.00000
     75       9.6784      0.00000
     76       9.7499      0.00000
     77      10.1466      0.00000
     78      10.3916      0.00000
     79      10.7658      0.00000
     80      10.7782      0.00000

 k-point    24 :       0.3333    0.0000    0.2500
  band No.  band energies     occupation 
      1     -11.1654      2.00000
      2     -11.1654      2.00000
      3     -10.8710      2.00000
      4     -10.8709      2.00000
      5     -10.7373      2.00000
      6     -10.7373      2.00000
      7     -10.6651      2.00000
      8     -10.6650      2.00000
      9     -10.6046      2.00000
     10     -10.6046      2.00000
     11     -10.5648      2.00000
     12     -10.5647      2.00000
     13     -10.2281      2.00000
     14     -10.2281      2.00000
     15     -10.1808      2.00000
     16     -10.1808      2.00000
     17     -10.1220      2.00000
     18     -10.1220      2.00000
     19     -10.0957      2.00000
     20     -10.0957      2.00000
     21      -8.7575      2.00000
     22      -8.7501      2.00000
     23      -8.4097      2.00000
     24      -8.3940      2.00000
     25      -7.5227      2.00000
     26      -7.5036      2.00000
     27      -6.9749      2.00000
     28      -6.9639      2.00000
     29      -2.1234      2.00000
     30      -2.0987      2.00000
     31      -1.5339      2.00000
     32      -1.4975      2.00000
     33      -1.4033      2.00000
     34      -1.4019      2.00000
     35      -1.4019      2.00000
     36      -1.3718      2.00000
     37      -1.2083      2.00000
     38      -1.1972      2.00000
     39      -1.1108      2.00000
     40      -1.1107      2.00000
     41      -1.0566      2.00000
     42      -1.0112      2.00000
     43      -0.0764      2.00000
     44       0.0262      2.00000
     45       0.4727      2.00000
     46       0.5768      2.00000
     47       0.8903      2.00000
     48       0.9630      2.00000
     49       1.2048      2.00000
     50       1.2152      2.00000
     51       1.6154      2.00000
     52       1.6268      2.00000
     53       1.6349      2.00000
     54       1.7757      2.00000
     55       2.4935      2.00000
     56       2.5869      2.00000
     57       2.9642      2.00000
     58       2.9958      2.00000
     59       3.5747      2.00000
     60       3.5992      2.00000
     61       3.9084      2.00000
     62       3.9541      2.00000
     63       5.7825      0.00000
     64       5.8835      0.00000
     65       6.2435      0.00000
     66       6.3075      0.00000
     67       7.1100      0.00000
     68       7.2148      0.00000
     69       8.5279      0.00000
     70       8.6798      0.00000
     71       8.9112      0.00000
     72       9.0453      0.00000
     73       9.7178      0.00000
     74       9.7245      0.00000
     75       9.7549      0.00000
     76       9.8939      0.00000
     77      10.3114      0.00000
     78      10.5634      0.00000
     79      10.8728      0.00000
     80      11.1344      0.00000

 k-point    25 :       0.4167    0.0000    0.2500
  band No.  band energies     occupation 
      1     -11.2081      2.00000
      2     -11.2080      2.00000
      3     -10.8797      2.00000
      4     -10.8796      2.00000
      5     -10.7278      2.00000
      6     -10.7277      2.00000
      7     -10.6751      2.00000
      8     -10.6751      2.00000
      9     -10.6062      2.00000
     10     -10.6061      2.00000
     11     -10.5945      2.00000
     12     -10.5945      2.00000
     13     -10.2243      2.00000
     14     -10.2243      2.00000
     15     -10.1867      2.00000
     16     -10.1867      2.00000
     17     -10.1037      2.00000
     18     -10.1037      2.00000
     19     -10.0810      2.00000
     20     -10.0810      2.00000
     21      -8.4451      2.00000
     22      -8.4394      2.00000
     23      -8.1802      2.00000
     24      -8.1700      2.00000
     25      -7.3920      2.00000
     26      -7.3837      2.00000
     27      -6.8598      2.00000
     28      -6.8563      2.00000
     29      -2.3926      2.00000
     30      -2.3851      2.00000
     31      -1.8247      2.00000
     32      -1.8010      2.00000
     33      -1.4134      2.00000
     34      -1.3915      2.00000
     35      -1.3643      2.00000
     36      -1.3642      2.00000
     37      -1.2617      2.00000
     38      -1.2438      2.00000
     39      -1.0990      2.00000
     40      -1.0990      2.00000
     41      -1.0418      2.00000
     42      -1.0207      2.00000
     43      -0.3001      2.00000
     44      -0.2440      2.00000
     45       0.1170      2.00000
     46       0.2427      2.00000
     47       0.5592      2.00000
     48       0.7319      2.00000
     49       1.0289      2.00000
     50       1.0409      2.00000
     51       1.4309      2.00000
     52       1.4528      2.00000
     53       1.5751      2.00000
     54       1.7139      2.00000
     55       2.4174      2.00000
     56       2.4522      2.00000
     57       2.8865      2.00000
     58       2.9292      2.00000
     59       3.3976      2.00000
     60       3.4331      2.00000
     61       3.8217      2.00000
     62       3.9019      2.00000
     63       5.5802      0.00000
     64       5.7097      0.00000
     65       6.0536      0.00000
     66       6.1353      0.00000
     67       6.9422      0.00000
     68       7.0965      0.00000
     69       8.4379      0.00000
     70       8.5179      0.00000
     71       8.8052      0.00000
     72       8.8958      0.00000
     73       9.5014      0.00000
     74       9.6549      0.00000
     75       9.7155      0.00000
     76       9.7702      0.00000
     77      10.2596      0.00000
     78      10.4870      0.00000
     79      10.8916      0.00000
     80      11.1137      0.00000

 k-point    26 :       0.5000    0.0000    0.2500
  band No.  band energies     occupation 
      1     -11.2231      2.00000
      2     -11.2231      2.00000
      3     -10.8843      2.00000
      4     -10.8842      2.00000
      5     -10.7249      2.00000
      6     -10.7249      2.00000
      7     -10.6796      2.00000
      8     -10.6796      2.00000
      9     -10.6178      2.00000
     10     -10.6177      2.00000
     11     -10.5902      2.00000
     12     -10.5901      2.00000
     13     -10.2235      2.00000
     14     -10.2235      2.00000
     15     -10.1892      2.00000
     16     -10.1892      2.00000
     17     -10.0971      2.00000
     18     -10.0971      2.00000
     19     -10.0750      2.00000
     20     -10.0750      2.00000
     21      -8.3047      2.00000
     22      -8.3003      2.00000
     23      -8.0979      2.00000
     24      -8.0909      2.00000
     25      -7.3521      2.00000
     26      -7.3481      2.00000
     27      -6.8183      2.00000
     28      -6.8171      2.00000
     29      -2.5341      2.00000
     30      -2.5225      2.00000
     31      -1.9715      2.00000
     32      -1.9518      2.00000
     33      -1.4027      2.00000
     34      -1.3786      2.00000
     35      -1.3514      2.00000
     36      -1.3514      2.00000
     37      -1.2789      2.00000
     38      -1.2589      2.00000
     39      -1.0930      2.00000
     40      -1.0930      2.00000
     41      -0.9236      2.00000
     42      -0.9236      2.00000
     43      -0.4462      2.00000
     44      -0.4062      2.00000
     45      -0.0900      2.00000
     46       0.0524      2.00000
     47       0.5537      2.00000
     48       0.7446      2.00000
     49       0.9668      2.00000
     50       0.9795      2.00000
     51       1.3664      2.00000
     52       1.3893      2.00000
     53       1.5656      2.00000
     54       1.6500      2.00000
     55       2.3661      2.00000
     56       2.4565      2.00000
     57       2.8529      2.00000
     58       2.8999      2.00000
     59       3.3387      2.00000
     60       3.3784      2.00000
     61       3.7749      2.00000
     62       3.8839      2.00000
     63       5.5071      0.00000
     64       5.6419      0.00000
     65       5.9752      0.00000
     66       6.0660      0.00000
     67       6.8916      0.00000
     68       7.0676      0.00000
     69       8.3845      0.00000
     70       8.4535      0.00000
     71       8.7488      0.00000
     72       8.8621      0.00000
     73       9.3652      0.00000
     74       9.5751      0.00000
     75       9.7012      0.00000
     76       9.7644      0.00000
     77      10.2279      0.00000
     78      10.3900      0.00000
     79      10.8835      0.00000
     80      11.0768      0.00000

 k-point    27 :       0.0833    0.0833    0.2500
  band No.  band energies     occupation 
      1     -11.0307      2.00000
      2     -11.0306      2.00000
      3     -10.8413      2.00000
      4     -10.8412      2.00000
      5     -10.7802      2.00000
      6     -10.7802      2.00000
      7     -10.6369      2.00000
      8     -10.6369      2.00000
      9     -10.6209      2.00000
     10     -10.6209      2.00000
     11     -10.3658      2.00000
     12     -10.3657      2.00000
     13     -10.2658      2.00000
     14     -10.2658      2.00000
     15     -10.2093      2.00000
     16     -10.2093      2.00000
     17     -10.1399      2.00000
     18     -10.1399      2.00000
     19     -10.1228      2.00000
     20     -10.1228      2.00000
     21      -9.4923      2.00000
     22      -9.4847      2.00000
     23      -8.9891      2.00000
     24      -8.9683      2.00000
     25      -8.0011      2.00000
     26      -7.9650      2.00000
     27      -7.3175      2.00000
     28      -7.2921      2.00000
     29      -2.0137      2.00000
     30      -1.9681      2.00000
     31      -1.5634      2.00000
     32      -1.5623      2.00000
     33      -1.5250      2.00000
     34      -1.5250      2.00000
     35      -1.2951      2.00000
     36      -1.1674      2.00000
     37      -1.1438      2.00000
     38      -1.1228      2.00000
     39      -1.1228      2.00000
     40      -1.0972      2.00000
     41      -0.0950      2.00000
     42       0.1322      2.00000
     43       1.1018      2.00000
     44       1.1238      2.00000
     45       1.5091      2.00000
     46       1.6038      2.00000
     47       1.7861      2.00000
     48       1.8391      2.00000
     49       1.9700      2.00000
     50       1.9865      2.00000
     51       2.0678      2.00000
     52       2.0779      2.00000
     53       2.7826      2.00000
     54       2.7901      2.00000
     55       2.8631      2.00000
     56       2.8867      2.00000
     57       3.4972      2.00000
     58       3.5994      2.00000
     59       3.8396      2.00000
     60       4.0091      2.00000
     61       4.2033      2.00000
     62       4.2069      2.00000
     63       5.6464      0.00000
     64       5.8071      0.00000
     65       6.6311      0.00000
     66       6.7454      0.00000
     67       7.9287      0.00000
     68       8.0070      0.00000
     69       8.1640      0.00000
     70       8.2322      0.00000
     71       8.5996      0.00000
     72       8.6012      0.00000
     73       8.8507      0.00000
     74       9.0093      0.00000
     75       9.4139      0.00000
     76       9.4417      0.00000
     77       9.6737      0.00000
     78       9.9169      0.00000
     79      10.1351      0.00000
     80      10.1568      0.00000

 k-point    28 :       0.1667    0.0833    0.2500
  band No.  band energies     occupation 
      1     -11.0797      2.00000
      2     -11.0797      2.00000
      3     -10.8598      2.00000
      4     -10.8597      2.00000
      5     -10.7624      2.00000
      6     -10.7624      2.00000
      7     -10.6476      2.00000
      8     -10.6476      2.00000
      9     -10.6181      2.00000
     10     -10.6181      2.00000
     11     -10.4475      2.00000
     12     -10.4475      2.00000
     13     -10.2615      2.00000
     14     -10.2615      2.00000
     15     -10.1777      2.00000
     16     -10.1777      2.00000
     17     -10.1474      2.00000
     18     -10.1474      2.00000
     19     -10.1152      2.00000
     20     -10.1152      2.00000
     21      -9.2242      2.00000
     22      -9.2161      2.00000
     23      -8.7839      2.00000
     24      -8.7639      2.00000
     25      -7.8081      2.00000
     26      -7.7760      2.00000
     27      -7.1876      2.00000
     28      -7.1658      2.00000
     29      -1.9798      2.00000
     30      -1.9283      2.00000
     31      -1.5472      2.00000
     32      -1.5427      2.00000
     33      -1.4766      2.00000
     34      -1.4765      2.00000
     35      -1.2815      2.00000
     36      -1.2015      2.00000
     37      -1.1679      2.00000
     38      -1.1218      2.00000
     39      -1.1215      2.00000
     40      -1.1036      2.00000
     41      -0.3548      2.00000
     42      -0.2949      2.00000
     43       0.5097      2.00000
     44       0.5988      2.00000
     45       1.0165      2.00000
     46       1.1706      2.00000
     47       1.4006      2.00000
     48       1.4275      2.00000
     49       1.5932      2.00000
     50       1.6631      2.00000
     51       1.7384      2.00000
     52       1.7668      2.00000
     53       2.3546      2.00000
     54       2.4152      2.00000
     55       2.7871      2.00000
     56       2.8556      2.00000
     57       3.0164      2.00000
     58       3.0933      2.00000
     59       3.8386      2.00000
     60       3.8476      2.00000
     61       3.9983      2.00000
     62       4.0438      2.00000
     63       6.0108      0.00000
     64       6.0219      0.00000
     65       6.7151      0.00000
     66       6.7377      0.00000
     67       7.7946      0.00000
     68       7.8213      0.00000
     69       8.5852      0.00000
     70       8.5962      0.00000
     71       8.8300      0.00000
     72       8.8958      0.00000
     73       9.1821      0.00000
     74       9.2209      0.00000
     75       9.7089      0.00000
     76       9.7316      0.00000
     77      10.0047      0.00000
     78      10.2294      0.00000
     79      10.5780      0.00000
     80      10.6597      0.00000

 k-point    29 :       0.2500    0.0833    0.2500
  band No.  band energies     occupation 
      1     -11.1405      2.00000
      2     -11.1405      2.00000
      3     -10.8671      2.00000
      4     -10.8670      2.00000
      5     -10.7452      2.00000
      6     -10.7452      2.00000
      7     -10.6580      2.00000
      8     -10.6580      2.00000
      9     -10.6117      2.00000
     10     -10.6117      2.00000
     11     -10.5279      2.00000
     12     -10.5278      2.00000
     13     -10.2540      2.00000
     14     -10.2540      2.00000
     15     -10.1709      2.00000
     16     -10.1709      2.00000
     17     -10.1367      2.00000
     18     -10.1367      2.00000
     19     -10.1009      2.00000
     20     -10.1009      2.00000
     21      -8.8882      2.00000
     22      -8.8804      2.00000
     23      -8.5123      2.00000
     24      -8.4949      2.00000
     25      -7.5999      2.00000
     26      -7.5762      2.00000
     27      -7.0330      2.00000
     28      -7.0185      2.00000
     29      -2.0321      2.00000
     30      -1.9948      2.00000
     31      -1.5141      2.00000
     32      -1.4999      2.00000
     33      -1.4216      2.00000
     34      -1.4210      2.00000
     35      -1.3222      2.00000
     36      -1.2819      2.00000
     37      -1.1968      2.00000
     38      -1.1613      2.00000
     39      -1.1148      2.00000
     40      -1.1143      2.00000
     41      -0.8819      2.00000
     42      -0.8478      2.00000
     43       0.0820      2.00000
     44       0.1909      2.00000
     45       0.5980      2.00000
     46       0.7148      2.00000
     47       1.0296      2.00000
     48       1.0575      2.00000
     49       1.2278      2.00000
     50       1.2868      2.00000
     51       1.4010      2.00000
     52       1.5645      2.00000
     53       1.9670      2.00000
     54       2.0260      2.00000
     55       2.5295      2.00000
     56       2.6923      2.00000
     57       2.8514      2.00000
     58       2.9016      2.00000
     59       3.5159      2.00000
     60       3.5281      2.00000
     61       3.9767      2.00000
     62       4.0209      2.00000
     63       6.0198      0.00000
     64       6.1017      0.00000
     65       6.4784      0.00000
     66       6.5361      0.00000
     67       7.4509      0.00000
     68       7.5052      0.00000
     69       8.7539      0.00000
     70       8.8361      0.00000
     71       9.1690      0.00000
     72       9.2509      0.00000
     73       9.3707      0.00000
     74       9.4384      0.00000
     75       9.7845      0.00000
     76       9.9850      0.00000
     77      10.2974      0.00000
     78      10.4538      0.00000
     79      10.7135      0.00000
     80      10.7604      0.00000

 k-point    30 :       0.3333    0.0833    0.2500
  band No.  band energies     occupation 
      1     -11.1910      2.00000
      2     -11.1909      2.00000
      3     -10.8734      2.00000
      4     -10.8733      2.00000
      5     -10.7338      2.00000
      6     -10.7338      2.00000
      7     -10.6673      2.00000
      8     -10.6673      2.00000
      9     -10.6032      2.00000
     10     -10.6032      2.00000
     11     -10.5830      2.00000
     12     -10.5829      2.00000
     13     -10.2492      2.00000
     14     -10.2492      2.00000
     15     -10.1780      2.00000
     16     -10.1780      2.00000
     17     -10.1157      2.00000
     18     -10.1157      2.00000
     19     -10.0873      2.00000
     20     -10.0873      2.00000
     21      -8.5445      2.00000
     22      -8.5381      2.00000
     23      -8.2451      2.00000
     24      -8.2325      2.00000
     25      -7.4403      2.00000
     26      -7.4280      2.00000
     27      -6.8969      2.00000
     28      -6.8910      2.00000
     29      -2.2446      2.00000
     30      -2.2338      2.00000
     31      -1.6625      2.00000
     32      -1.6322      2.00000
     33      -1.4184      2.00000
     34      -1.4019      2.00000
     35      -1.3757      2.00000
     36      -1.3701      2.00000
     37      -1.2292      2.00000
     38      -1.2212      2.00000
     39      -1.1194      2.00000
     40      -1.1120      2.00000
     41      -1.0710      2.00000
     42      -1.0493      2.00000
     43      -0.1709      2.00000
     44      -0.1009      2.00000
     45       0.3148      2.00000
     46       0.3921      2.00000
     47       0.5917      2.00000
     48       0.6719      2.00000
     49       0.9396      2.00000
     50       0.9758      2.00000
     51       1.2868      2.00000
     52       1.4033      2.00000
     53       1.6887      2.00000
     54       1.8686      2.00000
     55       2.3805      2.00000
     56       2.4810      2.00000
     57       2.7946      2.00000
     58       2.8501      2.00000
     59       3.2726      2.00000
     60       3.2879      2.00000
     61       3.8962      2.00000
     62       3.9666      2.00000
     63       5.8500      0.00000
     64       5.9504      0.00000
     65       6.2885      0.00000
     66       6.3609      0.00000
     67       7.2115      0.00000
     68       7.3019      0.00000
     69       8.7112      0.00000
     70       8.8319      0.00000
     71       9.0023      0.00000
     72       9.1649      0.00000
     73       9.4428      0.00000
     74       9.4986      0.00000
     75       9.7159      0.00000
     76       9.8779      0.00000
     77      10.3552      0.00000
     78      10.6414      0.00000
     79      10.8895      0.00000
     80      11.0259      0.00000

 k-point    31 :       0.4167    0.0833    0.2500
  band No.  band energies     occupation 
      1     -11.2187      2.00000
      2     -11.2187      2.00000
      3     -10.8795      2.00000
      4     -10.8794      2.00000
      5     -10.7287      2.00000
      6     -10.7287      2.00000
      7     -10.6740      2.00000
      8     -10.6740      2.00000
      9     -10.6094      2.00000
     10     -10.6093      2.00000
     11     -10.5947      2.00000
     12     -10.5947      2.00000
     13     -10.2474      2.00000
     14     -10.2474      2.00000
     15     -10.1830      2.00000
     16     -10.1830      2.00000
     17     -10.1003      2.00000
     18     -10.1003      2.00000
     19     -10.0814      2.00000
     20     -10.0814      2.00000
     21      -8.2951      2.00000
     22      -8.2904      2.00000
     23      -8.0859      2.00000
     24      -8.0782      2.00000
     25      -7.3667      2.00000
     26      -7.3622      2.00000
     27      -6.8192      2.00000
     28      -6.8178      2.00000
     29      -2.4706      2.00000
     30      -2.4604      2.00000
     31      -1.9243      2.00000
     32      -1.9040      2.00000
     33      -1.3965      2.00000
     34      -1.3776      2.00000
     35      -1.3537      2.00000
     36      -1.3508      2.00000
     37      -1.2662      2.00000
     38      -1.2486      2.00000
     39      -1.1039      2.00000
     40      -1.1029      2.00000
     41      -0.9511      2.00000
     42      -0.9419      2.00000
     43      -0.3749      2.00000
     44      -0.3290      2.00000
     45      -0.0101      2.00000
     46       0.1089      2.00000
     47       0.4679      2.00000
     48       0.5797      2.00000
     49       0.8081      2.00000
     50       0.8249      2.00000
     51       1.2478      2.00000
     52       1.3462      2.00000
     53       1.5913      2.00000
     54       1.7271      2.00000
     55       2.3232      2.00000
     56       2.3530      2.00000
     57       2.7715      2.00000
     58       2.8394      2.00000
     59       3.1461      2.00000
     60       3.1636      2.00000
     61       3.8283      2.00000
     62       3.9173      2.00000
     63       5.7165      0.00000
     64       5.8293      0.00000
     65       6.1702      0.00000
     66       6.2556      0.00000
     67       7.1033      0.00000
     68       7.2208      0.00000
     69       8.6607      0.00000
     70       8.7069      0.00000
     71       8.9490      0.00000
     72       9.0151      0.00000
     73       9.3909      0.00000
     74       9.4402      0.00000
     75       9.5895      0.00000
     76       9.7997      0.00000
     77      10.3401      0.00000
     78      10.5409      0.00000
     79      10.8940      0.00000
     80      10.9739      0.00000

 k-point    32 :       0.1667    0.1667    0.2500
  band No.  band energies     occupation 
      1     -11.1295      2.00000
      2     -11.1295      2.00000
      3     -10.8658      2.00000
      4     -10.8657      2.00000
      5     -10.7496      2.00000
      6     -10.7495      2.00000
      7     -10.6536      2.00000
      8     -10.6536      2.00000
      9     -10.6161      2.00000
     10     -10.6161      2.00000
     11     -10.5032      2.00000
     12     -10.5032      2.00000
     13     -10.2804      2.00000
     14     -10.2804      2.00000
     15     -10.1545      2.00000
     16     -10.1545      2.00000
     17     -10.1537      2.00000
     18     -10.1537      2.00000
     19     -10.1019      2.00000
     20     -10.1019      2.00000
     21      -8.9313      2.00000
     22      -8.9235      2.00000
     23      -8.5452      2.00000
     24      -8.5273      2.00000
     25      -7.6313      2.00000
     26      -7.6061      2.00000
     27      -7.0543      2.00000
     28      -7.0387      2.00000
     29      -2.0013      2.00000
     30      -1.9592      2.00000
     31      -1.5160      2.00000
     32      -1.5054      2.00000
     33      -1.4277      2.00000
     34      -1.4273      2.00000
     35      -1.3003      2.00000
     36      -1.2561      2.00000
     37      -1.1907      2.00000
     38      -1.1436      2.00000
     39      -1.1161      2.00000
     40      -1.1142      2.00000
     41      -0.7481      2.00000
     42      -0.7441      2.00000
     43       0.2425      2.00000
     44       0.2451      2.00000
     45       0.6743      2.00000
     46       0.7105      2.00000
     47       0.9846      2.00000
     48       1.0067      2.00000
     49       1.1939      2.00000
     50       1.1996      2.00000
     51       1.3509      2.00000
     52       1.6105      2.00000
     53       2.2344      2.00000
     54       2.3736      2.00000
     55       2.4312      2.00000
     56       2.4479      2.00000
     57       2.8362      2.00000
     58       2.8475      2.00000
     59       3.3726      2.00000
     60       3.4063      2.00000
     61       4.0159      2.00000
     62       4.0615      2.00000
     63       6.1782      0.00000
     64       6.2541      0.00000
     65       6.6877      0.00000
     66       6.7315      0.00000
     67       7.8988      0.00000
     68       7.9103      0.00000
     69       8.6144      0.00000
     70       8.7645      0.00000
     71       9.1741      0.00000
     72       9.1980      0.00000
     73       9.4297      0.00000
     74       9.5159      0.00000
     75       9.7388      0.00000
     76       9.7811      0.00000
     77      10.3244      0.00000
     78      10.4033      0.00000
     79      10.7035      0.00000
     80      10.7962      0.00000

 k-point    33 :       0.2500    0.1667    0.2500
  band No.  band energies     occupation 
      1     -11.1769      2.00000
      2     -11.1769      2.00000
      3     -10.8682      2.00000
      4     -10.8681      2.00000
      5     -10.7406      2.00000
      6     -10.7406      2.00000
      7     -10.6580      2.00000
      8     -10.6580      2.00000
      9     -10.6127      2.00000
     10     -10.6127      2.00000
     11     -10.5514      2.00000
     12     -10.5514      2.00000
     13     -10.2946      2.00000
     14     -10.2946      2.00000
     15     -10.1611      2.00000
     16     -10.1611      2.00000
     17     -10.1352      2.00000
     18     -10.1352      2.00000
     19     -10.0899      2.00000
     20     -10.0899      2.00000
     21      -8.5915      2.00000
     22      -8.5849      2.00000
     23      -8.2725      2.00000
     24      -8.2586      2.00000
     25      -7.4782      2.00000
     26      -7.4635      2.00000
     27      -6.9191      2.00000
     28      -6.9119      2.00000
     29      -2.1297      2.00000
     30      -2.1117      2.00000
     31      -1.5356      2.00000
     32      -1.5113      2.00000
     33      -1.4101      2.00000
     34      -1.3927      2.00000
     35      -1.3766      2.00000
     36      -1.3657      2.00000
     37      -1.2061      2.00000
     38      -1.1847      2.00000
     39      -1.1145      2.00000
     40      -1.1104      2.00000
     41      -1.0580      2.00000
     42      -1.0431      2.00000
     43      -0.0298      2.00000
     44       0.0235      2.00000
     45       0.3407      2.00000
     46       0.3923      2.00000
     47       0.5585      2.00000
     48       0.6085      2.00000
     49       0.7917      2.00000
     50       0.8637      2.00000
     51       1.1655      2.00000
     52       1.3887      2.00000
     53       1.8700      2.00000
     54       2.0478      2.00000
     55       2.2117      2.00000
     56       2.3529      2.00000
     57       2.6615      2.00000
     58       2.7899      2.00000
     59       2.9843      2.00000
     60       3.0390      2.00000
     61       3.9584      2.00000
     62       4.0352      2.00000
     63       6.2397      0.00000
     64       6.2901      0.00000
     65       6.5733      0.00000
     66       6.6097      0.00000
     67       7.7816      0.00000
     68       7.8028      0.00000
     69       8.7864      0.00000
     70       8.8325      0.00000
     71       9.3369      0.00000
     72       9.4221      0.00000
     73       9.5971      0.00000
     74       9.7284      0.00000
     75       9.8582      0.00000
     76      10.0090      0.00000
     77      10.4060      0.00000
     78      10.5701      0.00000
     79      10.7288      0.00000
     80      10.8493      0.00000

 k-point    34 :       0.3333    0.1667    0.2500
  band No.  band energies     occupation 
      1     -11.2097      2.00000
      2     -11.2097      2.00000
      3     -10.8704      2.00000
      4     -10.8703      2.00000
      5     -10.7363      2.00000
      6     -10.7363      2.00000
      7     -10.6616      2.00000
      8     -10.6616      2.00000
      9     -10.6082      2.00000
     10     -10.6082      2.00000
     11     -10.5823      2.00000
     12     -10.5823      2.00000
     13     -10.3029      2.00000
     14     -10.3029      2.00000
     15     -10.1669      2.00000
     16     -10.1669      2.00000
     17     -10.1153      2.00000
     18     -10.1153      2.00000
     19     -10.0879      2.00000
     20     -10.0879      2.00000
     21      -8.2805      2.00000
     22      -8.2755      2.00000
     23      -8.0553      2.00000
     24      -8.0466      2.00000
     25      -7.3981      2.00000
     26      -7.3927      2.00000
     27      -6.8209      2.00000
     28      -6.8193      2.00000
     29      -2.3309      2.00000
     30      -2.3250      2.00000
     31      -1.8124      2.00000
     32      -1.7925      2.00000
     33      -1.3844      2.00000
     34      -1.3791      2.00000
     35      -1.3546      2.00000
     36      -1.3462      2.00000
     37      -1.2316      2.00000
     38      -1.2247      2.00000
     39      -1.1321      2.00000
     40      -1.1280      2.00000
     41      -0.9812      2.00000
     42      -0.9727      2.00000
     43      -0.2206      2.00000
     44      -0.1742      2.00000
     45       0.0860      2.00000
     46       0.1429      2.00000
     47       0.2343      2.00000
     48       0.2856      2.00000
     49       0.5352      2.00000
     50       0.6695      2.00000
     51       1.1124      2.00000
     52       1.3207      2.00000
     53       1.5938      2.00000
     54       1.8136      2.00000
     55       2.0460      2.00000
     56       2.1746      2.00000
     57       2.6093      2.00000
     58       2.7348      2.00000
     59       2.8203      2.00000
     60       2.8658      2.00000
     61       3.8994      2.00000
     62       3.9614      2.00000
     63       6.1443      0.00000
     64       6.2105      0.00000
     65       6.4846      0.00000
     66       6.5403      0.00000
     67       7.6377      0.00000
     68       7.6708      0.00000
     69       8.7336      0.00000
     70       8.8804      0.00000
     71       9.3278      0.00000
     72       9.4130      0.00000
     73       9.5651      0.00000
     74       9.6857      0.00000
     75       9.9214      0.00000
     76      10.0051      0.00000
     77      10.5189      0.00000
     78      10.6619      0.00000
     79      10.8293      0.00000
     80      11.0005      0.00000

 k-point    35 :       0.4167    0.1667    0.2500
  band No.  band energies     occupation 
      1     -11.2213      2.00000
      2     -11.2213      2.00000
      3     -10.8716      2.00000
      4     -10.8716      2.00000
      5     -10.7351      2.00000
      6     -10.7350      2.00000
      7     -10.6633      2.00000
      8     -10.6633      2.00000
      9     -10.6048      2.00000
     10     -10.6048      2.00000
     11     -10.5936      2.00000
     12     -10.5936      2.00000
     13     -10.3057      2.00000
     14     -10.3057      2.00000
     15     -10.1691      2.00000
     16     -10.1691      2.00000
     17     -10.1003      2.00000
     18     -10.1003      2.00000
     19     -10.0949      2.00000
     20     -10.0949      2.00000
     21      -8.1329      2.00000
     22      -8.1289      2.00000
     23      -7.9829      2.00000
     24      -7.9771      2.00000
     25      -7.3827      2.00000
     26      -7.3805      2.00000
     27      -6.7857      2.00000
     28      -6.7854      2.00000
     29      -2.4338      2.00000
     30      -2.4226      2.00000
     31      -1.9419      2.00000
     32      -1.9236      2.00000
     33      -1.3757      2.00000
     34      -1.3682      2.00000
     35      -1.3470      2.00000
     36      -1.3406      2.00000
     37      -1.2463      2.00000
     38      -1.2353      2.00000
     39      -1.1197      2.00000
     40      -1.1188      2.00000
     41      -0.8698      2.00000
     42      -0.8657      2.00000
     43      -0.3594      2.00000
     44      -0.3165      2.00000
     45      -0.0155      2.00000
     46       0.0222      2.00000
     47       0.1389      2.00000
     48       0.1664      2.00000
     49       0.4636      2.00000
     50       0.5928      2.00000
     51       1.1572      2.00000
     52       1.2792      2.00000
     53       1.6247      2.00000
     54       1.6353      2.00000
     55       1.9665      2.00000
     56       2.0736      2.00000
     57       2.6128      2.00000
     58       2.6739      2.00000
     59       2.7553      2.00000
     60       2.8862      2.00000
     61       3.8632      2.00000
     62       3.9310      2.00000
     63       6.0893      0.00000
     64       6.1504      0.00000
     65       6.4688      0.00000
     66       6.5156      0.00000
     67       7.5837      0.00000
     68       7.6190      0.00000
     69       8.6923      0.00000
     70       8.8951      0.00000
     71       9.3147      0.00000
     72       9.4660      0.00000
     73       9.4673      0.00000
     74       9.5849      0.00000
     75       9.9178      0.00000
     76       9.9701      0.00000
     77      10.5609      0.00000
     78      10.5814      0.00000
     79      10.8100      0.00000
     80      10.9984      0.00000

 k-point    36 :       0.2500    0.2500    0.2500
  band No.  band energies     occupation 
      1     -11.2050      2.00000
      2     -11.2050      2.00000
      3     -10.8662      2.00000
      4     -10.8662      2.00000
      5     -10.7400      2.00000
      6     -10.7400      2.00000
      7     -10.6538      2.00000
      8     -10.6538      2.00000
      9     -10.6159      2.00000
     10     -10.6159      2.00000
     11     -10.5633      2.00000
     12     -10.5633      2.00000
     13     -10.3370      2.00000
     14     -10.3370      2.00000
     15     -10.1514      2.00000
     16     -10.1514      2.00000
     17     -10.1316      2.00000
     18     -10.1316      2.00000
     19     -10.0891      2.00000
     20     -10.0891      2.00000
     21      -8.2752      2.00000
     22      -8.2703      2.00000
     23      -8.0365      2.00000
     24      -8.0276      2.00000
     25      -7.4153      2.00000
     26      -7.4095      2.00000
     27      -6.8217      2.00000
     28      -6.8201      2.00000
     29      -2.2522      2.00000
     30      -2.2518      2.00000
     31      -1.7418      2.00000
     32      -1.7264      2.00000
     33      -1.3802      2.00000
     34      -1.3775      2.00000
     35      -1.3521      2.00000
     36      -1.3488      2.00000
     37      -1.2084      2.00000
     38      -1.1949      2.00000
     39      -1.1508      2.00000
     40      -1.1500      2.00000
     41      -0.9906      2.00000
     42      -0.9867      2.00000
     43      -0.1297      2.00000
     44      -0.1026      2.00000
     45       0.0374      2.00000
     46       0.0799      2.00000
     47       0.0928      2.00000
     48       0.1213      2.00000
     49       0.5785      2.00000
     50       0.6411      2.00000
     51       1.1607      2.00000
     52       1.2293      2.00000
     53       1.5922      2.00000
     54       1.7706      2.00000
     55       2.0043      2.00000
     56       2.0131      2.00000
     57       2.4960      2.00000
     58       2.5151      2.00000
     59       2.7433      2.00000
     60       2.8640      2.00000
     61       3.9281      2.00000
     62       3.9781      2.00000
     63       6.3694      0.00000
     64       6.4107      0.00000
     65       6.6007      0.00000
     66       6.6440      0.00000
     67       7.9882      0.00000
     68       8.0047      0.00000
     69       8.6017      0.00000
     70       8.7423      0.00000
     71       9.5167      0.00000
     72       9.6308      0.00000
     73       9.8427      0.00000
     74       9.8849      0.00000
     75      10.4378      0.00000
     76      10.4842      0.00000
     77      10.4968      0.00000
     78      10.6631      0.00000
     79      10.9379      0.00000
     80      11.0216      0.00000

 k-point    37 :       0.3333    0.2500    0.2500
  band No.  band energies     occupation 
      1     -11.2202      2.00000
      2     -11.2201      2.00000
      3     -10.8638      2.00000
      4     -10.8638      2.00000
      5     -10.7407      2.00000
      6     -10.7407      2.00000
      7     -10.6492      2.00000
      8     -10.6492      2.00000
      9     -10.6184      2.00000
     10     -10.6184      2.00000
     11     -10.5683      2.00000
     12     -10.5682      2.00000
     13     -10.3639      2.00000
     14     -10.3639      2.00000
     15     -10.1487      2.00000
     16     -10.1487      2.00000
     17     -10.1174      2.00000
     18     -10.1174      2.00000
     19     -10.0989      2.00000
     20     -10.0989      2.00000
     21      -8.0358      2.00000
     22      -8.0332      2.00000
     23      -7.8901      2.00000
     24      -7.8863      2.00000
     25      -7.4231      2.00000
     26      -7.4219      2.00000
     27      -6.7669      2.00000
     28      -6.7669      2.00000
     29      -2.3433      2.00000
     30      -2.3354      2.00000
     31      -1.9146      2.00000
     32      -1.9009      2.00000
     33      -1.3633      2.00000
     34      -1.3624      2.00000
     35      -1.3466      2.00000
     36      -1.3442      2.00000
     37      -1.2124      2.00000
     38      -1.2098      2.00000
     39      -1.1406      2.00000
     40      -1.1401      2.00000
     41      -0.8464      2.00000
     42      -0.8424      2.00000
     43      -0.2658      2.00000
     44      -0.2305      2.00000
     45      -0.2078      2.00000
     46      -0.1903      2.00000
     47      -0.1106      2.00000
     48      -0.0900      2.00000
     49       0.4318      2.00000
     50       0.6296      2.00000
     51       1.1013      2.00000
     52       1.1722      2.00000
     53       1.4317      2.00000
     54       1.6228      2.00000
     55       1.7408      2.00000
     56       1.8387      2.00000
     57       2.3134      2.00000
     58       2.3371      2.00000
     59       2.7135      2.00000
     60       2.9295      2.00000
     61       3.8939      2.00000
     62       3.9196      2.00000
     63       6.3452      0.00000
     64       6.3673      0.00000
     65       6.6752      0.00000
     66       6.6899      0.00000
     67       7.9681      0.00000
     68       7.9775      0.00000
     69       8.5238      0.00000
     70       8.7853      0.00000
     71       9.6089      0.00000
     72       9.7408      0.00000
     73       9.8658      0.00000
     74       9.9978      0.00000
     75      10.4419      0.00000
     76      10.5270      0.00000
     77      10.7386      0.00000
     78      10.9246      0.00000
     79      11.1997      0.00000
     80      11.4151      0.00000

 k-point    38 :       0.3333    0.3333    0.2500
  band No.  band energies     occupation 
      1     -11.2234      2.00000
      2     -11.2234      2.00000
      3     -10.8604      2.00000
      4     -10.8604      2.00000
      5     -10.7429      2.00000
      6     -10.7428      2.00000
      7     -10.6345      2.00000
      8     -10.6345      2.00000
      9     -10.6326      2.00000
     10     -10.6326      2.00000
     11     -10.5561      2.00000
     12     -10.5561      2.00000
     13     -10.3944      2.00000
     14     -10.3944      2.00000
     15     -10.1308      2.00000
     16     -10.1308      2.00000
     17     -10.1256      2.00000
     18     -10.1256      2.00000
     19     -10.1073      2.00000
     20     -10.1073      2.00000
     21      -7.9322      2.00000
     22      -7.9320      2.00000
     23      -7.8042      2.00000
     24      -7.8042      2.00000
     25      -7.4659      2.00000
     26      -7.4656      2.00000
     27      -6.7477      2.00000
     28      -6.7477      2.00000
     29      -2.3225      2.00000
     30      -2.3225      2.00000
     31      -1.9485      2.00000
     32      -1.9485      2.00000
     33      -1.3582      2.00000
     34      -1.3568      2.00000
     35      -1.3491      2.00000
     36      -1.3491      2.00000
     37      -1.1993      2.00000
     38      -1.1993      2.00000
     39      -1.1431      2.00000
     40      -1.1431      2.00000
     41      -0.7672      2.00000
     42      -0.7672      2.00000
     43      -0.3929      2.00000
     44      -0.3928      2.00000
     45      -0.3321      2.00000
     46      -0.2700      2.00000
     47      -0.1694      2.00000
     48      -0.1694      2.00000
     49       0.4844      2.00000
     50       0.7456      2.00000
     51       0.9712      2.00000
     52       0.9712      2.00000
     53       1.4507      2.00000
     54       1.5275      2.00000
     55       1.5275      2.00000
     56       1.8443      2.00000
     57       2.1600      2.00000
     58       2.1600      2.00000
     59       2.7327      2.00000
     60       2.9657      2.00000
     61       3.8921      2.00000
     62       3.8921      2.00000
     63       6.3817      0.00000
     64       6.3817      0.00000
     65       6.7712      0.00000
     66       6.7713      0.00000
     67       8.0212      0.00000
     68       8.0212      0.00000
     69       8.4731      0.00000
     70       8.7949      0.00000
     71       9.7811      0.00000
     72       9.8808      0.00000
     73       9.8808      0.00000
     74      10.1881      0.00000
     75      10.6940      0.00000
     76      10.6940      0.00000
     77      11.1386      0.00000
     78      11.1387      0.00000
     79      11.5258      0.00000
     80      11.5505      0.00000

 k-point    39 :       0.0000    0.0000    0.5000
  band No.  band energies     occupation 
      1     -11.0005      2.00000
      2     -11.0005      2.00000
      3     -10.7980      2.00000
      4     -10.7980      2.00000
      5     -10.7980      2.00000
      6     -10.7980      2.00000
      7     -10.6222      2.00000
      8     -10.6222      2.00000
      9     -10.6222      2.00000
     10     -10.6222      2.00000
     11     -10.2716      2.00000
     12     -10.2716      2.00000
     13     -10.2716      2.00000
     14     -10.2716      2.00000
     15     -10.2593      2.00000
     16     -10.2593      2.00000
     17     -10.1260      2.00000
     18     -10.1260      2.00000
     19     -10.1260      2.00000
     20     -10.1260      2.00000
     21      -9.7267      2.00000
     22      -9.7267      2.00000
     23      -9.1389      2.00000
     24      -9.1389      2.00000
     25      -8.1642      2.00000
     26      -8.1642      2.00000
     27      -7.4153      2.00000
     28      -7.4153      2.00000
     29      -2.0566      2.00000
     30      -2.0566      2.00000
     31      -1.5673      2.00000
     32      -1.5673      2.00000
     33      -1.5673      2.00000
     34      -1.5673      2.00000
     35      -1.2306      2.00000
     36      -1.2305      2.00000
     37      -1.1223      2.00000
     38      -1.1223      2.00000
     39      -1.1223      2.00000
     40      -1.1223      2.00000
     41       0.1368      2.00000
     42       0.1368      2.00000
     43       1.7709      2.00000
     44       1.7709      2.00000
     45       2.0640      2.00000
     46       2.0640      2.00000
     47       2.0640      2.00000
     48       2.0640      2.00000
     49       2.7042      2.00000
     50       2.7042      2.00000
     51       2.7042      2.00000
     52       2.7042      2.00000
     53       2.9864      2.00000
     54       2.9864      2.00000
     55       2.9864      2.00000
     56       2.9864      2.00000
     57       3.5034      2.00000
     58       3.5034      2.00000
     59       4.5046      2.00000
     60       4.5046      2.00000
     61       4.5046      2.00000
     62       4.5046      2.00000
     63       5.1489      0.00000
     64       5.1489      0.00000
     65       6.2466      0.00000
     66       6.2466      0.00000
     67       7.2193      0.00000
     68       7.2193      0.00000
     69       7.7860      0.00000
     70       7.7860      0.00000
     71       8.9898      0.00000
     72       8.9898      0.00000
     73       8.9898      0.00000
     74       8.9898      0.00000
     75       9.0443      0.00000
     76       9.0443      0.00000
     77       9.6006      0.00000
     78       9.6006      0.00000
     79       9.6006      0.00000
     80       9.6006      0.00000

 k-point    40 :       0.0833    0.0000    0.5000
  band No.  band energies     occupation 
      1     -11.0089      2.00000
      2     -11.0089      2.00000
      3     -10.8172      2.00000
      4     -10.8172      2.00000
      5     -10.7916      2.00000
      6     -10.7916      2.00000
      7     -10.6284      2.00000
      8     -10.6284      2.00000
      9     -10.6218      2.00000
     10     -10.6218      2.00000
     11     -10.3120      2.00000
     12     -10.3120      2.00000
     13     -10.2661      2.00000
     14     -10.2661      2.00000
     15     -10.2376      2.00000
     16     -10.2376      2.00000
     17     -10.1321      2.00000
     18     -10.1321      2.00000
     19     -10.1251      2.00000
     20     -10.1251      2.00000
     21      -9.6422      2.00000
     22      -9.6422      2.00000
     23      -9.0852      2.00000
     24      -9.0852      2.00000
     25      -8.0997      2.00000
     26      -8.0997      2.00000
     27      -7.3770      2.00000
     28      -7.3770      2.00000
     29      -2.0320      2.00000
     30      -2.0319      2.00000
     31      -1.5668      2.00000
     32      -1.5668      2.00000
     33      -1.5527      2.00000
     34      -1.5527      2.00000
     35      -1.2248      2.00000
     36      -1.2247      2.00000
     37      -1.1283      2.00000
     38      -1.1283      2.00000
     39      -1.1225      2.00000
     40      -1.1225      2.00000
     41       0.1136      2.00000
     42       0.1136      2.00000
     43       1.5664      2.00000
     44       1.5664      2.00000
     45       1.8364      2.00000
     46       1.8364      2.00000
     47       1.9755      2.00000
     48       1.9755      2.00000
     49       2.3063      2.00000
     50       2.3063      2.00000
     51       2.5374      2.00000
     52       2.5374      2.00000
     53       2.7771      2.00000
     54       2.7771      2.00000
     55       3.0484      2.00000
     56       3.0484      2.00000
     57       3.6837      2.00000
     58       3.6837      2.00000
     59       4.1215      2.00000
     60       4.1215      2.00000
     61       4.4074      2.00000
     62       4.4074      2.00000
     63       5.4136      0.00000
     64       5.4136      0.00000
     65       6.4505      0.00000
     66       6.4505      0.00000
     67       7.5443      0.00000
     68       7.5443      0.00000
     69       8.0550      0.00000
     70       8.0550      0.00000
     71       8.6205      0.00000
     72       8.6205      0.00000
     73       9.1070      0.00000
     74       9.1070      0.00000
     75       9.1205      0.00000
     76       9.1205      0.00000
     77       9.6436      0.00000
     78       9.6436      0.00000
     79       9.7729      0.00000
     80       9.7729      0.00000

 k-point    41 :       0.1667    0.0000    0.5000
  band No.  band energies     occupation 
      1     -11.0434      2.00000
      2     -11.0433      2.00000
      3     -10.8483      2.00000
      4     -10.8483      2.00000
      5     -10.7748      2.00000
      6     -10.7748      2.00000
      7     -10.6407      2.00000
      8     -10.6407      2.00000
      9     -10.6197      2.00000
     10     -10.6197      2.00000
     11     -10.3949      2.00000
     12     -10.3949      2.00000
     13     -10.2523      2.00000
     14     -10.2523      2.00000
     15     -10.2048      2.00000
     16     -10.2048      2.00000
     17     -10.1424      2.00000
     18     -10.1424      2.00000
     19     -10.1211      2.00000
     20     -10.1211      2.00000
     21      -9.4182      2.00000
     22      -9.4182      2.00000
     23      -8.9273      2.00000
     24      -8.9273      2.00000
     25      -7.9304      2.00000
     26      -7.9304      2.00000
     27      -7.2705      2.00000
     28      -7.2705      2.00000
     29      -1.9785      2.00000
     30      -1.9785      2.00000
     31      -1.5597      2.00000
     32      -1.5597      2.00000
     33      -1.5123      2.00000
     34      -1.5123      2.00000
     35      -1.2185      2.00000
     36      -1.2185      2.00000
     37      -1.1408      2.00000
     38      -1.1408      2.00000
     39      -1.1223      2.00000
     40      -1.1223      2.00000
     41      -0.0548      2.00000
     42      -0.0548      2.00000
     43       0.8989      2.00000
     44       0.8990      2.00000
     45       1.4153      2.00000
     46       1.4153      2.00000
     47       1.7484      2.00000
     48       1.7484      2.00000
     49       1.8630      2.00000
     50       1.8630      2.00000
     51       2.2273      2.00000
     52       2.2273      2.00000
     53       2.2847      2.00000
     54       2.2847      2.00000
     55       3.0828      2.00000
     56       3.0828      2.00000
     57       3.3328      2.00000
     58       3.3328      2.00000
     59       3.9481      2.00000
     60       3.9481      2.00000
     61       4.1594      2.00000
     62       4.1594      2.00000
     63       5.8043      0.00000
     64       5.8043      0.00000
     65       6.6910      0.00000
     66       6.6910      0.00000
     67       7.7959      0.00000
     68       7.7960      0.00000
     69       8.3119      0.00000
     70       8.3119      0.00000
     71       8.7528      0.00000
     72       8.7528      0.00000
     73       9.1671      0.00000
     74       9.1671      0.00000
     75       9.3830      0.00000
     76       9.3830      0.00000
     77       9.9957      0.00000
     78       9.9957      0.00000
     79      10.2246      0.00000
     80      10.2246      0.00000

 k-point    42 :       0.2500    0.0000    0.5000
  band No.  band energies     occupation 
      1     -11.1039      2.00000
      2     -11.1039      2.00000
      3     -10.8632      2.00000
      4     -10.8632      2.00000
      5     -10.7542      2.00000
      6     -10.7542      2.00000
      7     -10.6533      2.00000
      8     -10.6533      2.00000
      9     -10.6142      2.00000
     10     -10.6142      2.00000
     11     -10.4893      2.00000
     12     -10.4893      2.00000
     13     -10.2376      2.00000
     14     -10.2376      2.00000
     15     -10.1801      2.00000
     16     -10.1801      2.00000
     17     -10.1426      2.00000
     18     -10.1426      2.00000
     19     -10.1113      2.00000
     20     -10.1113      2.00000
     21      -9.1049      2.00000
     22      -9.1049      2.00000
     23      -8.6829      2.00000
     24      -8.6829      2.00000
     25      -7.7128      2.00000
     26      -7.7128      2.00000
     27      -7.1213      2.00000
     28      -7.1213      2.00000
     29      -1.9660      2.00000
     30      -1.9660      2.00000
     31      -1.5338      2.00000
     32      -1.5338      2.00000
     33      -1.4566      2.00000
     34      -1.4566      2.00000
     35      -1.2437      2.00000
     36      -1.2437      2.00000
     37      -1.1631      2.00000
     38      -1.1631      2.00000
     39      -1.1192      2.00000
     40      -1.1191      2.00000
     41      -0.5568      2.00000
     42      -0.5568      2.00000
     43       0.3273      2.00000
     44       0.3273      2.00000
     45       0.8966      2.00000
     46       0.8967      2.00000
     47       1.4665      2.00000
     48       1.4665      2.00000
     49       1.4861      2.00000
     50       1.4861      2.00000
     51       1.8530      2.00000
     52       1.8530      2.00000
     53       1.9017      2.00000
     54       1.9017      2.00000
     55       2.8025      2.00000
     56       2.8025      2.00000
     57       3.0504      2.00000
     58       3.0504      2.00000
     59       3.8552      2.00000
     60       3.8552      2.00000
     61       3.9776      2.00000
     62       3.9776      2.00000
     63       5.9736      0.00000
     64       5.9736      0.00000
     65       6.5143      0.00000
     66       6.5143      0.00000
     67       7.4530      0.00000
     68       7.4530      0.00000
     69       8.5771      0.00000
     70       8.5771      0.00000
     71       9.0578      0.00000
     72       9.0578      0.00000
     73       9.6352      0.00000
     74       9.6352      0.00000
     75       9.7118      0.00000
     76       9.7118      0.00000
     77      10.2597      0.00000
     78      10.2597      0.00000
     79      10.7698      0.00000
     80      10.7714      0.00000

 k-point    43 :       0.3333    0.0000    0.5000
  band No.  band energies     occupation 
      1     -11.1654      2.00000
      2     -11.1654      2.00000
      3     -10.8709      2.00000
      4     -10.8709      2.00000
      5     -10.7373      2.00000
      6     -10.7373      2.00000
      7     -10.6650      2.00000
      8     -10.6650      2.00000
      9     -10.6046      2.00000
     10     -10.6046      2.00000
     11     -10.5648      2.00000
     12     -10.5648      2.00000
     13     -10.2281      2.00000
     14     -10.2281      2.00000
     15     -10.1808      2.00000
     16     -10.1808      2.00000
     17     -10.1220      2.00000
     18     -10.1220      2.00000
     19     -10.0957      2.00000
     20     -10.0957      2.00000
     21      -8.7539      2.00000
     22      -8.7539      2.00000
     23      -8.4018      2.00000
     24      -8.4018      2.00000
     25      -7.5132      2.00000
     26      -7.5132      2.00000
     27      -6.9694      2.00000
     28      -6.9694      2.00000
     29      -2.1113      2.00000
     30      -2.1113      2.00000
     31      -1.5187      2.00000
     32      -1.5187      2.00000
     33      -1.4019      2.00000
     34      -1.4019      2.00000
     35      -1.3837      2.00000
     36      -1.3837      2.00000
     37      -1.2035      2.00000
     38      -1.2035      2.00000
     39      -1.1108      2.00000
     40      -1.1107      2.00000
     41      -1.0342      2.00000
     42      -1.0342      2.00000
     43      -0.0278      2.00000
     44      -0.0278      2.00000
     45       0.5215      2.00000
     46       0.5215      2.00000
     47       0.9351      2.00000
     48       0.9351      2.00000
     49       1.2099      2.00000
     50       1.2099      2.00000
     51       1.6252      2.00000
     52       1.6252      2.00000
     53       1.6928      2.00000
     54       1.6928      2.00000
     55       2.5475      2.00000
     56       2.5475      2.00000
     57       2.9797      2.00000
     58       2.9797      2.00000
     59       3.5873      2.00000
     60       3.5873      2.00000
     61       3.9294      2.00000
     62       3.9294      2.00000
     63       5.8322      0.00000
     64       5.8323      0.00000
     65       6.2765      0.00000
     66       6.2765      0.00000
     67       7.1614      0.00000
     68       7.1615      0.00000
     69       8.5923      0.00000
     70       8.5923      0.00000
     71       8.9937      0.00000
     72       8.9937      0.00000
     73       9.7395      0.00000
     74       9.7395      0.00000
     75       9.7897      0.00000
     76       9.7897      0.00000
     77      10.4312      0.00000
     78      10.4312      0.00000
     79      11.0229      0.00000
     80      11.0244      0.00000

 k-point    44 :       0.4167    0.0000    0.5000
  band No.  band energies     occupation 
      1     -11.2081      2.00000
      2     -11.2080      2.00000
      3     -10.8797      2.00000
      4     -10.8797      2.00000
      5     -10.7277      2.00000
      6     -10.7277      2.00000
      7     -10.6751      2.00000
      8     -10.6751      2.00000
      9     -10.6061      2.00000
     10     -10.6061      2.00000
     11     -10.5945      2.00000
     12     -10.5945      2.00000
     13     -10.2243      2.00000
     14     -10.2243      2.00000
     15     -10.1867      2.00000
     16     -10.1867      2.00000
     17     -10.1037      2.00000
     18     -10.1037      2.00000
     19     -10.0810      2.00000
     20     -10.0810      2.00000
     21      -8.4423      2.00000
     22      -8.4423      2.00000
     23      -8.1750      2.00000
     24      -8.1750      2.00000
     25      -7.3878      2.00000
     26      -7.3878      2.00000
     27      -6.8581      2.00000
     28      -6.8581      2.00000
     29      -2.3889      2.00000
     30      -2.3889      2.00000
     31      -1.8132      2.00000
     32      -1.8132      2.00000
     33      -1.4023      2.00000
     34      -1.4023      2.00000
     35      -1.3643      2.00000
     36      -1.3642      2.00000
     37      -1.2524      2.00000
     38      -1.2524      2.00000
     39      -1.0990      2.00000
     40      -1.0990      2.00000
     41      -1.0317      2.00000
     42      -1.0317      2.00000
     43      -0.2724      2.00000
     44      -0.2724      2.00000
     45       0.1701      2.00000
     46       0.1701      2.00000
     47       0.6544      2.00000
     48       0.6544      2.00000
     49       1.0348      2.00000
     50       1.0348      2.00000
     51       1.4419      2.00000
     52       1.4419      2.00000
     53       1.6430      2.00000
     54       1.6430      2.00000
     55       2.4386      2.00000
     56       2.4386      2.00000
     57       2.9072      2.00000
     58       2.9072      2.00000
     59       3.4160      2.00000
     60       3.4160      2.00000
     61       3.8599      2.00000
     62       3.8599      2.00000
     63       5.6432      0.00000
     64       5.6432      0.00000
     65       6.0970      0.00000
     66       6.0970      0.00000
     67       7.0160      0.00000
     68       7.0160      0.00000
     69       8.4847      0.00000
     70       8.4847      0.00000
     71       8.8479      0.00000
     72       8.8479      0.00000
     73       9.5781      0.00000
     74       9.5781      0.00000
     75       9.7421      0.00000
     76       9.7421      0.00000
     77      10.3353      0.00000
     78      10.3353      0.00000
     79      11.0591      0.00000
     80      11.0592      0.00000

 k-point    45 :       0.5000    0.0000    0.5000
  band No.  band energies     occupation 
      1     -11.2231      2.00000
      2     -11.2231      2.00000
      3     -10.8843      2.00000
      4     -10.8843      2.00000
      5     -10.7249      2.00000
      6     -10.7249      2.00000
      7     -10.6796      2.00000
      8     -10.6796      2.00000
      9     -10.6177      2.00000
     10     -10.6177      2.00000
     11     -10.5902      2.00000
     12     -10.5901      2.00000
     13     -10.2235      2.00000
     14     -10.2235      2.00000
     15     -10.1892      2.00000
     16     -10.1892      2.00000
     17     -10.0971      2.00000
     18     -10.0971      2.00000
     19     -10.0750      2.00000
     20     -10.0750      2.00000
     21      -8.3025      2.00000
     22      -8.3025      2.00000
     23      -8.0944      2.00000
     24      -8.0943      2.00000
     25      -7.3501      2.00000
     26      -7.3501      2.00000
     27      -6.8177      2.00000
     28      -6.8177      2.00000
     29      -2.5284      2.00000
     30      -2.5283      2.00000
     31      -1.9618      2.00000
     32      -1.9617      2.00000
     33      -1.3910      2.00000
     34      -1.3910      2.00000
     35      -1.3514      2.00000
     36      -1.3514      2.00000
     37      -1.2684      2.00000
     38      -1.2683      2.00000
     39      -1.0930      2.00000
     40      -1.0930      2.00000
     41      -0.9238      2.00000
     42      -0.9238      2.00000
     43      -0.4263      2.00000
     44      -0.4263      2.00000
     45      -0.0280      2.00000
     46      -0.0280      2.00000
     47       0.6584      2.00000
     48       0.6584      2.00000
     49       0.9730      2.00000
     50       0.9730      2.00000
     51       1.3780      2.00000
     52       1.3780      2.00000
     53       1.6044      2.00000
     54       1.6044      2.00000
     55       2.4154      2.00000
     56       2.4154      2.00000
     57       2.8755      2.00000
     58       2.8755      2.00000
     59       3.3595      2.00000
     60       3.3595      2.00000
     61       3.8270      2.00000
     62       3.8271      2.00000
     63       5.5733      0.00000
     64       5.5733      0.00000
     65       6.0232      0.00000
     66       6.0232      0.00000
     67       6.9748      0.00000
     68       6.9749      0.00000
     69       8.4333      0.00000
     70       8.4333      0.00000
     71       8.7894      0.00000
     72       8.7895      0.00000
     73       9.4858      0.00000
     74       9.4858      0.00000
     75       9.7318      0.00000
     76       9.7318      0.00000
     77      10.2526      0.00000
     78      10.2526      0.00000
     79      11.0564      0.00000
     80      11.0564      0.00000

 k-point    46 :       0.0833    0.0833    0.5000
  band No.  band energies     occupation 
      1     -11.0307      2.00000
      2     -11.0306      2.00000
      3     -10.8413      2.00000
      4     -10.8413      2.00000
      5     -10.7802      2.00000
      6     -10.7802      2.00000
      7     -10.6369      2.00000
      8     -10.6369      2.00000
      9     -10.6209      2.00000
     10     -10.6209      2.00000
     11     -10.3657      2.00000
     12     -10.3657      2.00000
     13     -10.2658      2.00000
     14     -10.2658      2.00000
     15     -10.2093      2.00000
     16     -10.2093      2.00000
     17     -10.1399      2.00000
     18     -10.1399      2.00000
     19     -10.1228      2.00000
     20     -10.1228      2.00000
     21      -9.4886      2.00000
     22      -9.4886      2.00000
     23      -8.9788      2.00000
     24      -8.9788      2.00000
     25      -7.9833      2.00000
     26      -7.9833      2.00000
     27      -7.3046      2.00000
     28      -7.3046      2.00000
     29      -1.9925      2.00000
     30      -1.9925      2.00000
     31      -1.5630      2.00000
     32      -1.5630      2.00000
     33      -1.5250      2.00000
     34      -1.5250      2.00000
     35      -1.2186      2.00000
     36      -1.2186      2.00000
     37      -1.1369      2.00000
     38      -1.1369      2.00000
     39      -1.1228      2.00000
     40      -1.1228      2.00000
     41       0.0214      2.00000
     42       0.0214      2.00000
     43       1.1103      2.00000
     44       1.1103      2.00000
     45       1.5666      2.00000
     46       1.5666      2.00000
     47       1.8079      2.00000
     48       1.8079      2.00000
     49       1.9775      2.00000
     50       1.9775      2.00000
     51       2.0727      2.00000
     52       2.0727      2.00000
     53       2.7838      2.00000
     54       2.7838      2.00000
     55       2.8778      2.00000
     56       2.8778      2.00000
     57       3.5378      2.00000
     58       3.5378      2.00000
     59       3.9339      2.00000
     60       3.9339      2.00000
     61       4.2051      2.00000
     62       4.2051      2.00000
     63       5.7236      0.00000
     64       5.7236      0.00000
     65       6.6925      0.00000
     66       6.6925      0.00000
     67       7.9618      0.00000
     68       7.9618      0.00000
     69       8.2026      0.00000
     70       8.2026      0.00000
     71       8.6047      0.00000
     72       8.6047      0.00000
     73       8.9185      0.00000
     74       8.9185      0.00000
     75       9.4255      0.00000
     76       9.4255      0.00000
     77       9.8026      0.00000
     78       9.8026      0.00000
     79      10.1471      0.00000
     80      10.1471      0.00000

 k-point    47 :       0.1667    0.0833    0.5000
  band No.  band energies     occupation 
      1     -11.0797      2.00000
      2     -11.0797      2.00000
      3     -10.8598      2.00000
      4     -10.8597      2.00000
      5     -10.7624      2.00000
      6     -10.7624      2.00000
      7     -10.6476      2.00000
      8     -10.6476      2.00000
      9     -10.6181      2.00000
     10     -10.6181      2.00000
     11     -10.4475      2.00000
     12     -10.4475      2.00000
     13     -10.2615      2.00000
     14     -10.2615      2.00000
     15     -10.1777      2.00000
     16     -10.1777      2.00000
     17     -10.1474      2.00000
     18     -10.1474      2.00000
     19     -10.1152      2.00000
     20     -10.1152      2.00000
     21      -9.2202      2.00000
     22      -9.2202      2.00000
     23      -8.7739      2.00000
     24      -8.7739      2.00000
     25      -7.7922      2.00000
     26      -7.7922      2.00000
     27      -7.1765      2.00000
     28      -7.1765      2.00000
     29      -1.9557      2.00000
     30      -1.9557      2.00000
     31      -1.5455      2.00000
     32      -1.5455      2.00000
     33      -1.4765      2.00000
     34      -1.4765      2.00000
     35      -1.2276      2.00000
     36      -1.2276      2.00000
     37      -1.1503      2.00000
     38      -1.1503      2.00000
     39      -1.1214      2.00000
     40      -1.1214      2.00000
     41      -0.3222      2.00000
     42      -0.3222      2.00000
     43       0.5510      2.00000
     44       0.5510      2.00000
     45       1.0920      2.00000
     46       1.0920      2.00000
     47       1.4191      2.00000
     48       1.4191      2.00000
     49       1.6238      2.00000
     50       1.6238      2.00000
     51       1.7544      2.00000
     52       1.7544      2.00000
     53       2.3850      2.00000
     54       2.3850      2.00000
     55       2.8281      2.00000
     56       2.8281      2.00000
     57       3.0497      2.00000
     58       3.0497      2.00000
     59       3.8409      2.00000
     60       3.8409      2.00000
     61       4.0240      2.00000
     62       4.0240      2.00000
     63       6.0163      0.00000
     64       6.0163      0.00000
     65       6.7266      0.00000
     66       6.7266      0.00000
     67       7.8079      0.00000
     68       7.8079      0.00000
     69       8.5914      0.00000
     70       8.5914      0.00000
     71       8.8614      0.00000
     72       8.8614      0.00000
     73       9.1981      0.00000
     74       9.1981      0.00000
     75       9.7226      0.00000
     76       9.7226      0.00000
     77      10.1127      0.00000
     78      10.1127      0.00000
     79      10.6150      0.00000
     80      10.6150      0.00000

 k-point    48 :       0.2500    0.0833    0.5000
  band No.  band energies     occupation 
      1     -11.1405      2.00000
      2     -11.1405      2.00000
      3     -10.8671      2.00000
      4     -10.8671      2.00000
      5     -10.7452      2.00000
      6     -10.7452      2.00000
      7     -10.6580      2.00000
      8     -10.6580      2.00000
      9     -10.6117      2.00000
     10     -10.6117      2.00000
     11     -10.5278      2.00000
     12     -10.5278      2.00000
     13     -10.2540      2.00000
     14     -10.2540      2.00000
     15     -10.1709      2.00000
     16     -10.1709      2.00000
     17     -10.1367      2.00000
     18     -10.1367      2.00000
     19     -10.1009      2.00000
     20     -10.1009      2.00000
     21      -8.8843      2.00000
     22      -8.8843      2.00000
     23      -8.5036      2.00000
     24      -8.5036      2.00000
     25      -7.5882      2.00000
     26      -7.5882      2.00000
     27      -7.0256      2.00000
     28      -7.0256      2.00000
     29      -2.0141      2.00000
     30      -2.0141      2.00000
     31      -1.5082      2.00000
     32      -1.5082      2.00000
     33      -1.4212      2.00000
     34      -1.4212      2.00000
     35      -1.2977      2.00000
     36      -1.2977      2.00000
     37      -1.1818      2.00000
     38      -1.1818      2.00000
     39      -1.1146      2.00000
     40      -1.1146      2.00000
     41      -0.8650      2.00000
     42      -0.8650      2.00000
     43       0.1314      2.00000
     44       0.1314      2.00000
     45       0.6592      2.00000
     46       0.6592      2.00000
     47       1.0417      2.00000
     48       1.0417      2.00000
     49       1.2696      2.00000
     50       1.2696      2.00000
     51       1.4687      2.00000
     52       1.4687      2.00000
     53       1.9975      2.00000
     54       1.9975      2.00000
     55       2.6103      2.00000
     56       2.6103      2.00000
     57       2.8835      2.00000
     58       2.8835      2.00000
     59       3.5213      2.00000
     60       3.5213      2.00000
     61       3.9981      2.00000
     62       3.9981      2.00000
     63       6.0601      0.00000
     64       6.0601      0.00000
     65       6.5081      0.00000
     66       6.5081      0.00000
     67       7.4781      0.00000
     68       7.4781      0.00000
     69       8.7899      0.00000
     70       8.7899      0.00000
     71       9.2155      0.00000
     72       9.2155      0.00000
     73       9.4005      0.00000
     74       9.4005      0.00000
     75       9.8789      0.00000
     76       9.8789      0.00000
     77      10.3869      0.00000
     78      10.3869      0.00000
     79      10.7215      0.00000
     80      10.7215      0.00000

 k-point    49 :       0.3333    0.0833    0.5000
  band No.  band energies     occupation 
      1     -11.1910      2.00000
      2     -11.1910      2.00000
      3     -10.8734      2.00000
      4     -10.8734      2.00000
      5     -10.7338      2.00000
      6     -10.7338      2.00000
      7     -10.6673      2.00000
      8     -10.6673      2.00000
      9     -10.6032      2.00000
     10     -10.6032      2.00000
     11     -10.5830      2.00000
     12     -10.5830      2.00000
     13     -10.2492      2.00000
     14     -10.2492      2.00000
     15     -10.1780      2.00000
     16     -10.1780      2.00000
     17     -10.1157      2.00000
     18     -10.1157      2.00000
     19     -10.0873      2.00000
     20     -10.0873      2.00000
     21      -8.5414      2.00000
     22      -8.5414      2.00000
     23      -8.2388      2.00000
     24      -8.2388      2.00000
     25      -7.4341      2.00000
     26      -7.4341      2.00000
     27      -6.8939      2.00000
     28      -6.8939      2.00000
     29      -2.2392      2.00000
     30      -2.2392      2.00000
     31      -1.6484      2.00000
     32      -1.6484      2.00000
     33      -1.4086      2.00000
     34      -1.4086      2.00000
     35      -1.3733      2.00000
     36      -1.3733      2.00000
     37      -1.2251      2.00000
     38      -1.2251      2.00000
     39      -1.1151      2.00000
     40      -1.1151      2.00000
     41      -1.0612      2.00000
     42      -1.0612      2.00000
     43      -0.1365      2.00000
     44      -0.1365      2.00000
     45       0.3486      2.00000
     46       0.3486      2.00000
     47       0.6356      2.00000
     48       0.6356      2.00000
     49       0.9609      2.00000
     50       0.9609      2.00000
     51       1.3354      2.00000
     52       1.3354      2.00000
     53       1.7822      2.00000
     54       1.7822      2.00000
     55       2.4342      2.00000
     56       2.4342      2.00000
     57       2.8235      2.00000
     58       2.8235      2.00000
     59       3.2805      2.00000
     60       3.2805      2.00000
     61       3.9308      2.00000
     62       3.9308      2.00000
     63       5.8988      0.00000
     64       5.8988      0.00000
     65       6.3262      0.00000
     66       6.3262      0.00000
     67       7.2557      0.00000
     68       7.2557      0.00000
     69       8.7643      0.00000
     70       8.7643      0.00000
     71       9.0866      0.00000
     72       9.0866      0.00000
     73       9.4831      0.00000
     74       9.4831      0.00000
     75       9.7787      0.00000
     76       9.7787      0.00000
     77      10.4883      0.00000
     78      10.4883      0.00000
     79      10.9628      0.00000
     80      10.9679      0.00000

 k-point    50 :       0.4167    0.0833    0.5000
  band No.  band energies     occupation 
      1     -11.2187      2.00000
      2     -11.2187      2.00000
      3     -10.8794      2.00000
      4     -10.8794      2.00000
      5     -10.7287      2.00000
      6     -10.7287      2.00000
      7     -10.6740      2.00000
      8     -10.6740      2.00000
      9     -10.6093      2.00000
     10     -10.6093      2.00000
     11     -10.5947      2.00000
     12     -10.5947      2.00000
     13     -10.2474      2.00000
     14     -10.2474      2.00000
     15     -10.1830      2.00000
     16     -10.1830      2.00000
     17     -10.1003      2.00000
     18     -10.1003      2.00000
     19     -10.0814      2.00000
     20     -10.0814      2.00000
     21      -8.2928      2.00000
     22      -8.2928      2.00000
     23      -8.0820      2.00000
     24      -8.0820      2.00000
     25      -7.3644      2.00000
     26      -7.3644      2.00000
     27      -6.8185      2.00000
     28      -6.8185      2.00000
     29      -2.4656      2.00000
     30      -2.4656      2.00000
     31      -1.9143      2.00000
     32      -1.9143      2.00000
     33      -1.3870      2.00000
     34      -1.3869      2.00000
     35      -1.3525      2.00000
     36      -1.3525      2.00000
     37      -1.2570      2.00000
     38      -1.2570      2.00000
     39      -1.1034      2.00000
     40      -1.1034      2.00000
     41      -0.9468      2.00000
     42      -0.9468      2.00000
     43      -0.3523      2.00000
     44      -0.3523      2.00000
     45       0.0421      2.00000
     46       0.0421      2.00000
     47       0.5317      2.00000
     48       0.5317      2.00000
     49       0.8182      2.00000
     50       0.8182      2.00000
     51       1.2880      2.00000
     52       1.2880      2.00000
     53       1.6627      2.00000
     54       1.6627      2.00000
     55       2.3430      2.00000
     56       2.3430      2.00000
     57       2.8034      2.00000
     58       2.8034      2.00000
     59       3.1559      2.00000
     60       3.1559      2.00000
     61       3.8715      2.00000
     62       3.8715      2.00000
     63       5.7722      0.00000
     64       5.7722      0.00000
     65       6.2143      0.00000
     66       6.2143      0.00000
     67       7.1598      0.00000
     68       7.1598      0.00000
     69       8.7080      0.00000
     70       8.7080      0.00000
     71       8.9449      0.00000
     72       8.9449      0.00000
     73       9.4463      0.00000
     74       9.4463      0.00000
     75       9.6710      0.00000
     76       9.6710      0.00000
     77      10.4155      0.00000
     78      10.4155      0.00000
     79      11.0402      0.00000
     80      11.0465      0.00000

 k-point    51 :       0.1667    0.1667    0.5000
  band No.  band energies     occupation 
      1     -11.1295      2.00000
      2     -11.1295      2.00000
      3     -10.8657      2.00000
      4     -10.8657      2.00000
      5     -10.7496      2.00000
      6     -10.7495      2.00000
      7     -10.6536      2.00000
      8     -10.6536      2.00000
      9     -10.6161      2.00000
     10     -10.6161      2.00000
     11     -10.5032      2.00000
     12     -10.5032      2.00000
     13     -10.2804      2.00000
     14     -10.2804      2.00000
     15     -10.1545      2.00000
     16     -10.1545      2.00000
     17     -10.1537      2.00000
     18     -10.1537      2.00000
     19     -10.1019      2.00000
     20     -10.1019      2.00000
     21      -8.9274      2.00000
     22      -8.9274      2.00000
     23      -8.5363      2.00000
     24      -8.5362      2.00000
     25      -7.6188      2.00000
     26      -7.6188      2.00000
     27      -7.0464      2.00000
     28      -7.0464      2.00000
     29      -1.9811      2.00000
     30      -1.9811      2.00000
     31      -1.5117      2.00000
     32      -1.5117      2.00000
     33      -1.4275      2.00000
     34      -1.4275      2.00000
     35      -1.2723      2.00000
     36      -1.2723      2.00000
     37      -1.1712      2.00000
     38      -1.1712      2.00000
     39      -1.1157      2.00000
     40      -1.1156      2.00000
     41      -0.7459      2.00000
     42      -0.7459      2.00000
     43       0.2437      2.00000
     44       0.2437      2.00000
     45       0.6904      2.00000
     46       0.6904      2.00000
     47       0.9943      2.00000
     48       0.9943      2.00000
     49       1.1967      2.00000
     50       1.1967      2.00000
     51       1.4731      2.00000
     52       1.4731      2.00000
     53       2.3201      2.00000
     54       2.3201      2.00000
     55       2.4352      2.00000
     56       2.4352      2.00000
     57       2.8420      2.00000
     58       2.8420      2.00000
     59       3.3886      2.00000
     60       3.3886      2.00000
     61       4.0386      2.00000
     62       4.0386      2.00000
     63       6.2153      0.00000
     64       6.2153      0.00000
     65       6.7106      0.00000
     66       6.7106      0.00000
     67       7.9046      0.00000
     68       7.9046      0.00000
     69       8.6838      0.00000
     70       8.6838      0.00000
     71       9.1845      0.00000
     72       9.1845      0.00000
     73       9.4825      0.00000
     74       9.4825      0.00000
     75       9.7596      0.00000
     76       9.7596      0.00000
     77      10.3638      0.00000
     78      10.3638      0.00000
     79      10.7188      0.00000
     80      10.7190      0.00000

 k-point    52 :       0.2500    0.1667    0.5000
  band No.  band energies     occupation 
      1     -11.1769      2.00000
      2     -11.1769      2.00000
      3     -10.8681      2.00000
      4     -10.8681      2.00000
      5     -10.7406      2.00000
      6     -10.7406      2.00000
      7     -10.6580      2.00000
      8     -10.6580      2.00000
      9     -10.6127      2.00000
     10     -10.6127      2.00000
     11     -10.5514      2.00000
     12     -10.5514      2.00000
     13     -10.2946      2.00000
     14     -10.2946      2.00000
     15     -10.1611      2.00000
     16     -10.1611      2.00000
     17     -10.1352      2.00000
     18     -10.1352      2.00000
     19     -10.0899      2.00000
     20     -10.0899      2.00000
     21      -8.5883      2.00000
     22      -8.5883      2.00000
     23      -8.2655      2.00000
     24      -8.2655      2.00000
     25      -7.4709      2.00000
     26      -7.4709      2.00000
     27      -6.9155      2.00000
     28      -6.9154      2.00000
     29      -2.1208      2.00000
     30      -2.1208      2.00000
     31      -1.5249      2.00000
     32      -1.5249      2.00000
     33      -1.4005      2.00000
     34      -1.4005      2.00000
     35      -1.3705      2.00000
     36      -1.3705      2.00000
     37      -1.1952      2.00000
     38      -1.1952      2.00000
     39      -1.1123      2.00000
     40      -1.1123      2.00000
     41      -1.0510      2.00000
     42      -1.0509      2.00000
     43      -0.0043      2.00000
     44      -0.0043      2.00000
     45       0.3672      2.00000
     46       0.3672      2.00000
     47       0.5785      2.00000
     48       0.5785      2.00000
     49       0.8289      2.00000
     50       0.8289      2.00000
     51       1.2710      2.00000
     52       1.2710      2.00000
     53       1.9637      2.00000
     54       1.9637      2.00000
     55       2.2825      2.00000
     56       2.2825      2.00000
     57       2.7264      2.00000
     58       2.7264      2.00000
     59       3.0156      2.00000
     60       3.0156      2.00000
     61       3.9975      2.00000
     62       3.9975      2.00000
     63       6.2643      0.00000
     64       6.2643      0.00000
     65       6.5919      0.00000
     66       6.5919      0.00000
     67       7.7924      0.00000
     68       7.7924      0.00000
     69       8.8071      0.00000
     70       8.8071      0.00000
     71       9.3826      0.00000
     72       9.3827      0.00000
     73       9.6583      0.00000
     74       9.6583      0.00000
     75       9.9259      0.00000
     76       9.9259      0.00000
     77      10.5066      0.00000
     78      10.5066      0.00000
     79      10.7708      0.00000
     80      10.7711      0.00000

 k-point    53 :       0.3333    0.1667    0.5000
  band No.  band energies     occupation 
      1     -11.2097      2.00000
      2     -11.2097      2.00000
      3     -10.8704      2.00000
      4     -10.8703      2.00000
      5     -10.7363      2.00000
      6     -10.7363      2.00000
      7     -10.6616      2.00000
      8     -10.6616      2.00000
      9     -10.6082      2.00000
     10     -10.6082      2.00000
     11     -10.5823      2.00000
     12     -10.5823      2.00000
     13     -10.3029      2.00000
     14     -10.3029      2.00000
     15     -10.1669      2.00000
     16     -10.1669      2.00000
     17     -10.1153      2.00000
     18     -10.1153      2.00000
     19     -10.0879      2.00000
     20     -10.0879      2.00000
     21      -8.2780      2.00000
     22      -8.2780      2.00000
     23      -8.0509      2.00000
     24      -8.0509      2.00000
     25      -7.3954      2.00000
     26      -7.3954      2.00000
     27      -6.8201      2.00000
     28      -6.8201      2.00000
     29      -2.3280      2.00000
     30      -2.3279      2.00000
     31      -1.8026      2.00000
     32      -1.8026      2.00000
     33      -1.3815      2.00000
     34      -1.3815      2.00000
     35      -1.3505      2.00000
     36      -1.3505      2.00000
     37      -1.2280      2.00000
     38      -1.2280      2.00000
     39      -1.1301      2.00000
     40      -1.1301      2.00000
     41      -0.9771      2.00000
     42      -0.9771      2.00000
     43      -0.1975      2.00000
     44      -0.1975      2.00000
     45       0.1087      2.00000
     46       0.1087      2.00000
     47       0.2627      2.00000
     48       0.2627      2.00000
     49       0.6015      2.00000
     50       0.6015      2.00000
     51       1.2040      2.00000
     52       1.2040      2.00000
     53       1.7153      2.00000
     54       1.7153      2.00000
     55       2.1075      2.00000
     56       2.1075      2.00000
     57       2.6870      2.00000
     58       2.6870      2.00000
     59       2.8351      2.00000
     60       2.8351      2.00000
     61       3.9310      2.00000
     62       3.9311      2.00000
     63       6.1770      0.00000
     64       6.1770      0.00000
     65       6.5126      0.00000
     66       6.5127      0.00000
     67       7.6545      0.00000
     68       7.6546      0.00000
     69       8.7959      0.00000
     70       8.7959      0.00000
     71       9.3964      0.00000
     72       9.3964      0.00000
     73       9.6050      0.00000
     74       9.6050      0.00000
     75       9.9647      0.00000
     76       9.9647      0.00000
     77      10.5801      0.00000
     78      10.5801      0.00000
     79      10.9394      0.00000
     80      10.9425      0.00000

 k-point    54 :       0.4167    0.1667    0.5000
  band No.  band energies     occupation 
      1     -11.2213      2.00000
      2     -11.2213      2.00000
      3     -10.8716      2.00000
      4     -10.8716      2.00000
      5     -10.7351      2.00000
      6     -10.7350      2.00000
      7     -10.6633      2.00000
      8     -10.6633      2.00000
      9     -10.6048      2.00000
     10     -10.6048      2.00000
     11     -10.5936      2.00000
     12     -10.5936      2.00000
     13     -10.3057      2.00000
     14     -10.3057      2.00000
     15     -10.1691      2.00000
     16     -10.1691      2.00000
     17     -10.1003      2.00000
     18     -10.1003      2.00000
     19     -10.0949      2.00000
     20     -10.0949      2.00000
     21      -8.1310      2.00000
     22      -8.1310      2.00000
     23      -7.9800      2.00000
     24      -7.9800      2.00000
     25      -7.3816      2.00000
     26      -7.3816      2.00000
     27      -6.7855      2.00000
     28      -6.7855      2.00000
     29      -2.4283      2.00000
     30      -2.4283      2.00000
     31      -1.9328      2.00000
     32      -1.9328      2.00000
     33      -1.3716      2.00000
     34      -1.3716      2.00000
     35      -1.3441      2.00000
     36      -1.3441      2.00000
     37      -1.2407      2.00000
     38      -1.2407      2.00000
     39      -1.1193      2.00000
     40      -1.1193      2.00000
     41      -0.8679      2.00000
     42      -0.8679      2.00000
     43      -0.3382      2.00000
     44      -0.3382      2.00000
     45       0.0012      2.00000
     46       0.0012      2.00000
     47       0.1539      2.00000
     48       0.1539      2.00000
     49       0.5238      2.00000
     50       0.5238      2.00000
     51       1.2283      2.00000
     52       1.2283      2.00000
     53       1.6246      2.00000
     54       1.6246      2.00000
     55       2.0122      2.00000
     56       2.0122      2.00000
     57       2.6587      2.00000
     58       2.6587      2.00000
     59       2.8139      2.00000
     60       2.8139      2.00000
     61       3.8968      2.00000
     62       3.8968      2.00000
     63       6.1216      0.00000
     64       6.1216      0.00000
     65       6.4908      0.00000
     66       6.4908      0.00000
     67       7.6016      0.00000
     68       7.6017      0.00000
     69       8.7783      0.00000
     70       8.7783      0.00000
     71       9.3915      0.00000
     72       9.3915      0.00000
     73       9.5383      0.00000
     74       9.5383      0.00000
     75       9.9495      0.00000
     76       9.9495      0.00000
     77      10.5522      0.00000
     78      10.5522      0.00000
     79      10.9502      0.00000
     80      10.9502      0.00000

 k-point    55 :       0.2500    0.2500    0.5000
  band No.  band energies     occupation 
      1     -11.2050      2.00000
      2     -11.2050      2.00000
      3     -10.8662      2.00000
      4     -10.8662      2.00000
      5     -10.7400      2.00000
      6     -10.7400      2.00000
      7     -10.6538      2.00000
      8     -10.6538      2.00000
      9     -10.6159      2.00000
     10     -10.6159      2.00000
     11     -10.5633      2.00000
     12     -10.5633      2.00000
     13     -10.3370      2.00000
     14     -10.3370      2.00000
     15     -10.1514      2.00000
     16     -10.1514      2.00000
     17     -10.1316      2.00000
     18     -10.1316      2.00000
     19     -10.0891      2.00000
     20     -10.0891      2.00000
     21      -8.2728      2.00000
     22      -8.2728      2.00000
     23      -8.0321      2.00000
     24      -8.0320      2.00000
     25      -7.4124      2.00000
     26      -7.4124      2.00000
     27      -6.8209      2.00000
     28      -6.8209      2.00000
     29      -2.2520      2.00000
     30      -2.2520      2.00000
     31      -1.7342      2.00000
     32      -1.7342      2.00000
     33      -1.3789      2.00000
     34      -1.3789      2.00000
     35      -1.3505      2.00000
     36      -1.3505      2.00000
     37      -1.2015      2.00000
     38      -1.2015      2.00000
     39      -1.1504      2.00000
     40      -1.1504      2.00000
     41      -0.9887      2.00000
     42      -0.9887      2.00000
     43      -0.1164      2.00000
     44      -0.1164      2.00000
     45       0.0601      2.00000
     46       0.0601      2.00000
     47       0.1026      2.00000
     48       0.1027      2.00000
     49       0.6172      2.00000
     50       0.6172      2.00000
     51       1.1768      2.00000
     52       1.1768      2.00000
     53       1.7038      2.00000
     54       1.7038      2.00000
     55       1.9931      2.00000
     56       1.9931      2.00000
     57       2.5152      2.00000
     58       2.5152      2.00000
     59       2.7997      2.00000
     60       2.7997      2.00000
     61       3.9545      2.00000
     62       3.9545      2.00000
     63       6.3895      0.00000
     64       6.3895      0.00000
     65       6.6225      0.00000
     66       6.6226      0.00000
     67       7.9966      0.00000
     68       7.9966      0.00000
     69       8.6647      0.00000
     70       8.6647      0.00000
     71       9.6190      0.00000
     72       9.6190      0.00000
     73       9.8110      0.00000
     74       9.8110      0.00000
     75      10.4728      0.00000
     76      10.4728      0.00000
     77      10.5843      0.00000
     78      10.5843      0.00000
     79      10.9652      0.00000
     80      10.9652      0.00000

 k-point    56 :       0.3333    0.2500    0.5000
  band No.  band energies     occupation 
      1     -11.2202      2.00000
      2     -11.2201      2.00000
      3     -10.8638      2.00000
      4     -10.8638      2.00000
      5     -10.7407      2.00000
      6     -10.7407      2.00000
      7     -10.6492      2.00000
      8     -10.6492      2.00000
      9     -10.6184      2.00000
     10     -10.6184      2.00000
     11     -10.5682      2.00000
     12     -10.5682      2.00000
     13     -10.3639      2.00000
     14     -10.3639      2.00000
     15     -10.1487      2.00000
     16     -10.1487      2.00000
     17     -10.1174      2.00000
     18     -10.1174      2.00000
     19     -10.0989      2.00000
     20     -10.0989      2.00000
     21      -8.0345      2.00000
     22      -8.0345      2.00000
     23      -7.8882      2.00000
     24      -7.8882      2.00000
     25      -7.4225      2.00000
     26      -7.4225      2.00000
     27      -6.7669      2.00000
     28      -6.7669      2.00000
     29      -2.3394      2.00000
     30      -2.3394      2.00000
     31      -1.9077      2.00000
     32      -1.9077      2.00000
     33      -1.3630      2.00000
     34      -1.3630      2.00000
     35      -1.3453      2.00000
     36      -1.3453      2.00000
     37      -1.2111      2.00000
     38      -1.2111      2.00000
     39      -1.1403      2.00000
     40      -1.1403      2.00000
     41      -0.8445      2.00000
     42      -0.8444      2.00000
     43      -0.2455      2.00000
     44      -0.2455      2.00000
     45      -0.2018      2.00000
     46      -0.2018      2.00000
     47      -0.1033      2.00000
     48      -0.1033      2.00000
     49       0.5268      2.00000
     50       0.5268      2.00000
     51       1.1307      2.00000
     52       1.1307      2.00000
     53       1.5620      2.00000
     54       1.5620      2.00000
     55       1.7587      2.00000
     56       1.7587      2.00000
     57       2.3246      2.00000
     58       2.3246      2.00000
     59       2.8311      2.00000
     60       2.8311      2.00000
     61       3.9068      2.00000
     62       3.9068      2.00000
     63       6.3597      0.00000
     64       6.3597      0.00000
     65       6.6788      0.00000
     66       6.6788      0.00000
     67       7.9735      0.00000
     68       7.9735      0.00000
     69       8.6367      0.00000
     70       8.6367      0.00000
     71       9.7390      0.00000
     72       9.7390      0.00000
     73       9.8767      0.00000
     74       9.8767      0.00000
     75      10.4911      0.00000
     76      10.4911      0.00000
     77      10.8509      0.00000
     78      10.8509      0.00000
     79      11.2519      0.00000
     80      11.2546      0.00000

 k-point    57 :       0.3333    0.3333    0.5000
  band No.  band energies     occupation 
      1     -11.2234      2.00000
      2     -11.2234      2.00000
      3     -10.8604      2.00000
      4     -10.8604      2.00000
      5     -10.7429      2.00000
      6     -10.7428      2.00000
      7     -10.6345      2.00000
      8     -10.6345      2.00000
      9     -10.6326      2.00000
     10     -10.6326      2.00000
     11     -10.5561      2.00000
     12     -10.5561      2.00000
     13     -10.3944      2.00000
     14     -10.3944      2.00000
     15     -10.1308      2.00000
     16     -10.1308      2.00000
     17     -10.1256      2.00000
     18     -10.1256      2.00000
     19     -10.1072      2.00000
     20     -10.1072      2.00000
     21      -7.9321      2.00000
     22      -7.9321      2.00000
     23      -7.8042      2.00000
     24      -7.8042      2.00000
     25      -7.4658      2.00000
     26      -7.4658      2.00000
     27      -6.7477      2.00000
     28      -6.7476      2.00000
     29      -2.3225      2.00000
     30      -2.3225      2.00000
     31      -1.9485      2.00000
     32      -1.9485      2.00000
     33      -1.3575      2.00000
     34      -1.3575      2.00000
     35      -1.3492      2.00000
     36      -1.3492      2.00000
     37      -1.1992      2.00000
     38      -1.1992      2.00000
     39      -1.1430      2.00000
     40      -1.1430      2.00000
     41      -0.7674      2.00000
     42      -0.7674      2.00000
     43      -0.3922      2.00000
     44      -0.3922      2.00000
     45      -0.3034      2.00000
     46      -0.3034      2.00000
     47      -0.1702      2.00000
     48      -0.1702      2.00000
     49       0.6010      2.00000
     50       0.6010      2.00000
     51       0.9726      2.00000
     52       0.9726      2.00000
     53       1.5252      2.00000
     54       1.5252      2.00000
     55       1.6509      2.00000
     56       1.6509      2.00000
     57       2.1615      2.00000
     58       2.1615      2.00000
     59       2.8619      2.00000
     60       2.8619      2.00000
     61       3.8914      2.00000
     62       3.8914      2.00000
     63       6.3871      0.00000
     64       6.3871      0.00000
     65       6.7646      0.00000
     66       6.7646      0.00000
     67       8.0228      0.00000
     68       8.0228      0.00000
     69       8.6130      0.00000
     70       8.6130      0.00000
     71       9.8796      0.00000
     72       9.8796      0.00000
     73      10.0047      0.00000
     74      10.0047      0.00000
     75      10.7080      0.00000
     76      10.7080      0.00000
     77      11.1524      0.00000
     78      11.1524      0.00000
     79      11.4584      0.00000
     80      11.4586      0.00000


--------------------------------------------------------------------------------------------------------


 soft charge-density along one line, spin component           1
         0         1         2         3         4         5         6         7         8         9
 total charge-density along one line
 
 pseudopotential strength for first ion, spin component:           1
-12.917  -0.000   0.000  -0.002   0.000   3.212   0.000  -0.000
 -0.000 -12.898  -0.000  -0.000  -0.002   0.000   3.199   0.000
  0.000  -0.000 -12.889   0.000  -0.000  -0.000   0.000   3.193
 -0.002  -0.000   0.000 -12.898  -0.000   0.001   0.000  -0.000
  0.000  -0.002  -0.000  -0.000 -12.917  -0.000   0.001   0.000
  3.212   0.000  -0.000   0.001  -0.000   4.750  -0.000   0.000
  0.000   3.199   0.000   0.000   0.001  -0.000   4.757  -0.000
 -0.000   0.000   3.193  -0.000   0.000   0.000  -0.000   4.760
  0.001   0.000  -0.000   3.199   0.000  -0.001  -0.000   0.000
 -0.000   0.001   0.000   0.000   3.212   0.000  -0.001  -0.000
  0.000   0.000   0.000   0.000  -0.000   0.000   0.000  -0.002
  0.000   0.000   0.000   0.000  -0.000   0.000   0.000  -0.002
 -0.000  -0.001  -0.000  -0.000   0.001  -0.000   0.000  -0.000
 -0.000   0.000   0.001  -0.000   0.000  -0.000   0.000  -0.000
  0.001  -0.000  -0.000  -0.001  -0.000  -0.001  -0.000  -0.000
 -0.000  -0.002  -0.000  -0.000   0.002  -0.000   0.000  -0.000
 -0.000   0.000   0.002  -0.000   0.000  -0.000   0.000  -0.001
  0.002  -0.000   0.000  -0.002  -0.000  -0.002  -0.000  -0.000
 total augmentation occupancy for first ion, spin component:           1
  2.000   0.000   0.000  -0.001   0.000   0.008   0.000   0.000  -0.004   0.000   0.000   0.000   0.000   0.000   0.094   0.000
  0.000   1.999  -0.000   0.000  -0.001   0.000   0.007  -0.000   0.000  -0.004  -0.000   0.000  -0.065   0.000   0.000   0.037
  0.000  -0.000   2.000  -0.000   0.000   0.000  -0.000   0.009   0.000   0.000   0.058  -0.050   0.000   0.147   0.000  -0.000
 -0.001   0.000   0.000   1.999   0.000  -0.004   0.000  -0.000   0.007   0.000   0.000  -0.000   0.000   0.000  -0.065   0.000
  0.000  -0.001   0.000   0.000   2.000   0.000  -0.004   0.000   0.000   0.008   0.000  -0.000   0.094   0.000   0.000  -0.054
  0.008   0.000   0.000  -0.004   0.000   0.036   0.000   0.000  -0.019   0.000   0.000   0.000   0.000   0.000   0.209   0.000
  0.000   0.007  -0.000   0.000  -0.004   0.000   0.036  -0.000   0.000  -0.019  -0.000  -0.000  -0.187  -0.000   0.000   0.047
  0.000  -0.000   0.009  -0.000   0.000  -0.000  -0.000   0.054  -0.000   0.000   0.055  -0.037   0.000   0.281   0.000  -0.000
 -0.004   0.000   0.000   0.007   0.000  -0.019   0.000   0.000   0.036   0.000   0.000  -0.000   0.000   0.000  -0.187   0.000
  0.000  -0.004   0.000   0.000   0.008   0.000  -0.019   0.000   0.000   0.036   0.000  -0.000   0.209   0.000   0.000  -0.050
  0.000  -0.000   0.058   0.000   0.000   0.000   0.000   0.055   0.000   0.000   7.722  -3.859  -0.000  -0.173   0.000   0.000
  0.000   0.000  -0.050   0.000  -0.000   0.000   0.000  -0.037   0.000  -0.000  -3.859   2.120   0.000   0.153   0.000   0.000
  0.000  -0.065   0.000   0.000   0.094   0.000  -0.187   0.000   0.000   0.209  -0.000  -0.000   2.745   0.000   0.000  -0.666
  0.000   0.000   0.147  -0.000   0.000   0.000   0.000   0.281   0.000   0.000  -0.173   0.153   0.000   3.099   0.000   0.000
  0.094   0.000   0.000  -0.065   0.000   0.209   0.000   0.000  -0.187   0.000   0.000   0.000   0.000   0.000   2.745   0.000
  0.000   0.037  -0.000   0.000  -0.054   0.000   0.047  -0.000   0.000  -0.050   0.000   0.000  -0.666   0.000   0.000   0.172
  0.000  -0.000  -0.079  -0.000  -0.000  -0.000  -0.000  -0.069   0.000  -0.000   0.051  -0.039  -0.000  -0.782   0.000   0.000
 -0.054   0.000   0.000   0.037   0.000  -0.050   0.000   0.000   0.047   0.000   0.000   0.000   0.000   0.000  -0.666   0.000


------------------------ aborting loop because EDIFF is reached ----------------------------------------


    CHARGE:  cpu time    2.4364: real time    2.4495
    FORLOC:  cpu time    0.0183: real time    0.0185
    FORNL :  cpu time   10.3975: real time   10.4481
    STRESS:  cpu time   22.9754: real time   23.0872
    FORCOR:  cpu time    0.1386: real time    0.1394
    FORHAR:  cpu time    0.0493: real time    0.0496
    MIXING:  cpu time    0.0079: real time    0.0079
    OFIELD:  cpu time    0.0001: real time    0.0001

 ---------------------------------------------------------------------------------------------

         DFTD3 V3.0 Rev 1        
 IVDW         = 12
 DF pbe       
 parameters
 VDW_S6       =    1.0000
 VDW_S8       =    0.7875
 VDW_A1       =    0.4289
 VDW_A2       =    4.4407
 k1-k3        =   16.0000    1.3333   -4.0000
 VDW_RADIUS   =   50.2022 A
 VDW_CNRADIUS =   21.1671 A
 Edisp (eV)   -4.20481

 E6    (eV) :    -2.4557
 E8    (eV) :    -1.7491
 % E8        : 41.60
    FORVDW:  cpu time    0.0951: real time    0.1214

  FORCE on cell =-STRESS in cart. coord.  units (eV):
  Direction    XX          YY          ZZ          XY          YZ          ZX
  --------------------------------------------------------------------------------------
  Alpha Z   291.43441   291.43441   291.43441
  Ewald   -2388.32609 -2388.32598 -3339.62745    -0.00001     0.00001    -0.00000
  Hartree  1503.47913  1503.47910   820.23802     0.00001    -0.00000     0.00001
  E(xc)    -578.99422  -578.99422  -579.27046     0.00000    -0.00000    -0.00000
  Local   -1258.60548 -1258.60590   364.93458    -0.00033    -0.00001    -0.00001
  n-local   664.61945   672.11880   662.85530   -12.49621    -0.01053    -0.00916
  augment   581.57979   581.58013   581.85099     0.00030    -0.00000     0.00000
  Kinetic  1174.02764  1197.17430  1202.16554   -27.05697    -0.01788    -0.01613
  Fock        0.00000     0.00000     0.00000     0.00000     0.00000     0.00000
  vdW        -4.59530    -4.59530    -4.63946    -0.00000    -0.00000    -0.00000
  -------------------------------------------------------------------------------------
  Total      -0.05766    -0.05766    -0.05853     0.00000     0.00000     0.00000
  in kB      -0.29050    -0.29050    -0.29485     0.00000     0.00000     0.00000
  external pressure =       -0.29 kB  Pullay stress =        0.00 kB


 VOLUME and BASIS-vectors are now :
 -----------------------------------------------------------------------------
  energy-cutoff  :      500.00
  volume of cell :      318.03
      direct lattice vectors                 reciprocal lattice vectors
     3.883346612  0.000000000  0.000000000     0.257509849  0.148673381  0.000000000
    -1.941673306  3.363076818  0.000000000     0.000000000  0.297346761  0.000000000
     0.000000000  0.000000000 24.351774471     0.000000000  0.000000000  0.041064769

  length of vectors
     3.883346612  3.883346612 24.351774471     0.297346761  0.297346761  0.041064769


 FORCES acting on ions
    electron-ion (+dipol)            ewald-force                    non-local-force                 convergence-correction
 -----------------------------------------------------------------------------------------------
   0.854E-06 -.229E-04 0.474E+02   0.341E-06 -.742E-05 -.467E+02   0.486E-16 -.139E-16 -.708E+00   0.706E-08 -.328E-08 0.678E-02
   0.376E-04 0.229E-04 0.474E+02   0.129E-04 0.745E-05 -.467E+02   -.555E-16 -.416E-16 -.708E+00   -.108E-07 0.254E-08 0.677E-02
   -.141E-04 -.700E-05 0.487E+02   -.956E-05 -.692E-06 -.459E+02   -.104E-16 -.694E-17 -.277E+01   0.117E-09 0.295E-08 -.691E-02
   -.323E-06 0.305E-04 0.487E+02   -.707E-05 0.165E-04 -.459E+02   0.173E-16 0.000E+00 -.277E+01   0.834E-08 -.108E-07 -.691E-02
   0.205E-05 0.525E-06 -.828E+02   0.103E-04 0.556E-05 0.854E+02   -.486E-16 0.000E+00 -.250E+01   -.176E-07 0.822E-08 -.105E-01
   -.576E-06 -.244E-05 -.828E+02   -.345E-06 -.230E-04 0.854E+02   0.486E-16 -.139E-16 -.250E+01   0.161E-07 -.497E-08 -.105E-01
   -.266E-04 -.139E-04 -.115E+03   -.102E-04 -.549E-05 0.118E+03   0.416E-16 -.278E-16 -.340E+01   -.993E-08 0.393E-08 -.226E-03
   0.133E-05 0.572E-04 -.115E+03   0.341E-06 0.230E-04 0.118E+03   -.278E-16 0.416E-16 -.340E+01   0.840E-08 -.178E-08 -.231E-03
   0.144E-06 -.441E-05 0.106E+03   -.222E-06 0.733E-05 -.113E+03   -.139E-16 -.416E-16 0.675E+01   -.275E-08 0.161E-08 0.135E-01
   0.693E-05 0.418E-05 0.106E+03   -.129E-04 -.771E-05 -.113E+03   0.416E-16 0.278E-16 0.675E+01   0.343E-08 -.113E-08 0.135E-01
   -.116E-05 -.389E-04 0.716E+02   0.389E-05 -.255E-05 -.686E+02   -.278E-16 0.278E-16 -.299E+01   0.230E-08 0.477E-09 -.328E-03
   0.626E-04 0.417E-04 0.716E+02   0.756E-05 -.375E-05 -.686E+02   0.000E+00 0.000E+00 -.299E+01   -.656E-08 0.144E-09 -.331E-03
   -.276E-05 -.124E-05 -.687E+02   0.552E-05 0.324E-05 0.708E+02   -.555E-16 -.278E-16 -.211E+01   0.637E-09 -.139E-08 -.589E-02
   0.224E-06 0.680E-05 -.687E+02   -.599E-06 -.125E-04 0.708E+02   -.555E-16 0.278E-16 -.211E+01   -.662E-09 0.244E-08 -.590E-02
 -----------------------------------------------------------------------------------------------
   0.662E-04 0.732E-04 0.155E+02   -.144E-12 0.280E-15 -.114E-12   -.971E-16 -.486E-16 -.155E+02   -.195E-08 -.110E-08 -.727E-02
 
 
 POSITION                                       TOTAL-FORCE (eV/Angst)
 -----------------------------------------------------------------------------------
     -0.00000      2.24205      2.27596         0.000000      0.000000     -0.000842
      1.94167      1.12103     14.45185        -0.000000      0.000000     -0.000842
      1.94167      1.12103      6.25238        -0.000000      0.000000     -0.004186
     -0.00000      2.24205     18.42827        -0.000000     -0.000000     -0.004186
      0.00000      0.00000     10.05488        -0.000000      0.000000      0.004066
      0.00000      0.00000     22.23077        -0.000000      0.000000      0.004066
      1.94167      1.12103     10.60032         0.000000     -0.000000     -0.001689
     -0.00000      2.24205     22.77621         0.000000     -0.000000     -0.001689
      0.00000      0.00000      1.20361        -0.000000      0.000000     -0.001152
      0.00000      0.00000     13.37949        -0.000000      0.000000     -0.001152
     -0.00000      2.24205      4.72705        -0.000000      0.000000     -0.002352
      1.94167      1.12103     16.90294         0.000000      0.000000     -0.002352
      0.00000      0.00000      7.51358        -0.000000      0.000000      0.006155
      0.00000      0.00000     19.68947        -0.000000      0.000000      0.006155
 -----------------------------------------------------------------------------------
    total drift:                                0.000066      0.000073      0.000589


--------------------------------------------------------------------------------------------------------



  FREE ENERGIE OF THE ION-ELECTRON SYSTEM (eV)
  ---------------------------------------------------
  free  energy   TOTEN  =       -57.50299979 eV

  energy  without entropy=      -57.50299979  energy(sigma->0) =      -57.50299979
 


--------------------------------------------------------------------------------------------------------


    POTLOK:  cpu time    0.5731: real time    0.5757


--------------------------------------------------------------------------------------------------------


     LOOP+:  cpu time  732.1749: real time  737.4261
    4ORBIT:  cpu time    0.0000: real time    0.0000
 BZINTS: Fermi energy:  4.522748;124.000000 electrons
         Band energy:-511.485735;  BLOECHL correction:  0.000000

 total amount of memory used by VASP MPI-rank0   343812. kBytes
=======================================================================

   base      :      30000. kBytes
   nonl-proj :     201964. kBytes
   fftplans  :      21173. kBytes
   grid      :      14726. kBytes
   one-center:        217. kBytes
   wavefun   :      75732. kBytes
 
  
  
 General timing and accounting informations for this job:
 ========================================================
  
                  Total CPU time used (sec):      742.420
                            User time (sec):      730.546
                          System time (sec):       11.874
                         Elapsed time (sec):      750.857
  
                   Maximum memory used (kb):      392296.
                   Average memory used (kb):           0.
  
                          Minor page faults:       990639
                          Major page faults:            5
                 Voluntary context switches:         1662
