   7   7   0   0
  0.2262920E+02  0.3850000E-09  0.3850000E-09  0.1234000E-08  0.5000000E-15
  1.000000000000000E-004
  CAR 
 ZnIn2S4 bulk PBE-D3BJ relaxation        
     12.88561629    -12.28120101  301      4.69256844      1.00000000
    -12.281  0.0000E+00  0.0000E+00
    -12.197  0.0000E+00  0.0000E+00
    -12.113  0.0000E+00  0.0000E+00
    -12.030  0.0000E+00  0.0000E+00
    -11.946  0.0000E+00  0.0000E+00
    -11.862  0.0000E+00  0.0000E+00
    -11.778  0.0000E+00  0.0000E+00
    -11.694  0.0000E+00  0.0000E+00
    -11.610  0.0000E+00  0.0000E+00
    -11.526  0.0000E+00  0.0000E+00
    -11.442  0.0000E+00  0.0000E+00
    -11.358  0.3716E-11  0.3117E-12
    -11.275  0.1246E-05  0.1045E-06
    -11.191  0.2241E-02  0.1881E-03
    -11.107  0.4371E-01  0.3855E-02
    -11.023  0.4339E-01  0.7495E-02
    -10.939  0.2240E-01  0.9374E-02
    -10.855  0.1522E-01  0.1065E-01
    -10.771  0.8158E-01  0.1749E-01
    -10.687  0.6204E-01  0.2270E-01
    -10.603  0.1165E+00  0.3247E-01
    -10.520  0.2057E+00  0.4973E-01
    -10.436  0.9406E-01  0.5762E-01
    -10.352  0.1896E-01  0.5921E-01
    -10.268  0.3601E-01  0.6223E-01
    -10.184  0.8706E-01  0.6953E-01
    -10.100  0.1561E+00  0.8263E-01
    -10.016  0.1845E+00  0.9811E-01
     -9.932  0.2248E-01  0.9999E-01
     -9.848  0.5962E-04  0.1000E+00
     -9.765  0.1301E-05  0.1000E+00
     -9.681  0.2351E-03  0.1000E+00
     -9.597  0.1916E-02  0.1002E+00
     -9.513  0.3473E-02  0.1005E+00
     -9.429  0.2373E-02  0.1007E+00
     -9.345  0.5593E-02  0.1011E+00
     -9.261  0.2128E-02  0.1013E+00
     -9.177  0.2783E-02  0.1016E+00
     -9.093  0.8088E-02  0.1022E+00
     -9.010  0.8199E-02  0.1029E+00
     -8.926  0.5503E-02  0.1034E+00
     -8.842  0.1211E-01  0.1044E+00
     -8.758  0.1065E-01  0.1053E+00
     -8.674  0.1159E-01  0.1063E+00
     -8.590  0.6270E-02  0.1068E+00
     -8.506  0.1204E-01  0.1078E+00
     -8.422  0.2092E-01  0.1096E+00
     -8.338  0.9425E-02  0.1103E+00
     -8.255  0.1024E-01  0.1112E+00
     -8.171  0.3246E-01  0.1139E+00
     -8.087  0.1492E-01  0.1152E+00
     -8.003  0.2208E-01  0.1170E+00
     -7.919  0.2919E-01  0.1195E+00
     -7.835  0.1449E-01  0.1207E+00
     -7.751  0.1218E-01  0.1217E+00
     -7.667  0.8030E-02  0.1224E+00
     -7.583  0.6231E-02  0.1229E+00
     -7.500  0.1135E-01  0.1239E+00
     -7.416  0.1785E-01  0.1254E+00
     -7.332  0.4439E-01  0.1291E+00
     -7.248  0.2309E-01  0.1310E+00
     -7.164  0.7668E-02  0.1317E+00
     -7.080  0.9522E-02  0.1325E+00
     -6.996  0.1125E-01  0.1334E+00
     -6.912  0.1310E-01  0.1345E+00
     -6.828  0.2310E-01  0.1364E+00
     -6.745  0.3231E-01  0.1392E+00
     -6.661  0.9866E-02  0.1400E+00
     -6.577  0.1861E-03  0.1400E+00
     -6.493  0.4740E-07  0.1400E+00
     -6.409  0.8230E-13  0.1400E+00
     -6.325  0.0000E+00  0.1400E+00
     -6.241  0.0000E+00  0.1400E+00
     -6.157  0.0000E+00  0.1400E+00
     -6.073  0.0000E+00  0.1400E+00
     -5.989  0.0000E+00  0.1400E+00
     -5.906  0.0000E+00  0.1400E+00
     -5.822  0.0000E+00  0.1400E+00
     -5.738  0.0000E+00  0.1400E+00
     -5.654  0.0000E+00  0.1400E+00
     -5.570  0.0000E+00  0.1400E+00
     -5.486  0.0000E+00  0.1400E+00
     -5.402  0.0000E+00  0.1400E+00
     -5.318  0.0000E+00  0.1400E+00
     -5.234  0.0000E+00  0.1400E+00
     -5.151  0.0000E+00  0.1400E+00
     -5.067  0.0000E+00  0.1400E+00
     -4.983  0.0000E+00  0.1400E+00
     -4.899  0.0000E+00  0.1400E+00
     -4.815  0.0000E+00  0.1400E+00
     -4.731  0.0000E+00  0.1400E+00
     -4.647  0.0000E+00  0.1400E+00
     -4.563  0.0000E+00  0.1400E+00
     -4.479  0.0000E+00  0.1400E+00
     -4.396  0.0000E+00  0.1400E+00
     -4.312  0.0000E+00  0.1400E+00
     -4.228  0.0000E+00  0.1400E+00
     -4.144  0.0000E+00  0.1400E+00
     -4.060  0.0000E+00  0.1400E+00
     -3.976  0.0000E+00  0.1400E+00
     -3.892  0.0000E+00  0.1400E+00
     -3.808  0.0000E+00  0.1400E+00
     -3.724  0.0000E+00  0.1400E+00
     -3.641  0.0000E+00  0.1400E+00
     -3.557  0.0000E+00  0.1400E+00
     -3.473  0.0000E+00  0.1400E+00
     -3.389  0.0000E+00  0.1400E+00
     -3.305  0.0000E+00  0.1400E+00
     -3.221  0.0000E+00  0.1400E+00
     -3.137  0.0000E+00  0.1400E+00
     -3.053  0.0000E+00  0.1400E+00
     -2.969  0.0000E+00  0.1400E+00
     -2.886  0.0000E+00  0.1400E+00
     -2.802  0.0000E+00  0.1400E+00
     -2.718  0.1330E-16  0.1400E+00
     -2.634  0.9085E-10  0.1400E+00
     -2.550  0.2948E-05  0.1400E+00
     -2.466  0.6768E-03  0.1401E+00
     -2.382  0.7098E-02  0.1407E+00
     -2.298  0.1370E-01  0.1418E+00
     -2.214  0.2022E-01  0.1435E+00
     -2.131  0.1528E-01  0.1448E+00
     -2.047  0.1184E-01  0.1458E+00
     -1.963  0.2350E-01  0.1477E+00
     -1.879  0.3776E-01  0.1509E+00
     -1.795  0.2044E-01  0.1526E+00
     -1.711  0.1268E-01  0.1537E+00
     -1.627  0.7353E-02  0.1543E+00
     -1.543  0.2201E-01  0.1562E+00
     -1.459  0.5800E-01  0.1610E+00
     -1.376  0.6625E-01  0.1666E+00
     -1.292  0.1112E+00  0.1759E+00
     -1.208  0.6628E-01  0.1815E+00
     -1.124  0.9934E-01  0.1898E+00
     -1.040  0.1170E+00  0.1996E+00
     -0.956  0.4197E-01  0.2031E+00
     -0.872  0.2047E-01  0.2049E+00
     -0.788  0.2017E-01  0.2065E+00
     -0.704  0.7395E-02  0.2072E+00
     -0.621  0.3053E-02  0.2074E+00
     -0.537  0.1162E-02  0.2075E+00
     -0.453  0.3816E-02  0.2078E+00
     -0.369  0.4976E-02  0.2083E+00
     -0.285  0.1812E-01  0.2098E+00
     -0.201  0.2235E-01  0.2117E+00
     -0.117  0.2062E-01  0.2134E+00
     -0.033  0.2814E-01  0.2157E+00
      0.051  0.2934E-01  0.2182E+00
      0.134  0.2527E-01  0.2203E+00
      0.218  0.1564E-01  0.2216E+00
      0.302  0.1746E-01  0.2231E+00
      0.386  0.2340E-01  0.2251E+00
      0.470  0.1667E-01  0.2265E+00
      0.554  0.1282E-01  0.2275E+00
      0.638  0.2916E-01  0.2300E+00
      0.722  0.3364E-01  0.2328E+00
      0.806  0.1821E-01  0.2343E+00
      0.889  0.1254E-01  0.2354E+00
      0.973  0.1675E-01  0.2368E+00
      1.057  0.2288E-01  0.2387E+00
      1.141  0.2604E-01  0.2409E+00
      1.225  0.2336E-01  0.2429E+00
      1.309  0.2923E-01  0.2453E+00
      1.393  0.2301E-01  0.2472E+00
      1.477  0.2838E-01  0.2496E+00
      1.561  0.2871E-01  0.2520E+00
      1.644  0.3227E-01  0.2547E+00
      1.728  0.3650E-01  0.2578E+00
      1.812  0.2865E-01  0.2602E+00
      1.896  0.2587E-01  0.2624E+00
      1.980  0.2197E-01  0.2642E+00
      2.064  0.2716E-01  0.2665E+00
      2.148  0.1866E-01  0.2681E+00
      2.232  0.1144E-01  0.2690E+00
      2.316  0.1471E-01  0.2702E+00
      2.399  0.2822E-01  0.2726E+00
      2.483  0.2572E-01  0.2748E+00
      2.567  0.2002E-01  0.2765E+00
      2.651  0.1567E-01  0.2778E+00
      2.735  0.1691E-01  0.2792E+00
      2.819  0.2358E-01  0.2812E+00
      2.903  0.5177E-01  0.2855E+00
      2.987  0.3504E-01  0.2884E+00
      3.071  0.2045E-01  0.2902E+00
      3.154  0.2232E-01  0.2920E+00
      3.238  0.1109E-01  0.2930E+00
      3.322  0.8077E-02  0.2936E+00
      3.406  0.9800E-02  0.2945E+00
      3.490  0.9114E-02  0.2952E+00
      3.574  0.1198E-01  0.2962E+00
      3.658  0.8716E-02  0.2970E+00
      3.742  0.3172E-02  0.2972E+00
      3.826  0.6560E-02  0.2978E+00
      3.909  0.2777E-01  0.3001E+00
      3.993  0.4471E-01  0.3039E+00
      4.077  0.3537E-01  0.3068E+00
      4.161  0.1928E-01  0.3084E+00
      4.245  0.9620E-02  0.3093E+00
      4.329  0.2280E-02  0.3094E+00
      4.413  0.1266E-02  0.3095E+00
      4.497  0.3751E-02  0.3099E+00
      4.581  0.1475E-02  0.3100E+00
      4.664  0.1453E-03  0.3100E+00
      4.748  0.1508E-05  0.3100E+00
      4.832  0.9305E-04  0.3100E+00
      4.916  0.1101E-03  0.3100E+00
      5.000  0.2448E-05  0.3100E+00
      5.084  0.3356E-06  0.3100E+00
      5.168  0.9440E-04  0.3100E+00
      5.252  0.7683E-03  0.3101E+00
      5.336  0.7689E-03  0.3102E+00
      5.419  0.2751E-03  0.3102E+00
      5.503  0.2142E-02  0.3104E+00
      5.587  0.1284E-02  0.3105E+00
      5.671  0.3780E-02  0.3108E+00
      5.755  0.6244E-02  0.3113E+00
      5.839  0.1000E-01  0.3121E+00
      5.923  0.1128E-01  0.3131E+00
      6.007  0.9856E-02  0.3139E+00
      6.091  0.1545E-01  0.3152E+00
      6.174  0.1484E-01  0.3165E+00
      6.258  0.1537E-01  0.3177E+00
      6.342  0.1987E-01  0.3194E+00
      6.426  0.2451E-01  0.3215E+00
      6.510  0.1960E-01  0.3231E+00
      6.594  0.2196E-01  0.3250E+00
      6.678  0.2557E-01  0.3271E+00
      6.762  0.2103E-01  0.3289E+00
      6.846  0.1370E-01  0.3300E+00
      6.929  0.3173E-02  0.3303E+00
      7.013  0.2555E-02  0.3305E+00
      7.097  0.6336E-02  0.3310E+00
      7.181  0.6200E-02  0.3315E+00
      7.265  0.7632E-02  0.3322E+00
      7.349  0.6179E-02  0.3327E+00
      7.433  0.8496E-03  0.3328E+00
      7.517  0.2363E-02  0.3330E+00
      7.601  0.1469E-01  0.3342E+00
      7.684  0.1386E-01  0.3354E+00
      7.768  0.3952E-02  0.3357E+00
      7.852  0.6183E-02  0.3362E+00
      7.936  0.1503E-01  0.3375E+00
      8.020  0.1371E-01  0.3386E+00
      8.104  0.1448E-01  0.3398E+00
      8.188  0.6187E-02  0.3404E+00
      8.272  0.3662E-02  0.3407E+00
      8.356  0.4085E-02  0.3410E+00
      8.439  0.3724E-02  0.3413E+00
      8.523  0.3117E-02  0.3416E+00
      8.607  0.1119E-01  0.3425E+00
      8.691  0.2584E-01  0.3447E+00
      8.775  0.2702E-01  0.3470E+00
      8.859  0.3659E-01  0.3500E+00
      8.943  0.3554E-01  0.3530E+00
      9.027  0.1691E-01  0.3544E+00
      9.111  0.1098E-01  0.3554E+00
      9.194  0.1892E-01  0.3569E+00
      9.278  0.1784E-01  0.3584E+00
      9.362  0.1075E-01  0.3593E+00
      9.446  0.2231E-01  0.3612E+00
      9.530  0.3882E-01  0.3645E+00
      9.614  0.2650E-01  0.3667E+00
      9.698  0.2050E-01  0.3684E+00
      9.782  0.3008E-01  0.3709E+00
      9.866  0.3962E-01  0.3743E+00
      9.949  0.3010E-01  0.3768E+00
     10.033  0.2562E-01  0.3789E+00
     10.117  0.1561E-01  0.3802E+00
     10.201  0.9903E-02  0.3811E+00
     10.285  0.9702E-02  0.3819E+00
     10.369  0.1813E-01  0.3834E+00
     10.453  0.1963E-01  0.3851E+00
     10.537  0.2713E-01  0.3873E+00
     10.621  0.2446E-01  0.3894E+00
     10.704  0.1996E-01  0.3911E+00
     10.788  0.2245E-01  0.3929E+00
     10.872  0.1796E-01  0.3944E+00
     10.956  0.1256E-01  0.3955E+00
     11.040  0.1761E-01  0.3970E+00
     11.124  0.1623E-01  0.3983E+00
     11.208  0.6464E-02  0.3989E+00
     11.292  0.2226E-02  0.3991E+00
     11.376  0.3897E-02  0.3994E+00
     11.459  0.3669E-02  0.3997E+00
     11.543  0.2201E-02  0.3999E+00
     11.627  0.2351E-03  0.3999E+00
     11.711  0.4290E-03  0.3999E+00
     11.795  0.6244E-03  0.4000E+00
     11.879  0.5421E-04  0.4000E+00
     11.963  0.4276E-07  0.4000E+00
     12.047  0.1641E-12  0.4000E+00
     12.131  0.0000E+00  0.4000E+00
     12.215  0.0000E+00  0.4000E+00
     12.298  0.0000E+00  0.4000E+00
     12.382  0.0000E+00  0.4000E+00
     12.466  0.0000E+00  0.4000E+00
     12.550  0.0000E+00  0.4000E+00
     12.634  0.0000E+00  0.4000E+00
     12.718  0.0000E+00  0.4000E+00
     12.802  0.0000E+00  0.4000E+00
     12.886  0.0000E+00  0.4000E+00
