       N       E                     dE             d eps       ncg     rms          rms(c)
DAV:   1     0.596099556952E+03    0.59610E+03   -0.27555E+04  5528   0.175E+03
DAV:   2     0.608651932919E+02   -0.53523E+03   -0.51184E+03  5544   0.450E+02
DAV:   3    -0.232130148367E+02   -0.84078E+02   -0.81982E+02  6792   0.177E+02
DAV:   4    -0.279545378898E+02   -0.47415E+01   -0.47167E+01  6864   0.427E+01
DAV:   5    -0.281403938349E+02   -0.18586E+00   -0.18580E+00  8088   0.896E+00    0.141E+01
DAV:   6    -0.262571422539E+02    0.18833E+01   -0.31386E+00  8816   0.375E+01    0.992E+00
DAV:   7    -0.261867833124E+02    0.70359E-01   -0.32075E+00  8360   0.145E+01    0.334E+00
DAV:   8    -0.261397660575E+02    0.47017E-01   -0.54615E-01  8008   0.635E+00    0.229E+00
DAV:   9    -0.261404516557E+02   -0.68560E-03   -0.53964E-02  7224   0.124E+00    0.954E-01
DAV:  10    -0.261395181380E+02    0.93352E-03   -0.13425E-02  7744   0.118E+00    0.786E-01
DAV:  11    -0.261397240469E+02   -0.20591E-03   -0.31633E-03  6392   0.328E-01    0.295E-01
DAV:  12    -0.261396863182E+02    0.37729E-04   -0.60476E-04  8384   0.189E-01    0.130E-01
DAV:  13    -0.261397095546E+02   -0.23236E-04   -0.15031E-04  7464   0.724E-02    0.312E-02
DAV:  14    -0.261397119947E+02   -0.24401E-05   -0.26410E-05  7480   0.371E-02    0.149E-02
DAV:  15    -0.261397128467E+02   -0.85205E-06   -0.35401E-06  6128   0.143E-02
   1 F= -.28253185E+02 E0= -.28252746E+02  d E =-.282532E+02
       N       E                     dE             d eps       ncg     rms          rms(c)
DAV:   1    -0.279680963039E+02   -0.18284E+01   -0.10912E+02  8264   0.113E+02    0.107E+01
DAV:   2    -0.268003199570E+02    0.11678E+01   -0.75535E+00  7304   0.325E+01    0.367E+00
DAV:   3    -0.265674141656E+02    0.23291E+00   -0.80138E-01  8128   0.937E+00    0.196E+00
DAV:   4    -0.265300124128E+02    0.37402E-01   -0.98975E-02  8776   0.285E+00    0.970E-01
DAV:   5    -0.265231589364E+02    0.68535E-02   -0.84878E-03  8504   0.133E+00    0.624E-01
DAV:   6    -0.265213555296E+02    0.18034E-02   -0.29953E-03  8536   0.532E-01    0.143E-01
DAV:   7    -0.265213877704E+02   -0.32241E-04   -0.88805E-04  8160   0.225E-01    0.870E-02
DAV:   8    -0.265213965468E+02   -0.87764E-05   -0.52954E-05  7768   0.770E-02    0.477E-02
DAV:   9    -0.265214026909E+02   -0.61441E-05   -0.17134E-05  6568   0.273E-02    0.758E-03
DAV:  10    -0.265214019640E+02    0.72687E-06   -0.18285E-06  5112   0.188E-02
   2 F= -.28506623E+02 E0= -.28506411E+02  d E =-.253437E+00
       N       E                     dE             d eps       ncg     rms          rms(c)
DAV:   1    -0.265292303261E+02   -0.78276E-02   -0.11269E+00  8256   0.975E+00    0.143E+00
DAV:   2    -0.265142139624E+02    0.15016E-01   -0.90193E-02  8096   0.433E+00    0.406E-01
DAV:   3    -0.265119700362E+02    0.22439E-02   -0.74708E-03  8736   0.861E-01    0.285E-01
DAV:   4    -0.265113934594E+02    0.57658E-03   -0.10530E-03  8824   0.324E-01    0.130E-01
DAV:   5    -0.265113029250E+02    0.90534E-04   -0.16968E-04  9160   0.171E-01    0.430E-02
DAV:   6    -0.265113065640E+02   -0.36391E-05   -0.50256E-05  7888   0.458E-02    0.337E-02
DAV:   7    -0.265113074933E+02   -0.92927E-06   -0.20785E-06  4864   0.150E-02
   3 F= -.28509915E+02 E0= -.28509691E+02  d E =-.256729E+00
       N       E                     dE             d eps       ncg     rms          rms(c)
DAV:   1    -0.265916306993E+02   -0.80324E-01   -0.27521E+01  6064   0.285E+01    0.372E+00
DAV:   2    -0.266330455001E+02   -0.41415E-01   -0.16387E+00  7528   0.115E+01    0.118E+00
DAV:   3    -0.266250714854E+02    0.79740E-02   -0.11498E-01  7848   0.272E+00    0.986E-01
DAV:   4    -0.266198170096E+02    0.52545E-02   -0.12663E-02  8688   0.968E-01    0.457E-01
DAV:   5    -0.266187509059E+02    0.10661E-02   -0.22611E-03  8904   0.597E-01    0.206E-01
DAV:   6    -0.266187117803E+02    0.39126E-04   -0.71687E-04  8144   0.195E-01    0.130E-01
DAV:   7    -0.266187110720E+02    0.70830E-06   -0.99402E-05  8152   0.801E-02    0.303E-02
DAV:   8    -0.266187156788E+02   -0.46068E-05   -0.27657E-05  7376   0.337E-02    0.218E-02
DAV:   9    -0.266187158023E+02   -0.12350E-06   -0.44612E-06  5824   0.143E-02
   4 F= -.28644850E+02 E0= -.28644749E+02  d E =-.134936E+00
       N       E                     dE             d eps       ncg     rms          rms(c)
DAV:   1    -0.266148520011E+02    0.38637E-02   -0.26701E+01  6056   0.282E+01    0.381E+00
DAV:   2    -0.266541148046E+02   -0.39263E-01   -0.16092E+00  7504   0.115E+01    0.119E+00
DAV:   3    -0.266460953969E+02    0.80194E-02   -0.11221E-01  8000   0.272E+00    0.999E-01
DAV:   4    -0.266408046701E+02    0.52907E-02   -0.12103E-02  8712   0.987E-01    0.447E-01
DAV:   5    -0.266397056887E+02    0.10990E-02   -0.22753E-03  9016   0.608E-01    0.201E-01
DAV:   6    -0.266396753247E+02    0.30364E-04   -0.75457E-04  8224   0.193E-01    0.130E-01
DAV:   7    -0.266396739043E+02    0.14204E-05   -0.90502E-05  8248   0.754E-02    0.308E-02
DAV:   8    -0.266396790051E+02   -0.51008E-05   -0.28310E-05  7368   0.342E-02    0.206E-02
DAV:   9    -0.266396793439E+02   -0.33877E-06   -0.52115E-06  5848   0.146E-02
   5 F= -.28693903E+02 E0= -.28693883E+02  d E =-.183989E+00
       N       E                     dE             d eps       ncg     rms          rms(c)
DAV:   1    -0.266535248640E+02   -0.13846E-01   -0.41307E+00  5928   0.108E+01    0.123E+00
DAV:   2    -0.266605018672E+02   -0.69770E-02   -0.25130E-01  8384   0.387E+00    0.541E-01
DAV:   3    -0.266587947454E+02    0.17071E-02   -0.12672E-02  8000   0.918E-01    0.365E-01
DAV:   4    -0.266580953082E+02    0.69944E-03   -0.17341E-03  8624   0.317E-01    0.201E-01
DAV:   5    -0.266578071928E+02    0.28812E-03   -0.43882E-04  8600   0.236E-01    0.735E-02
DAV:   6    -0.266577963086E+02    0.10884E-04   -0.16418E-04  8568   0.973E-02    0.551E-02
DAV:   7    -0.266577990782E+02   -0.27696E-05   -0.38117E-05  6384   0.351E-02    0.297E-02
DAV:   8    -0.266577999830E+02   -0.90476E-06   -0.45057E-06  6560   0.190E-02
   6 F= -.28720967E+02 E0= -.28720947E+02  d E =-.270634E-01
       N       E                     dE             d eps       ncg     rms          rms(c)
DAV:   1    -0.266542196462E+02    0.35794E-02   -0.22945E+00  5728   0.814E+00    0.919E-01
DAV:   2    -0.266586007667E+02   -0.43811E-02   -0.14427E-01  8272   0.290E+00    0.394E-01
DAV:   3    -0.266576266325E+02    0.97413E-03   -0.71629E-03  8128   0.701E-01    0.275E-01
DAV:   4    -0.266572356916E+02    0.39094E-03   -0.92969E-04  8592   0.237E-01    0.150E-01
DAV:   5    -0.266570737261E+02    0.16197E-03   -0.26513E-04  8688   0.183E-01    0.523E-02
DAV:   6    -0.266570703614E+02    0.33647E-05   -0.88695E-05  8672   0.690E-02    0.422E-02
DAV:   7    -0.266570718058E+02   -0.14444E-05   -0.19125E-05  6432   0.250E-02    0.225E-02
DAV:   8    -0.266570726147E+02   -0.80890E-06   -0.24709E-06  5496   0.138E-02
   7 F= -.28727003E+02 E0= -.28726981E+02  d E =-.330996E-01
       N       E                     dE             d eps       ncg     rms          rms(c)
DAV:   1    -0.266577661377E+02   -0.69433E-03   -0.26777E+00  5520   0.757E+00    0.129E+00
DAV:   2    -0.266671286205E+02   -0.93625E-02   -0.21067E-01  7944   0.337E+00    0.500E-01
DAV:   3    -0.266642221483E+02    0.29065E-02   -0.79445E-03  7896   0.720E-01    0.367E-01
DAV:   4    -0.266626017116E+02    0.16204E-02   -0.31377E-03  8424   0.452E-01    0.136E-01
DAV:   5    -0.266625363090E+02    0.65403E-04   -0.94335E-04  7320   0.198E-01    0.826E-02
DAV:   6    -0.266625323271E+02    0.39819E-05   -0.66650E-05  7856   0.612E-02    0.599E-02
DAV:   7    -0.266625295930E+02    0.27341E-05   -0.23216E-05  8120   0.424E-02    0.200E-02
DAV:   8    -0.266625306967E+02   -0.11037E-05   -0.81619E-06  6760   0.180E-02    0.109E-02
DAV:   9    -0.266625303115E+02    0.38523E-06   -0.72324E-07  3768   0.756E-03
   8 F= -.28736032E+02 E0= -.28736027E+02  d E =-.902961E-02
       N       E                     dE             d eps       ncg     rms          rms(c)
DAV:   1    -0.266621284311E+02    0.40227E-03   -0.37433E-02  5536   0.905E-01    0.152E-01
DAV:   2    -0.266622602799E+02   -0.13185E-03   -0.29649E-03  8256   0.405E-01    0.577E-02
DAV:   3    -0.266622177223E+02    0.42558E-04   -0.98569E-05  7760   0.827E-02    0.407E-02
DAV:   4    -0.266621952301E+02    0.22492E-04   -0.47237E-05  8464   0.573E-02    0.146E-02
DAV:   5    -0.266621951596E+02    0.70496E-07   -0.13606E-05  6864   0.236E-02    0.954E-03
DAV:   6    -0.266621951716E+02   -0.11922E-07   -0.64398E-07  3928   0.741E-03
   9 F= -.28736125E+02 E0= -.28736121E+02  d E =-.912247E-02
       N       E                     dE             d eps       ncg     rms          rms(c)
DAV:   1    -0.266515859553E+02    0.10609E-01   -0.52389E+00  6864   0.122E+01    0.150E+00
DAV:   2    -0.266589917818E+02   -0.74058E-02   -0.29575E-01  7208   0.490E+00    0.537E-01
DAV:   3    -0.266572140452E+02    0.17777E-02   -0.21305E-02  8720   0.124E+00    0.414E-01
DAV:   4    -0.266561784748E+02    0.10356E-02   -0.16662E-03  8720   0.400E-01    0.194E-01
DAV:   5    -0.266558941676E+02    0.28431E-03   -0.40427E-04  8536   0.269E-01    0.678E-02
DAV:   6    -0.266558864142E+02    0.77535E-05   -0.17882E-04  8344   0.981E-02    0.407E-02
DAV:   7    -0.266558896941E+02   -0.32799E-05   -0.23735E-05  6608   0.314E-02    0.172E-02
DAV:   8    -0.266558899589E+02   -0.26483E-06   -0.29297E-06  5584   0.121E-02
  10 F= -.28743018E+02 E0= -.28743017E+02  d E =-.689234E-02
       N       E                     dE             d eps       ncg     rms          rms(c)
DAV:   1    -0.266512006643E+02    0.46890E-02   -0.16742E+00  7280   0.696E+00    0.762E-01
DAV:   2    -0.266503135510E+02    0.88711E-03   -0.66298E-02  7552   0.265E+00    0.280E-01
DAV:   3    -0.266496946630E+02    0.61889E-03   -0.54393E-03  8656   0.643E-01    0.191E-01
DAV:   4    -0.266494276581E+02    0.26700E-03   -0.45906E-04  8712   0.174E-01    0.873E-02
DAV:   5    -0.266493581531E+02    0.69505E-04   -0.10327E-04  8392   0.137E-01    0.325E-02
DAV:   6    -0.266493600388E+02   -0.18857E-05   -0.46948E-05  8248   0.475E-02    0.223E-02
DAV:   7    -0.266493610615E+02   -0.10228E-05   -0.54837E-06  6360   0.139E-02    0.114E-02
DAV:   8    -0.266493613887E+02   -0.32715E-06   -0.56224E-07  3936   0.736E-03
  11 F= -.28743918E+02 E0= -.28743918E+02  d E =-.779293E-02
       N       E                     dE             d eps       ncg     rms          rms(c)
DAV:   1    -0.266601706219E+02   -0.10810E-01   -0.28394E+00  6616   0.943E+00    0.129E+00
DAV:   2    -0.266642848835E+02   -0.41143E-02   -0.17585E-01  7264   0.350E+00    0.464E-01
DAV:   3    -0.266621799868E+02    0.21049E-02   -0.11593E-02  7696   0.867E-01    0.340E-01
DAV:   4    -0.266610407473E+02    0.11392E-02   -0.17962E-03  8448   0.382E-01    0.154E-01
DAV:   5    -0.266608840297E+02    0.15672E-03   -0.52698E-04  8424   0.188E-01    0.631E-02
DAV:   6    -0.266608723016E+02    0.11728E-04   -0.86042E-05  8296   0.659E-02    0.448E-02
DAV:   7    -0.266608681585E+02    0.41431E-05   -0.11578E-05  8288   0.301E-02    0.150E-02
DAV:   8    -0.266608667238E+02    0.14346E-05   -0.23550E-06  5440   0.173E-02    0.792E-03
DAV:   9    -0.266608666857E+02    0.38154E-07   -0.10208E-06  3808   0.829E-03
  12 F= -.28747504E+02 E0= -.28747504E+02  d E =-.358619E-02
       N       E                     dE             d eps       ncg     rms          rms(c)
DAV:   1    -0.266616874831E+02   -0.82076E-03   -0.29586E-02  6392   0.940E-01    0.138E-01
DAV:   2    -0.266617383388E+02   -0.50856E-04   -0.18955E-03  7320   0.360E-01    0.469E-02
DAV:   3    -0.266617160993E+02    0.22240E-04   -0.12152E-04  7536   0.860E-02    0.358E-02
DAV:   4    -0.266617027420E+02    0.13357E-04   -0.19335E-05  8568   0.421E-02    0.165E-02
DAV:   5    -0.266617002893E+02    0.24527E-05   -0.59629E-06  7488   0.201E-02    0.684E-03
DAV:   6    -0.266616999113E+02    0.37793E-06   -0.80334E-07  3696   0.713E-03
  13 F= -.28747532E+02 E0= -.28747531E+02  d E =-.361364E-02
       N       E                     dE             d eps       ncg     rms          rms(c)
DAV:   1    -0.266748700877E+02   -0.13170E-01   -0.19999E+00  7048   0.116E+01    0.149E+00
DAV:   2    -0.266553231993E+02    0.19547E-01   -0.18112E-01  8024   0.544E+00    0.545E-01
DAV:   3    -0.266504918980E+02    0.48313E-02   -0.13634E-02  8176   0.122E+00    0.327E-01
DAV:   4    -0.266489590394E+02    0.15329E-02   -0.36007E-03  8688   0.535E-01    0.151E-01
DAV:   5    -0.266489149159E+02    0.44123E-04   -0.59396E-04  7304   0.171E-01    0.741E-02
DAV:   6    -0.266489035133E+02    0.11403E-04   -0.60661E-05  7848   0.836E-02    0.389E-02
DAV:   7    -0.266489076919E+02   -0.41786E-05   -0.24150E-05  8288   0.619E-02    0.126E-02
DAV:   8    -0.266489078341E+02   -0.14226E-06   -0.57971E-06  5888   0.217E-02
  14 F= -.28750779E+02 E0= -.28750779E+02  d E =-.324723E-02
       N       E                     dE             d eps       ncg     rms          rms(c)
DAV:   1    -0.266470242676E+02    0.18834E-02   -0.37486E-01  7056   0.508E+00    0.634E-01
DAV:   2    -0.266433497675E+02    0.36745E-02   -0.33550E-02  7968   0.233E+00    0.235E-01
DAV:   3    -0.266424390134E+02    0.91075E-03   -0.25419E-03  7944   0.528E-01    0.140E-01
DAV:   4    -0.266421633389E+02    0.27567E-03   -0.66632E-04  8704   0.232E-01    0.646E-02
DAV:   5    -0.266421589695E+02    0.43693E-05   -0.11006E-04  7320   0.733E-02    0.310E-02
DAV:   6    -0.266421581074E+02    0.86219E-06   -0.11394E-05  7544   0.359E-02    0.162E-02
DAV:   7    -0.266421599888E+02   -0.18814E-05   -0.40792E-06  6368   0.268E-02    0.512E-03
DAV:   8    -0.266421601323E+02   -0.14356E-06   -0.11874E-06  3936   0.107E-02
  15 F= -.28751001E+02 E0= -.28751001E+02  d E =-.346935E-02
       N       E                     dE             d eps       ncg     rms          rms(c)
DAV:   1    -0.266374103031E+02    0.47497E-02   -0.84735E-01  6072   0.464E+00    0.459E-01
DAV:   2    -0.266399921797E+02   -0.25819E-02   -0.45795E-02  7112   0.155E+00    0.155E-01
DAV:   3    -0.266399686390E+02    0.23541E-04   -0.24984E-03  7048   0.384E-01    0.133E-01
DAV:   4    -0.266399030316E+02    0.65607E-04   -0.31207E-04  8392   0.138E-01    0.842E-02
DAV:   5    -0.266398936075E+02    0.94241E-05   -0.48971E-05  8216   0.714E-02    0.307E-02
DAV:   6    -0.266398941833E+02   -0.57585E-06   -0.13860E-05  8504   0.389E-02    0.114E-02
DAV:   7    -0.266398950644E+02   -0.88104E-06   -0.23375E-06  5072   0.943E-03
  16 F= -.28752787E+02 E0= -.28752787E+02  d E =-.178604E-02
       N       E                     dE             d eps       ncg     rms          rms(c)
DAV:   1    -0.266250410827E+02    0.14853E-01   -0.29116E+00  6064   0.854E+00    0.869E-01
DAV:   2    -0.266339922231E+02   -0.89511E-02   -0.15850E-01  7152   0.289E+00    0.285E-01
DAV:   3    -0.266338918397E+02    0.10038E-03   -0.87704E-03  7048   0.713E-01    0.249E-01
DAV:   4    -0.266336860413E+02    0.20580E-03   -0.10241E-03  8336   0.232E-01    0.158E-01
DAV:   5    -0.266336322524E+02    0.53789E-04   -0.14766E-04  7672   0.155E-01    0.586E-02
DAV:   6    -0.266336304448E+02    0.18077E-05   -0.58818E-05  8584   0.733E-02    0.254E-02
DAV:   7    -0.266336326710E+02   -0.22262E-05   -0.89260E-06  7480   0.183E-02    0.122E-02
DAV:   8    -0.266336333041E+02   -0.63312E-06   -0.63811E-07  4040   0.136E-02
  17 F= -.28754097E+02 E0= -.28754097E+02  d E =-.309617E-02
       N       E                     dE             d eps       ncg     rms          rms(c)
DAV:   1    -0.266409464614E+02   -0.73138E-02   -0.62564E-01  5632   0.551E+00    0.678E-01
DAV:   2    -0.266406912476E+02    0.25521E-03   -0.52346E-02  7352   0.231E+00    0.243E-01
DAV:   3    -0.266400009006E+02    0.69035E-03   -0.35886E-03  7472   0.565E-01    0.159E-01
DAV:   4    -0.266397399135E+02    0.26099E-03   -0.85147E-04  8648   0.270E-01    0.674E-02
DAV:   5    -0.266397191018E+02    0.20812E-04   -0.13507E-04  7824   0.890E-02    0.433E-02
DAV:   6    -0.266397126857E+02    0.64160E-05   -0.11616E-05  8472   0.331E-02    0.256E-02
DAV:   7    -0.266397083387E+02    0.43471E-05   -0.49935E-06  6664   0.201E-02    0.472E-03
DAV:   8    -0.266397078138E+02    0.52483E-06   -0.10737E-06  4056   0.744E-03
  18 F= -.28753984E+02 E0= -.28753984E+02  d E =0.113246E-03
       N       E                     dE             d eps       ncg     rms          rms(c)
DAV:   1    -0.266374085146E+02    0.22998E-02   -0.17293E-01  5640   0.286E+00    0.358E-01
DAV:   2    -0.266373268518E+02    0.81663E-04   -0.14600E-02  7560   0.123E+00    0.125E-01
DAV:   3    -0.266371369551E+02    0.18990E-03   -0.99020E-04  7320   0.303E-01    0.798E-02
DAV:   4    -0.266370761704E+02    0.60785E-04   -0.24101E-04  8560   0.142E-01    0.356E-02
DAV:   5    -0.266370755945E+02    0.57590E-06   -0.36819E-05  7608   0.458E-02    0.234E-02
DAV:   6    -0.266370753028E+02    0.29164E-06   -0.25036E-06  5200   0.180E-02
  19 F= -.28754603E+02 E0= -.28754602E+02  d E =-.505175E-03
       N       E                     dE             d eps       ncg     rms          rms(c)
DAV:   1    -0.266361194067E+02    0.95619E-03   -0.21181E-01  5536   0.223E+00    0.262E-01
DAV:   2    -0.266367804542E+02   -0.66105E-03   -0.86026E-03  7688   0.614E-01    0.760E-02
DAV:   3    -0.266367522350E+02    0.28219E-04   -0.37651E-04  7024   0.121E-01    0.669E-02
DAV:   4    -0.266367324826E+02    0.19752E-04   -0.53308E-05  8824   0.658E-02    0.334E-02
DAV:   5    -0.266367278741E+02    0.46086E-05   -0.11712E-05  8504   0.350E-02    0.137E-02
DAV:   6    -0.266367278965E+02   -0.22473E-07   -0.38805E-06  6136   0.150E-02
  20 F= -.28754899E+02 E0= -.28754899E+02  d E =-.296844E-03
       N       E                     dE             d eps       ncg     rms          rms(c)
DAV:   1    -0.266367325401E+02   -0.46660E-05   -0.98851E-06  6256   0.174E-02    0.332E-03
DAV:   2    -0.266367326109E+02   -0.70811E-07   -0.50105E-07  3624   0.750E-03
  21 F= -.28754900E+02 E0= -.28754900E+02  d E =-.297249E-03
       N       E                     dE             d eps       ncg     rms          rms(c)
DAV:   1    -0.266385797881E+02   -0.18472E-02   -0.10174E-01  6632   0.183E+00    0.172E-01
DAV:   2    -0.266386253662E+02   -0.45578E-04   -0.37765E-03  7328   0.593E-01    0.550E-02
DAV:   3    -0.266386043154E+02    0.21051E-04   -0.30149E-04  7728   0.158E-01    0.392E-02
DAV:   4    -0.266385925625E+02    0.11753E-04   -0.30041E-05  8544   0.498E-02    0.215E-02
DAV:   5    -0.266385885163E+02    0.40462E-05   -0.41022E-06  6432   0.236E-02    0.957E-03
DAV:   6    -0.266385870142E+02    0.15020E-05   -0.84208E-07  4152   0.137E-02    0.355E-03
DAV:   7    -0.266385867436E+02    0.27066E-06   -0.90166E-07  3544   0.861E-03
  22 F= -.28754993E+02 E0= -.28754993E+02  d E =-.928223E-04
       N       E                     dE             d eps       ncg     rms          rms(c)
DAV:   1    -0.266388810914E+02   -0.29408E-03   -0.28237E-03  6528   0.302E-01    0.295E-02
DAV:   2    -0.266388838902E+02   -0.27988E-05   -0.11240E-04  7224   0.996E-02    0.905E-03
DAV:   3    -0.266388832175E+02    0.67268E-06   -0.88245E-06  6304   0.267E-02
  23 F= -.28754995E+02 E0= -.28754995E+02  d E =-.955051E-04
       N       E                     dE             d eps       ncg     rms          rms(c)
DAV:   1    -0.266385555362E+02    0.32835E-03   -0.12830E-02  6072   0.569E-01    0.760E-02
DAV:   2    -0.266385968622E+02   -0.41326E-04   -0.70100E-04  7504   0.192E-01    0.224E-02
DAV:   3    -0.266385923082E+02    0.45540E-05   -0.32424E-05  7512   0.449E-02    0.170E-02
DAV:   4    -0.266385904595E+02    0.18487E-05   -0.66100E-06  7496   0.233E-02    0.690E-03
DAV:   5    -0.266385907060E+02   -0.24647E-06   -0.17808E-06  4408   0.101E-02
  24 F= -.28755011E+02 E0= -.28755011E+02  d E =-.156426E-04
       N       E                     dE             d eps       ncg     rms          rms(c)
DAV:   1    -0.266386894750E+02   -0.99015E-04   -0.12929E-03  6072   0.179E-01    0.226E-02
DAV:   2    -0.266386936302E+02   -0.41553E-05   -0.70568E-05  7400   0.618E-02    0.819E-03
DAV:   3    -0.266386930098E+02    0.62040E-06   -0.32057E-06  5400   0.144E-02
  25 F= -.28755015E+02 E0= -.28755015E+02  d E =-.202145E-04
       N       E                     dE             d eps       ncg     rms          rms(c)
DAV:   1    -0.266387457684E+02   -0.52138E-04   -0.93095E-03  5712   0.404E-01    0.524E-02
DAV:   2    -0.266387668008E+02   -0.21032E-04   -0.38832E-04  8296   0.132E-01    0.182E-02
DAV:   3    -0.266387636445E+02    0.31562E-05   -0.11598E-05  7704   0.243E-02    0.126E-02
DAV:   4    -0.266387619824E+02    0.16621E-05   -0.14449E-06  4176   0.121E-02    0.608E-03
DAV:   5    -0.266387614541E+02    0.52830E-06   -0.15412E-06  4120   0.109E-02
  26 F= -.28755010E+02 E0= -.28755010E+02  d E =0.574767E-05
