In2 S4 Zn
1.0
        3.8499999046         0.0000000000         0.0000000000
       -1.9249999523         3.3341977220         0.0000000000
        0.0000000000         0.0000000000        24.6800003052
   In   Zn    S
    4    2    8
Direct
     0.333333343         0.666666687         0.093999997
     0.666666627         0.333333313         0.593999982
     0.666666687         0.333333343         0.250000000
     0.333333313         0.666666627         0.750000000
     0.000000000         0.000000000         0.405999988
     0.000000000         0.000000000         0.906000018
     0.666666687         0.333333343         0.437999994
     0.333333313         0.666666627         0.937999964
     0.000000000         0.000000000         0.062500000
     0.000000000         0.000000000         0.562500000
     0.333333343         0.666666687         0.194000006
     0.666666627         0.333333313         0.694000006
     0.000000000         0.000000000         0.305999994
     0.000000000         0.000000000         0.805999994
