ZnIn2S4 bulk PBE-D3BJ relaxation        
           1
     3.850000    0.000000    0.000000
    -1.925000    3.334198    0.000000
     0.000000    0.000000   24.680000
   In   Zn   S 
   4   2   8
Direct configuration=     1
   0.33333334  0.66666669  0.09400000
   0.66666663  0.33333331  0.59399998
   0.66666669  0.33333334  0.25000000
   0.33333331  0.66666663  0.75000000
   0.00000000  0.00000000  0.40599999
   0.00000000  0.00000000  0.90600002
   0.66666669  0.33333334  0.43799999
   0.33333331  0.66666663  0.93799996
   0.00000000  0.00000000  0.06250000
   0.00000000  0.00000000  0.56250000
   0.33333334  0.66666669  0.19400001
   0.66666663  0.33333331  0.69400001
   0.00000000  0.00000000  0.30599999
   0.00000000  0.00000000  0.80599999
ZnIn2S4 bulk PBE-D3BJ relaxation        
           1
     3.956928    0.000000   -0.000000
    -1.978464    3.426801    0.000000
     0.000000    0.000000   24.742669
   In   Zn   S 
   4   2   8
Direct configuration=     2
   0.33333334  0.66666669  0.09636956
   0.66666663  0.33333331  0.59636954
   0.66666669  0.33333334  0.25235887
   0.33333331  0.66666663  0.75235887
   0.00000000 -0.00000000  0.40708423
  -0.00000000  0.00000000  0.90708426
   0.66666669  0.33333334  0.43733257
   0.33333331  0.66666663  0.93733254
  -0.00000000  0.00000000  0.05894308
   0.00000000 -0.00000000  0.55894308
   0.33333334  0.66666669  0.19303050
   0.66666663  0.33333331  0.69303050
   0.00000000  0.00000000  0.30538116
  -0.00000000 -0.00000000  0.80538116
ZnIn2S4 bulk PBE-D3BJ relaxation        
           1
     3.943364    0.000000   -0.000000
    -1.971682    3.415053    0.000000
     0.000000    0.000000   24.734719
   In   Zn   S 
   4   2   8
Direct configuration=     3
   0.33333334  0.66666669  0.09606973
   0.66666663  0.33333331  0.59606971
   0.66666669  0.33333334  0.25206039
   0.33333331  0.66666663  0.75206039
   0.00000000 -0.00000000  0.40694704
  -0.00000000  0.00000000  0.90694707
   0.66666669  0.33333334  0.43741702
   0.33333331  0.66666663  0.93741699
  -0.00000000  0.00000000  0.05939316
   0.00000000 -0.00000000  0.55939316
   0.33333334  0.66666669  0.19315318
   0.66666663  0.33333331  0.69315318
   0.00000000  0.00000000  0.30545947
  -0.00000000 -0.00000000  0.80545947
ZnIn2S4 bulk PBE-D3BJ relaxation        
           1
     3.919765    0.000000   -0.000000
    -1.959882    3.394616    0.000000
    -0.000000   -0.000000   24.731629
   In   Zn   S 
   4   2   8
Direct configuration=     4
   0.33333334  0.66666669  0.09642104
   0.66666663  0.33333331  0.59642102
   0.66666669  0.33333334  0.25389772
   0.33333331  0.66666663  0.75389772
  -0.00000000 -0.00000000  0.40846493
  -0.00000000  0.00000000  0.90846496
   0.66666669  0.33333334  0.43616069
   0.33333331  0.66666663  0.93616066
   0.00000000  0.00000000  0.05691158
   0.00000000 -0.00000000  0.55691158
   0.33333334  0.66666669  0.19391409
   0.66666663  0.33333331  0.69391409
   0.00000000  0.00000000  0.30472995
   0.00000000 -0.00000000  0.80472995
ZnIn2S4 bulk PBE-D3BJ relaxation        
           1
     3.893618    0.000000   -0.000000
    -1.946809    3.371972    0.000000
    -0.000000   -0.000000   24.728204
   In   Zn   S 
   4   2   8
Direct configuration=     5
   0.33333334  0.66666669  0.09681032
   0.66666663  0.33333331  0.59681030
   0.66666669  0.33333334  0.25593363
   0.33333331  0.66666663  0.75593363
  -0.00000000 -0.00000000  0.41014687
  -0.00000000  0.00000000  0.91014690
   0.66666669  0.33333334  0.43476855
   0.33333331  0.66666663  0.93476852
   0.00000000  0.00000000  0.05416178
   0.00000000  0.00000000  0.55416178
   0.33333334  0.66666669  0.19475724
   0.66666663  0.33333331  0.69475724
   0.00000000  0.00000000  0.30392158
   0.00000000 -0.00000000  0.80392158
ZnIn2S4 bulk PBE-D3BJ relaxation        
           1
     3.883928    0.000000   -0.000000
    -1.941964    3.363581    0.000000
    -0.000000   -0.000000   24.810121
   In   Zn   S 
   4   2   8
Direct configuration=     6
   0.33333334  0.66666669  0.09657189
   0.66666663  0.33333331  0.59657188
   0.66666669  0.33333334  0.25565492
   0.33333331  0.66666663  0.75565492
  -0.00000000 -0.00000000  0.41085453
  -0.00000000  0.00000000  0.91085456
   0.66666669  0.33333334  0.43395221
   0.33333331  0.66666663  0.93395218
   0.00000000  0.00000000  0.05318016
   0.00000000 -0.00000000  0.55318016
   0.33333334  0.66666669  0.19495946
   0.66666663  0.33333331  0.69495946
   0.00000000  0.00000000  0.30532681
   0.00000000 -0.00000000  0.80532681
ZnIn2S4 bulk PBE-D3BJ relaxation        
           1
     3.876893    0.000000   -0.000000
    -1.938447    3.357488    0.000000
    -0.000000   -0.000000   24.869594
   In   Zn   S 
   4   2   8
Direct configuration=     7
   0.33333334  0.66666669  0.09639937
   0.66666663  0.33333331  0.59639935
   0.66666669  0.33333334  0.25545324
   0.33333331  0.66666663  0.75545324
  -0.00000000 -0.00000000  0.41136661
  -0.00000000  0.00000000  0.91136664
   0.66666669  0.33333334  0.43336149
   0.33333331  0.66666663  0.93336146
   0.00000000  0.00000000  0.05246984
   0.00000000 -0.00000000  0.55246984
   0.33333334  0.66666669  0.19510579
   0.66666663  0.33333331  0.69510579
   0.00000000  0.00000000  0.30634365
   0.00000000 -0.00000000  0.80634365
ZnIn2S4 bulk PBE-D3BJ relaxation        
           1
     3.873389    0.000000   -0.000000
    -1.936694    3.354453    0.000000
    -0.000000   -0.000000   24.737961
   In   Zn   S 
   4   2   8
Direct configuration=     8
   0.33333334  0.66666669  0.09634414
   0.66666663  0.33333331  0.59634413
   0.66666669  0.33333334  0.25591214
   0.33333331  0.66666663  0.75591214
  -0.00000000 -0.00000000  0.41160326
  -0.00000000  0.00000000  0.91160329
   0.66666669  0.33333334  0.43307266
   0.33333331  0.66666663  0.93307263
   0.00000000  0.00000000  0.05196403
   0.00000000 -0.00000000  0.55196403
   0.33333334  0.66666669  0.19445098
   0.66666663  0.33333331  0.69445098
  -0.00000000  0.00000000  0.30715276
   0.00000000 -0.00000000  0.80715276
ZnIn2S4 bulk PBE-D3BJ relaxation        
           1
     3.873030    0.000000   -0.000000
    -1.936515    3.354142    0.000000
    -0.000000   -0.000000   24.724487
   In   Zn   S 
   4   2   8
Direct configuration=     9
   0.33333334  0.66666669  0.09633846
   0.66666663  0.33333331  0.59633844
   0.66666669  0.33333334  0.25595937
   0.33333331  0.66666663  0.75595937
  -0.00000000 -0.00000000  0.41162762
  -0.00000000  0.00000000  0.91162765
   0.66666669  0.33333334  0.43304294
   0.33333331  0.66666663  0.93304291
   0.00000000  0.00000000  0.05191198
   0.00000000 -0.00000000  0.55191198
   0.33333334  0.66666669  0.19438360
   0.66666663  0.33333331  0.69438360
  -0.00000000  0.00000000  0.30723602
   0.00000000 -0.00000000  0.80723602
ZnIn2S4 bulk PBE-D3BJ relaxation        
           1
     3.875648    0.000000   -0.000000
    -1.937824    3.356410    0.000000
    -0.000000   -0.000000   24.678739
   In   Zn   S 
   4   2   8
Direct configuration=    10
   0.33333334  0.66666669  0.09562953
   0.66666663  0.33333331  0.59562952
   0.66666669  0.33333334  0.25658210
   0.33333331  0.66666663  0.75658210
  -0.00000000  0.00000000  0.41175066
  -0.00000000 -0.00000000  0.91175069
   0.66666669  0.33333334  0.43304677
   0.33333331  0.66666663  0.93304674
   0.00000000  0.00000000  0.05155121
  -0.00000000  0.00000000  0.55155121
   0.33333334  0.66666669  0.19428039
   0.66666663  0.33333331  0.69428039
  -0.00000000  0.00000000  0.30765931
   0.00000000 -0.00000000  0.80765931
ZnIn2S4 bulk PBE-D3BJ relaxation        
           1
     3.877491    0.000000   -0.000000
    -1.938745    3.358005    0.000000
    -0.000000   -0.000000   24.646548
   In   Zn   S 
   4   2   8
Direct configuration=    11
   0.33333334  0.66666669  0.09512977
   0.66666663  0.33333331  0.59512975
   0.66666669  0.33333334  0.25702110
   0.33333331  0.66666663  0.75702110
  -0.00000000  0.00000000  0.41183741
  -0.00000000 -0.00000000  0.91183744
   0.66666669  0.33333334  0.43304947
   0.33333331  0.66666663  0.93304944
   0.00000000  0.00000000  0.05129689
  -0.00000000  0.00000000  0.55129689
   0.33333334  0.66666669  0.19420764
   0.66666663  0.33333331  0.69420764
  -0.00000000  0.00000000  0.30795771
   0.00000000 -0.00000000  0.80795771
ZnIn2S4 bulk PBE-D3BJ relaxation        
           1
     3.883589    0.000000   -0.000000
    -1.941795    3.363287    0.000000
     0.000000   -0.000000   24.560334
   In   Zn   S 
   4   2   8
Direct configuration=    12
   0.33333334  0.66666669  0.09481298
   0.66666663  0.33333331  0.59481297
   0.66666669  0.33333334  0.25704055
   0.33333331  0.66666663  0.75704055
  -0.00000000  0.00000000  0.41192047
  -0.00000000 -0.00000000  0.91192050
   0.66666669  0.33333334  0.43330385
   0.33333331  0.66666663  0.93330382
   0.00000000  0.00000000  0.05082253
  -0.00000000  0.00000000  0.55082253
   0.33333334  0.66666669  0.19443648
   0.66666663  0.33333331  0.69443648
  -0.00000000  0.00000000  0.30816312
   0.00000000 -0.00000000  0.80816312
ZnIn2S4 bulk PBE-D3BJ relaxation        
           1
     3.889911    0.000000   -0.000000
    -1.944956    3.368762    0.000000
     0.000000   -0.000000   24.470954
   In   Zn   S 
   4   2   8
Direct configuration=    13
   0.33333334  0.66666669  0.09448341
   0.66666663  0.33333331  0.59448340
   0.66666669  0.33333334  0.25706078
   0.33333331  0.66666663  0.75706078
  -0.00000000  0.00000000  0.41200689
  -0.00000000 -0.00000000  0.91200692
   0.66666669  0.33333334  0.43356849
   0.33333331  0.66666663  0.93356846
   0.00000000  0.00000000  0.05032902
  -0.00000000  0.00000000  0.55032902
   0.33333334  0.66666669  0.19467456
   0.66666663  0.33333331  0.69467456
  -0.00000000  0.00000000  0.30837682
   0.00000000 -0.00000000  0.80837682
ZnIn2S4 bulk PBE-D3BJ relaxation        
           1
     3.885565   -0.000000   -0.000000
    -1.942783    3.364998    0.000000
     0.000000   -0.000000   24.379446
   In   Zn   S 
   4   2   8
Direct configuration=    14
   0.33333334  0.66666669  0.09421339
   0.66666663  0.33333331  0.59421338
   0.66666669  0.33333334  0.25706466
   0.33333331  0.66666663  0.75706466
  -0.00000000  0.00000000  0.41211907
  -0.00000000 -0.00000000  0.91211910
   0.66666669  0.33333334  0.43385649
   0.33333331  0.66666663  0.93385646
   0.00000000  0.00000000  0.05001526
  -0.00000000  0.00000000  0.55001526
   0.33333334  0.66666669  0.19477240
   0.66666663  0.33333331  0.69477240
  -0.00000000 -0.00000000  0.30845870
   0.00000000 -0.00000000  0.80845870
ZnIn2S4 bulk PBE-D3BJ relaxation        
           1
     3.885206   -0.000000   -0.000000
    -1.942603    3.364687    0.000000
     0.000000   -0.000000   24.371881
   In   Zn   S 
   4   2   8
Direct configuration=    15
   0.33333334  0.66666669  0.09419098
   0.66666663  0.33333331  0.59419097
   0.66666669  0.33333334  0.25706498
   0.33333331  0.66666663  0.75706498
  -0.00000000  0.00000000  0.41212838
  -0.00000000 -0.00000000  0.91212841
   0.66666669  0.33333334  0.43388040
   0.33333331  0.66666663  0.93388037
   0.00000000  0.00000000  0.04998923
  -0.00000000  0.00000000  0.54998923
   0.33333334  0.66666669  0.19478052
   0.66666663  0.33333331  0.69478052
  -0.00000000 -0.00000000  0.30846550
   0.00000000 -0.00000000  0.80846550
ZnIn2S4 bulk PBE-D3BJ relaxation        
           1
     3.884068   -0.000000   -0.000000
    -1.942034    3.363702    0.000000
     0.000000   -0.000000   24.374854
   In   Zn   S 
   4   2   8
Direct configuration=    16
   0.33333334  0.66666669  0.09410499
   0.66666663  0.33333331  0.59410498
   0.66666669  0.33333334  0.25706440
   0.33333331  0.66666663  0.75706440
  -0.00000000  0.00000000  0.41220040
  -0.00000000 -0.00000000  0.91220043
   0.66666669  0.33333334  0.43407176
   0.33333331  0.66666663  0.93407173
   0.00000000  0.00000000  0.04990504
  -0.00000000  0.00000000  0.54990504
   0.33333334  0.66666669  0.19466299
   0.66666663  0.33333331  0.69466299
  -0.00000000 -0.00000000  0.30849040
   0.00000000 -0.00000000  0.80849040
ZnIn2S4 bulk PBE-D3BJ relaxation        
           1
     3.880654   -0.000000   -0.000000
    -1.940327    3.360745    0.000000
    -0.000000    0.000000   24.383774
   In   Zn   S 
   4   2   8
Direct configuration=    17
   0.33333334  0.66666669  0.09384704
   0.66666663  0.33333331  0.59384703
   0.66666669  0.33333334  0.25706267
   0.33333331  0.66666663  0.75706267
  -0.00000000  0.00000000  0.41241645
   0.00000000 -0.00000000  0.91241648
   0.66666669  0.33333334  0.43464577
   0.33333331  0.66666663  0.93464574
   0.00000000  0.00000000  0.04965253
  -0.00000000  0.00000000  0.54965253
   0.33333334  0.66666669  0.19431043
   0.66666663  0.33333331  0.69431043
  -0.00000000 -0.00000000  0.30856508
   0.00000000 -0.00000000  0.80856508
ZnIn2S4 bulk PBE-D3BJ relaxation        
           1
     3.879203   -0.000000   -0.000000
    -1.939601    3.359488    0.000000
    -0.000000    0.000000   24.387566
   In   Zn   S 
   4   2   8
Direct configuration=    18
   0.33333334  0.66666669  0.09373743
   0.66666663  0.33333331  0.59373742
   0.66666669  0.33333334  0.25706194
   0.33333331  0.66666663  0.75706194
  -0.00000000  0.00000000  0.41250826
   0.00000000 -0.00000000  0.91250829
   0.66666669  0.33333334  0.43488969
   0.33333331  0.66666663  0.93488966
   0.00000000  0.00000000  0.04954523
  -0.00000000  0.00000000  0.54954523
   0.33333334  0.66666669  0.19416061
   0.66666663  0.33333331  0.69416061
  -0.00000000 -0.00000000  0.30859682
   0.00000000 -0.00000000  0.80859682
ZnIn2S4 bulk PBE-D3BJ relaxation        
           1
     3.882749   -0.000000   -0.000000
    -1.941374    3.362559    0.000000
    -0.000000    0.000000   24.403165
   In   Zn   S 
   4   2   8
Direct configuration=    19
   0.33333334  0.66666669  0.09359189
   0.66666663  0.33333331  0.59359187
   0.66666669  0.33333334  0.25683359
   0.33333331  0.66666663  0.75683359
  -0.00000000  0.00000000  0.41268742
   0.00000000 -0.00000000  0.91268745
   0.66666669  0.33333334  0.43517804
   0.33333331  0.66666663  0.93517801
   0.00000000  0.00000000  0.04941748
  -0.00000000  0.00000000  0.54941748
   0.33333334  0.66666669  0.19411789
   0.66666663  0.33333331  0.69411789
  -0.00000000 -0.00000000  0.30867366
   0.00000000 -0.00000000  0.80867366
ZnIn2S4 bulk PBE-D3BJ relaxation        
           1
     3.881650   -0.000000   -0.000000
    -1.940825    3.361607    0.000000
    -0.000000    0.000000   24.398331
   In   Zn   S 
   4   2   8
Direct configuration=    20
   0.33333334  0.66666669  0.09363696
   0.66666663  0.33333331  0.59363694
   0.66666669  0.33333334  0.25690431
   0.33333331  0.66666663  0.75690431
  -0.00000000  0.00000000  0.41263194
   0.00000000 -0.00000000  0.91263197
   0.66666669  0.33333334  0.43508875
   0.33333331  0.66666663  0.93508872
   0.00000000  0.00000000  0.04945704
  -0.00000000  0.00000000  0.54945704
   0.33333334  0.66666669  0.19413112
   0.66666663  0.33333331  0.69413112
  -0.00000000 -0.00000000  0.30864987
   0.00000000 -0.00000000  0.80864987
ZnIn2S4 bulk PBE-D3BJ relaxation        
           1
     3.880894   -0.000000   -0.000000
    -1.940447    3.360953    0.000000
    -0.000000    0.000000   24.368865
   In   Zn   S 
   4   2   8
Direct configuration=    21
   0.33333334  0.66666669  0.09353300
   0.66666663  0.33333331  0.59353299
   0.66666669  0.33333334  0.25669933
   0.33333331  0.66666663  0.75669933
  -0.00000000  0.00000000  0.41279931
   0.00000000 -0.00000000  0.91279934
   0.66666669  0.33333334  0.43524865
   0.33333331  0.66666663  0.93524862
   0.00000000  0.00000000  0.04942422
  -0.00000000  0.00000000  0.54942422
   0.33333334  0.66666669  0.19415703
   0.66666663  0.33333331  0.69415703
  -0.00000000 -0.00000000  0.30863844
   0.00000000 -0.00000000  0.80863844
ZnIn2S4 bulk PBE-D3BJ relaxation        
           1
     3.880973   -0.000000   -0.000000
    -1.940486    3.361021    0.000000
    -0.000000    0.000000   24.371941
   In   Zn   S 
   4   2   8
Direct configuration=    22
   0.33333334  0.66666669  0.09354387
   0.66666663  0.33333331  0.59354385
   0.66666669  0.33333334  0.25672075
   0.33333331  0.66666663  0.75672075
  -0.00000000  0.00000000  0.41278182
   0.00000000 -0.00000000  0.91278185
   0.66666669  0.33333334  0.43523194
   0.33333331  0.66666663  0.93523191
   0.00000000  0.00000000  0.04942765
  -0.00000000  0.00000000  0.54942765
   0.33333334  0.66666669  0.19415432
   0.66666663  0.33333331  0.69415432
  -0.00000000 -0.00000000  0.30863963
   0.00000000 -0.00000000  0.80863963
ZnIn2S4 bulk PBE-D3BJ relaxation        
           1
     3.881904   -0.000000   -0.000000
    -1.940952    3.361828    0.000000
    -0.000000    0.000000   24.354597
   In   Zn   S 
   4   2   8
Direct configuration=    23
   0.33333334  0.66666669  0.09352402
   0.66666663  0.33333331  0.59352400
   0.66666669  0.33333334  0.25673810
   0.33333331  0.66666663  0.75673810
  -0.00000000  0.00000000  0.41284150
   0.00000000 -0.00000000  0.91284153
   0.66666669  0.33333334  0.43527415
   0.33333331  0.66666663  0.93527412
   0.00000000  0.00000000  0.04942620
  -0.00000000  0.00000000  0.54942620
   0.33333334  0.66666669  0.19411871
   0.66666663  0.33333331  0.69411871
  -0.00000000 -0.00000000  0.30857731
   0.00000000 -0.00000000  0.80857731
ZnIn2S4 bulk PBE-D3BJ relaxation        
           1
     3.882064   -0.000000   -0.000000
    -1.941032    3.361966    0.000000
    -0.000000    0.000000   24.351614
   In   Zn   S 
   4   2   8
Direct configuration=    24
   0.33333334  0.66666669  0.09352060
   0.66666663  0.33333331  0.59352059
   0.66666669  0.33333334  0.25674109
   0.33333331  0.66666663  0.75674109
  -0.00000000  0.00000000  0.41285177
   0.00000000 -0.00000000  0.91285180
   0.66666669  0.33333334  0.43528142
   0.33333331  0.66666663  0.93528139
   0.00000000  0.00000000  0.04942594
  -0.00000000  0.00000000  0.54942594
   0.33333334  0.66666669  0.19411258
   0.66666663  0.33333331  0.69411258
  -0.00000000 -0.00000000  0.30856658
   0.00000000 -0.00000000  0.80856658
ZnIn2S4 bulk PBE-D3BJ relaxation        
           1
     3.883347   -0.000000   -0.000000
    -1.941673    3.363077    0.000000
    -0.000000    0.000000   24.351774
   In   Zn   S 
   4   2   8
Direct configuration=    25
   0.33333334  0.66666669  0.09346173
   0.66666663  0.33333331  0.59346172
   0.66666669  0.33333334  0.25675253
   0.33333331  0.66666663  0.75675253
  -0.00000000  0.00000000  0.41290129
   0.00000000 -0.00000000  0.91290132
   0.66666669  0.33333334  0.43529967
   0.33333331  0.66666663  0.93529964
   0.00000000  0.00000000  0.04942583
  -0.00000000  0.00000000  0.54942583
   0.33333334  0.66666669  0.19411541
   0.66666663  0.33333331  0.69411541
  -0.00000000 -0.00000000  0.30854351
   0.00000000 -0.00000000  0.80854351
