       N       E                     dE             d eps       ncg     rms          rms(c)
DAV:   1     0.585317912961E+03    0.58532E+03   -0.27715E+04 28848   0.176E+03
DAV:   2     0.608617360340E+02   -0.52446E+03   -0.50369E+03 29016   0.458E+02
DAV:   3    -0.203081336307E+02   -0.81170E+02   -0.78219E+02 35432   0.175E+02
DAV:   4    -0.250275984280E+02   -0.47195E+01   -0.46830E+01 34696   0.425E+01
DAV:   5    -0.252296042946E+02   -0.20201E+00   -0.20192E+00 42000   0.927E+00
DAV:   6    -0.252340719333E+02   -0.44676E-02   -0.44673E-02 42192   0.115E+00
DAV:   7    -0.252342165132E+02   -0.14458E-03   -0.14458E-03 43664   0.209E-01
DAV:   8    -0.252342197619E+02   -0.32487E-05   -0.32485E-05 42776   0.313E-02
DAV:   9    -0.252342198770E+02   -0.11511E-06   -0.11547E-06 41384   0.601E-03
DAV:  10    -0.252342198802E+02   -0.32123E-08   -0.28007E-08 23440   0.115E-03
   1 F= -.27350468E+02 E0= -.27350468E+02  d E =-.305380E-06
