WP2-P02-beta001-thickness-6L-relax-500-k10
1.0
   3.8782842923155867    0.0000000000000000    0.0000000000000000
  -1.9391421461577933    3.3586927202930394    0.0000000000000000
   0.0000000000000000   -0.0000000000000000   90.1620238765702595
S In Zn S In Zn S In Zn S In Zn S In Zn S In Zn
4 2 1 4 2 1 4 2 1 4 2 1 4 2 1 4 2 1
direct
   0.0000000000000000    0.0000000000000000    0.1109114410928682 S
   0.6666666570000004    0.3333333129999971    0.1501488585410092 S
   0.0000000000000000    0.0000000000000000    0.1810989713318729 S
   0.3333333129999971    0.6666666570000004    0.2153884459911964 S
   0.6666666570000004    0.3333333129999971    0.1229650249313272 In
   0.3333333129999971    0.6666666570000004    0.1670648063270883 In
   0.0000000000000000    0.0000000000000000    0.2092402637378052 Zn
   0.0000000000000000    0.0000000000000000    0.2456514636760553 S
   0.6666666570000004    0.3333333129999971    0.2848888811241963 S
   0.0000000000000000    0.0000000000000000    0.3158389939150600 S
   0.3333333129999971    0.6666666570000004    0.3501284685743835 S
   0.6666666570000004    0.3333333129999971    0.2577050475145143 In
   0.3333333129999971    0.6666666570000004    0.3018048289102754 In
   0.0000000000000000    0.0000000000000000    0.3439802863209923 Zn
   0.0000000000000000    0.0000000000000000    0.3803914862592424 S
   0.6666666570000004    0.3333333129999971    0.4196289037073834 S
   0.0000000000000000    0.0000000000000000    0.4505790164982472 S
   0.3333333129999971    0.6666666570000004    0.4848684911575705 S
   0.6666666570000004    0.3333333129999971    0.3924450700977014 In
   0.3333333129999971    0.6666666570000004    0.4365448514934626 In
   0.0000000000000000    0.0000000000000000    0.4787203089041794 Zn
   0.0000000000000000    0.0000000000000000    0.5151315088424295 S
   0.6666666570000004    0.3333333129999971    0.5543689262905706 S
   0.0000000000000000    0.0000000000000000    0.5853190390814342 S
   0.3333333129999971    0.6666666570000004    0.6196085137407576 S
   0.6666666570000004    0.3333333129999971    0.5271850926808884 In
   0.3333333129999971    0.6666666570000004    0.5712848740766496 In
   0.0000000000000000    0.0000000000000000    0.6134603314873666 Zn
   0.0000000000000000    0.0000000000000000    0.6498715314256166 S
   0.6666666570000004    0.3333333129999971    0.6891089488737576 S
   0.0000000000000000    0.0000000000000000    0.7200590616646213 S
   0.3333333129999971    0.6666666570000004    0.7543485363239448 S
   0.6666666570000004    0.3333333129999971    0.6619251152640755 In
   0.3333333129999971    0.6666666570000004    0.7060248966598367 In
   0.0000000000000000    0.0000000000000000    0.7482003540705535 Zn
   0.0000000000000000    0.0000000000000000    0.7846115540088038 S
   0.6666666570000004    0.3333333129999971    0.8238489714569448 S
   0.0000000000000000    0.0000000000000000    0.8547990842478085 S
   0.3333333129999971    0.6666666570000004    0.8890885589071318 S
   0.6666666570000004    0.3333333129999971    0.7966651378472627 In
   0.3333333129999971    0.6666666570000004    0.8407649192430238 In
   0.0000000000000000    0.0000000000000000    0.8829403766537406 Zn
