       N       E                     dE             d eps       ncg     rms          rms(c)
DAV:   1     0.585880112055E+03    0.58588E+03   -0.27462E+04  5520   0.175E+03
DAV:   2     0.582284466153E+02   -0.52765E+03   -0.50539E+03  5568   0.448E+02
DAV:   3    -0.235412295343E+02   -0.81770E+02   -0.79636E+02  6792   0.175E+02
DAV:   4    -0.282083756710E+02   -0.46671E+01   -0.46423E+01  6736   0.421E+01
DAV:   5    -0.284060450939E+02   -0.19767E+00   -0.19760E+00  8288   0.917E+00    0.133E+01
DAV:   6    -0.266581560061E+02    0.17479E+01   -0.30522E+00  8792   0.391E+01    0.967E+00
DAV:   7    -0.266760395034E+02   -0.17883E-01   -0.28733E+00  7776   0.115E+01    0.301E+00
DAV:   8    -0.266363950968E+02    0.39644E-01   -0.37614E-01  7808   0.535E+00    0.203E+00
DAV:   9    -0.266390196983E+02   -0.26246E-02   -0.45148E-02  6976   0.104E+00    0.859E-01
DAV:  10    -0.266384191806E+02    0.60052E-03   -0.59284E-03  7648   0.857E-01    0.603E-01
DAV:  11    -0.266387960393E+02   -0.37686E-03   -0.19984E-03  6696   0.244E-01    0.160E-01
DAV:  12    -0.266387550282E+02    0.41011E-04   -0.34452E-04  8040   0.146E-01    0.115E-01
DAV:  13    -0.266387623819E+02   -0.73537E-05   -0.63307E-05  6560   0.446E-02    0.460E-02
DAV:  14    -0.266387639319E+02   -0.15500E-05   -0.17655E-05  7064   0.305E-02    0.127E-02
DAV:  15    -0.266387642813E+02   -0.34944E-06   -0.32915E-06  8744   0.127E-02    0.774E-03
DAV:  16    -0.266387642360E+02    0.45264E-07   -0.57183E-07  6008   0.417E-03
   1 F= -.28755013E+02 E0= -.28755013E+02  d E =0.000000E+00
