 vasp.5.4.4.18Apr17-6-g9f103f2a35 (build Feb 10 2022 16:34:21) complex          
  
 executed on         VASP-optcell date 2026.09.04  11:27:54
 running on    8 total cores
 distrk:  each k-point on    8 cores,    1 groups
 distr:  one band on NCORES_PER_BAND=   1 cores,    8 groups


--------------------------------------------------------------------------------------------------------


 INCAR:
 POTCAR:    PAW_PBE In_d 06Sep2000                
 POTCAR:    PAW_PBE S 06Sep2000                   
 POTCAR:    PAW_PBE Zn 06Sep2000                  

 ----------------------------------------------------------------------------- 
|                                                                             |
|           W    W    AA    RRRRR   N    N  II  N    N   GGGG   !!!           |
|           W    W   A  A   R    R  NN   N  II  NN   N  G    G  !!!           |
|           W    W  A    A  R    R  N N  N  II  N N  N  G       !!!           |
|           W WW W  AAAAAA  RRRRR   N  N N  II  N  N N  G  GGG   !            |
|           WW  WW  A    A  R   R   N   NN  II  N   NN  G    G                |
|           W    W  A    A  R    R  N    N  II  N    N   GGGG   !!!           |
|                                                                             |
|      For optimal performance we recommend to set                            |
|        NCORE= 4 - approx SQRT( number of cores)                             |
|      NCORE specifies how many cores store one orbital (NPAR=cpu/NCORE).     |
|      This setting can  greatly improve the performance of VASP for DFT.     |
|      The default,   NCORE=1            might be grossly inefficient         |
|      on modern multi-core architectures or massively parallel machines.     |
|      Do your own testing !!!!                                               |
|      Unfortunately you need to use the default for GW and RPA calculations. |
|      (for HF NCORE is supported but not extensively tested yet)             |
|                                                                             |
 ----------------------------------------------------------------------------- 

 POTCAR:    PAW_PBE In_d 06Sep2000                
   VRHFIN =In: s2p1                                                             
   LEXCH  = PE                                                                  
   EATOM  =  1576.8302 eV,  115.8937 Ry                                         
                                                                                
   TITEL  = PAW_PBE In_d 06Sep2000                                              
   LULTRA =        F    use ultrasoft PP ?                                      
   IUNSCR =        1    unscreen: 0-lin 1-nonlin 2-no                           
   RPACOR =    2.200    partial core radius                                     
   POMASS =  114.820; ZVAL   =   13.000    mass and valenz                      
   RCORE  =    2.500    outmost cutoff radius                                   
   RWIGS  =    3.170; RWIGS  =    1.677    wigner-seitz radius (au A)           
   ENMAX  =  239.211; ENMIN  =  179.409 eV                                      
   ICORE  =        3    local potential                                         
   LCOR   =        T    correct aug charges                                     
   LPAW   =        T    paw PP                                                  
   EAUG   =  449.704                                                            
   DEXC   =    0.000                                                            
   RMAX   =    2.552    core radius for proj-oper                               
   RAUG   =    1.300    factor for augmentation sphere                          
   RDEP   =    2.630    radius for radial grids                                 
   RDEPT  =    2.033    core radius for aug-charge                              
                                                                                
   Atomic configuration                                                         
   12 entries                                                                   
     n  l   j            E        occ.                                          
     1  0  0.50    -27747.9169   2.0000                                         
     2  0  0.50     -4154.4438   2.0000                                         
     2  1  1.50     -3728.4305   6.0000                                         
     3  0  0.50      -788.3680   2.0000                                         
     3  1  1.50      -648.9215   6.0000                                         
     3  2  2.50      -432.5893  10.0000                                         
     4  0  0.50      -119.6363   2.0000                                         
     4  1  1.50       -78.1086   6.0000                                         
     4  2  2.50       -18.6227  10.0000                                         
     5  0  0.50        -8.2107   2.0000                                         
     5  1  0.50        -2.5185   1.0000                                         
     4  3  2.50        -2.7212   0.0000                                         
   Description                                                                  
     l       E           TYP  RCUT    TYP  RCUT                                 
     2    -18.6226981     23  2.500                                             
     2     -1.3605826     23  2.500                                             
     0     -8.2107305     23  2.500                                             
     0     -6.1485975     23  2.500                                             
     1     -2.5184867     23  2.500                                             
     1      3.2427302     23  2.500                                             
     3     -1.3605826      7  2.500                                             
  local pseudopotential read in
  partial core-charges read in
  partial kinetic energy density read in
  atomic valenz-charges read in
  non local Contribution for L=           2  read in
    real space projection operators read in
  non local Contribution for L=           2  read in
    real space projection operators read in
  non local Contribution for L=           0  read in
    real space projection operators read in
  non local Contribution for L=           0  read in
    real space projection operators read in
  non local Contribution for L=           1  read in
    real space projection operators read in
  non local Contribution for L=           1  read in
    real space projection operators read in
    PAW grid and wavefunctions read in
 
   number of l-projection  operators is LMAX  =           6
   number of lm-projection operators is LMMAX =          18
 
 POTCAR:    PAW_PBE S 06Sep2000                   
   VRHFIN =S : s2p4                                                             
   LEXCH  = PE                                                                  
   EATOM  =   276.8230 eV,   20.3459 Ry                                         
                                                                                
   TITEL  = PAW_PBE S 06Sep2000                                                 
   LULTRA =        F    use ultrasoft PP ?                                      
   IUNSCR =        1    unscreen: 0-lin 1-nonlin 2-no                           
   RPACOR =    1.500    partial core radius                                     
   POMASS =   32.066; ZVAL   =    6.000    mass and valenz                      
   RCORE  =    1.900    outmost cutoff radius                                   
   RWIGS  =    2.200; RWIGS  =    1.164    wigner-seitz radius (au A)           
   ENMAX  =  258.689; ENMIN  =  194.016 eV                                      
   ICORE  =        2    local potential                                         
   LCOR   =        T    correct aug charges                                     
   LPAW   =        T    paw PP                                                  
   EAUG   =  335.092                                                            
   DEXC   =    0.000                                                            
   RMAX   =    1.942    core radius for proj-oper                               
   RAUG   =    1.300    factor for augmentation sphere                          
   RDEP   =    1.954    radius for radial grids                                 
   RDEPT  =    1.744    core radius for aug-charge                              
                                                                                
   Atomic configuration                                                         
    6 entries                                                                   
     n  l   j            E        occ.                                          
     1  0  0.50     -2405.8406   2.0000                                         
     2  0  0.50      -211.7007   2.0000                                         
     2  1  1.50      -156.4958   6.0000                                         
     3  0  0.50       -17.2562   2.0000                                         
     3  1  0.50        -7.0085   4.0000                                         
     3  2  1.50        -6.8029   0.0000                                         
   Description                                                                  
     l       E           TYP  RCUT    TYP  RCUT                                 
     0    -17.2561641     23  1.900                                             
     0    -15.8743224     23  1.900                                             
     1     -7.0085400     23  1.900                                             
     1     -2.7779785     23  1.900                                             
     2     -6.8029130     23  1.900                                             
  local pseudopotential read in
  partial core-charges read in
  partial kinetic energy density read in
  atomic valenz-charges read in
  non local Contribution for L=           0  read in
    real space projection operators read in
  non local Contribution for L=           0  read in
    real space projection operators read in
  non local Contribution for L=           1  read in
    real space projection operators read in
  non local Contribution for L=           1  read in
    real space projection operators read in
    PAW grid and wavefunctions read in
 
   number of l-projection  operators is LMAX  =           4
   number of lm-projection operators is LMMAX =           8
 
 POTCAR:    PAW_PBE Zn 06Sep2000                  
   VRHFIN =Zn: d10 p2                                                           
   LEXCH  = PE                                                                  
   EATOM  =  1748.8345 eV,  128.5357 Ry                                         
                                                                                
   TITEL  = PAW_PBE Zn 06Sep2000                                                
   LULTRA =        F    use ultrasoft PP ?                                      
   IUNSCR =        1    unscreen: 0-lin 1-nonlin 2-no                           
   RPACOR =    2.000    partial core radius                                     
   POMASS =   65.390; ZVAL   =   12.000    mass and valenz                      
   RCORE  =    2.300    outmost cutoff radius                                   
   RWIGS  =    2.400; RWIGS  =    1.270    wigner-seitz radius (au A)           
   ENMAX  =  276.723; ENMIN  =  207.542 eV                                      
   RCLOC  =    1.828    cutoff for local pot                                    
   LCOR   =        T    correct aug charges                                     
   LPAW   =        T    paw PP                                                  
   EAUG   =  575.892                                                            
   DEXC   =    0.000                                                            
   RMAX   =    2.347    core radius for proj-oper                               
   RAUG   =    1.300    factor for augmentation sphere                          
   RDEP   =    2.324    radius for radial grids                                 
   RDEPT  =    1.788    core radius for aug-charge                              
                                                                                
   Atomic configuration                                                         
    9 entries                                                                   
     n  l   j            E        occ.                                          
     1  0  0.50     -9524.6913   2.0000                                         
     2  0  0.50     -1158.1882   2.0000                                         
     2  1  1.50     -1003.8506   6.0000                                         
     3  0  0.50      -129.2194   2.0000                                         
     3  1  1.50       -83.3890   6.0000                                         
     3  2  2.50       -10.1410  10.0000                                         
     4  0  0.50        -5.9785   2.0000                                         
     4  1  0.50        -4.0817   0.0000                                         
     4  3  2.50        -1.3606   0.0000                                         
   Description                                                                  
     l       E           TYP  RCUT    TYP  RCUT                                 
     2    -10.1410010     23  2.300                                             
     2    -11.5015836     23  2.300                                             
     0     -5.9785163     23  2.300                                             
     0      1.1858015     23  2.300                                             
     1     -2.7211652     23  2.300                                             
     1     13.2444212     23  2.300                                             
  local pseudopotential read in
  partial core-charges read in
  partial kinetic energy density read in
  atomic valenz-charges read in
  non local Contribution for L=           2  read in
    real space projection operators read in
  non local Contribution for L=           2  read in
    real space projection operators read in
  non local Contribution for L=           0  read in
    real space projection operators read in
  non local Contribution for L=           0  read in
    real space projection operators read in
  non local Contribution for L=           1  read in
    real space projection operators read in
  non local Contribution for L=           1  read in
    real space projection operators read in
    PAW grid and wavefunctions read in
 
   number of l-projection  operators is LMAX  =           6
   number of lm-projection operators is LMMAX =          18
 
  PAW_PBE In_d 06Sep2000                :
 energy of atom  1       EATOM=-1576.8302
 kinetic energy error for atom=    0.0036 (will be added to EATOM!!)
  PAW_PBE S 06Sep2000                   :
 energy of atom  2       EATOM= -276.8230
 kinetic energy error for atom=    0.0020 (will be added to EATOM!!)
  PAW_PBE Zn 06Sep2000                  :
 energy of atom  3       EATOM=-1748.8345
 kinetic energy error for atom=    0.0029 (will be added to EATOM!!)
 
 
 POSCAR: In2 S4 Zn                               
  positions in direct lattice
  velocities in cartesian coordinates
 exchange correlation table for  LEXCH =        8
   RHO(1)=    0.500       N(1)  =     2000
   RHO(2)=  100.500       N(2)  =     4000
 


--------------------------------------------------------------------------------------------------------


 ion  position               nearest neighbor table
   1  0.000  0.000  0.270-  10 2.55  10 2.55  10 2.55   5 2.76   5 2.76   5 2.76
   2  0.000  0.000  0.730-   9 2.55   9 2.55   9 2.55   6 2.76   6 2.76   6 2.76
   3  0.333  0.667  0.106-   5 2.39   8 2.52   8 2.52   8 2.52
   4  0.667  0.333  0.894-   6 2.39   7 2.52   7 2.52   7 2.52
   5  0.333  0.667  0.204-   3 2.39   1 2.76   1 2.76   1 2.76
   6  0.667  0.333  0.796-   4 2.39   2 2.76   2 2.76   2 2.76
   7  0.333  0.667  0.940-   4 2.52   4 2.52   4 2.52
   8  0.667  0.333  0.060-   3 2.52   3 2.52   3 2.52
   9  0.333  0.667  0.681-   2 2.55   2 2.55   2 2.55
  10  0.667  0.333  0.319-   1 2.55   1 2.55   1 2.55
  11  0.333  0.667  0.437-  14 2.31  14 2.31  14 2.31  13 2.57
  12  0.667  0.333  0.563-  13 2.31  13 2.31  13 2.31  14 2.57
  13  0.333  0.667  0.542-  12 2.31  12 2.31  12 2.31  11 2.57  14 3.04  14 3.04  14 3.04
  14  0.667  0.333  0.458-  11 2.31  11 2.31  11 2.31  12 2.57  13 3.04  13 3.04  13 3.04
 
  LATTYP: Found a hexagonal cell.
 ALAT       =     3.8896490697
 C/A-ratio  =     6.3143482824
  
  Lattice vectors:
  
 A1 = (   3.8896490696,   0.0000000000,  -0.0000000000)
 A2 = (  -1.9448245348,   3.3685349062,   0.0000000000)
 A3 = (  -0.0000000000,  -0.0000000000,  24.5605989225)


Analysis of symmetry for initial positions (statically):
=====================================================================
 Subroutine PRICEL returns:
 Original cell was already a primitive cell.
 

 Routine SETGRP: Setting up the symmetry group for a 
 hexagonal supercell.


 Subroutine GETGRP returns: Found 12 space group operations
 (whereof 12 operations were pure point group operations)
 out of a pool of 24 trial point group operations.


The static configuration has the point symmetry D_3d.


Analysis of symmetry for dynamics (positions and initial velocities):
=====================================================================
 Subroutine PRICEL returns:
 Original cell was already a primitive cell.
 

 Routine SETGRP: Setting up the symmetry group for a 
 hexagonal supercell.


 Subroutine GETGRP returns: Found 12 space group operations
 (whereof 12 operations were pure point group operations)
 out of a pool of 24 trial point group operations.


The dynamic configuration has the point symmetry D_3d.


 Subroutine INISYM returns: Found 12 space group operations
 (whereof 12 operations are pure point group operations),
 and found     1 'primitive' translations

 
 
 KPOINTS: DOS / PDOS                              

Automatic generation of k-mesh.
Space group operators:
 irot       det(A)        alpha          n_x          n_y          n_z        tau_x        tau_y        tau_z
    1     1.000000     0.000000     1.000000     0.000000     0.000000     0.000000     0.000000     0.000000
    2    -1.000000     0.000000     1.000000     0.000000     0.000000     0.000000     0.000000     0.000000
    3     1.000000   120.000000     0.000000     0.000000    -1.000000     0.000000     0.000000     0.000000
    4    -1.000000   120.000000     0.000000     0.000000    -1.000000     0.000000     0.000000     0.000000
    5     1.000000   120.000000    -0.000000     0.000000     1.000000     0.000000     0.000000     0.000000
    6    -1.000000   120.000000    -0.000000     0.000000     1.000000     0.000000     0.000000     0.000000
    7     1.000000   180.000000     1.000000     0.000000     0.000000     0.000000     0.000000     0.000000
    8    -1.000000   180.000000     1.000000     0.000000     0.000000     0.000000     0.000000     0.000000
    9     1.000000   179.999999    -0.500000     0.866025    -0.000000     0.000000     0.000000     0.000000
   10    -1.000000   179.999999    -0.500000     0.866025    -0.000000     0.000000     0.000000     0.000000
   11     1.000000   180.000000     0.500000     0.866025     0.000000     0.000000     0.000000     0.000000
   12    -1.000000   180.000000     0.500000     0.866025     0.000000     0.000000     0.000000     0.000000
 
 Subroutine IBZKPT returns following result:
 ===========================================
 
 Found    202 irreducible k-points:
 
 Following reciprocal coordinates:
            Coordinates               Weight
  0.000000  0.000000  0.000000      1.000000
  0.055556 -0.000000 -0.000000      6.000000
  0.111111 -0.000000 -0.000000      6.000000
  0.166667  0.000000 -0.000000      6.000000
  0.222222 -0.000000 -0.000000      6.000000
  0.277778  0.000000  0.000000      6.000000
  0.333333 -0.000000  0.000000      6.000000
  0.388889  0.000000 -0.000000      6.000000
  0.444444 -0.000000 -0.000000      6.000000
  0.500000  0.000000  0.000000      3.000000
  0.055556  0.055556 -0.000000      6.000000
  0.111111  0.055556  0.000000     12.000000
  0.166667  0.055556  0.000000     12.000000
  0.222222  0.055556  0.000000     12.000000
  0.277778  0.055556  0.000000     12.000000
  0.333333  0.055556 -0.000000     12.000000
  0.388889  0.055556 -0.000000     12.000000
  0.444444  0.055556 -0.000000     12.000000
  0.111111  0.111111 -0.000000      6.000000
  0.166667  0.111111 -0.000000     12.000000
  0.222222  0.111111 -0.000000     12.000000
  0.277778  0.111111 -0.000000     12.000000
  0.333333  0.111111 -0.000000     12.000000
  0.388889  0.111111  0.000000     12.000000
  0.444444  0.111111  0.000000      6.000000
  0.166667  0.166667 -0.000000      6.000000
  0.222222  0.166667 -0.000000     12.000000
  0.277778  0.166667 -0.000000     12.000000
  0.333333  0.166667 -0.000000     12.000000
  0.388889  0.166667 -0.000000     12.000000
  0.222222  0.222222 -0.000000      6.000000
  0.277778  0.222222 -0.000000     12.000000
  0.333333  0.222222  0.000000     12.000000
  0.388889  0.222222  0.000000      6.000000
  0.277778  0.277778 -0.000000      6.000000
  0.333333  0.277778 -0.000000     12.000000
  0.333333  0.333333 -0.000000      2.000000
 -0.000000 -0.000000  0.166667      2.000000
  0.055556  0.000000  0.166667      6.000000
  0.111111  0.000000  0.166667      6.000000
  0.166667  0.000000  0.166667      6.000000
  0.222222 -0.000000  0.166667      6.000000
  0.277778  0.000000  0.166667      6.000000
  0.333333 -0.000000  0.166667      6.000000
  0.388889  0.000000  0.166667      6.000000
  0.444444 -0.000000  0.166667      6.000000
  0.500000  0.000000  0.166667      6.000000
 -0.444444  0.000000  0.166667      6.000000
 -0.388889  0.000000  0.166667      6.000000
 -0.333333  0.000000  0.166667      6.000000
 -0.277778  0.000000  0.166667      6.000000
 -0.222222  0.000000  0.166667      6.000000
 -0.166667 -0.000000  0.166667      6.000000
 -0.111111  0.000000  0.166667      6.000000
 -0.055556  0.000000  0.166667      6.000000
  0.055556  0.055556  0.166667     12.000000
  0.111111  0.055556  0.166667     12.000000
  0.166667  0.055556  0.166667     12.000000
  0.222222  0.055556  0.166667     12.000000
  0.277778  0.055556  0.166667     12.000000
  0.333333  0.055556  0.166667     12.000000
  0.388889  0.055556  0.166667     12.000000
  0.444444  0.055556  0.166667     12.000000
  0.500000  0.055556  0.166667     12.000000
 -0.444444  0.055556  0.166667     12.000000
 -0.388889  0.055556  0.166667     12.000000
 -0.333333  0.055556  0.166667     12.000000
 -0.277778  0.055556  0.166667     12.000000
 -0.222222  0.055556  0.166667     12.000000
 -0.166667  0.055556  0.166667     12.000000
  0.111111  0.111111  0.166667     12.000000
  0.166667  0.111111  0.166667     12.000000
  0.222222  0.111111  0.166667     12.000000
  0.277778  0.111111  0.166667     12.000000
  0.333333  0.111111  0.166667     12.000000
  0.388889  0.111111  0.166667     12.000000
  0.444444  0.111111  0.166667     12.000000
  0.500000  0.111111  0.166667     12.000000
 -0.444444  0.111111  0.166667     12.000000
 -0.388889  0.111111  0.166667     12.000000
 -0.333333  0.111111  0.166667     12.000000
 -0.277778  0.111111  0.166667     12.000000
  0.166667  0.166667  0.166667     12.000000
  0.222222  0.166667  0.166667     12.000000
  0.277778  0.166667  0.166667     12.000000
  0.333333  0.166667  0.166667     12.000000
  0.388889  0.166667  0.166667     12.000000
  0.444444  0.166667  0.166667     12.000000
  0.500000  0.166667  0.166667     12.000000
 -0.444444  0.166667  0.166667     12.000000
 -0.388889  0.166667  0.166667     12.000000
  0.222222  0.222222  0.166667     12.000000
  0.277778  0.222222  0.166667     12.000000
  0.333333  0.222222  0.166667     12.000000
  0.388889  0.222222  0.166667     12.000000
  0.444444  0.222222  0.166667     12.000000
  0.500000  0.222222  0.166667     12.000000
  0.277778  0.277778  0.166667     12.000000
  0.333333  0.277778  0.166667     12.000000
  0.388889  0.277778  0.166667     12.000000
  0.333333  0.333333  0.166667      4.000000
  0.000000  0.000000  0.333333      2.000000
  0.055556  0.000000  0.333333      6.000000
  0.111111  0.000000  0.333333      6.000000
  0.166667  0.000000  0.333333      6.000000
  0.222222 -0.000000  0.333333      6.000000
  0.277778  0.000000  0.333333      6.000000
  0.333333 -0.000000  0.333333      6.000000
  0.388889  0.000000  0.333333      6.000000
  0.444444 -0.000000  0.333333      6.000000
  0.500000  0.000000  0.333333      6.000000
 -0.444444  0.000000  0.333333      6.000000
 -0.388889  0.000000  0.333333      6.000000
 -0.333333  0.000000  0.333333      6.000000
 -0.277778  0.000000  0.333333      6.000000
 -0.222222  0.000000  0.333333      6.000000
 -0.166667 -0.000000  0.333333      6.000000
 -0.111111  0.000000  0.333333      6.000000
 -0.055556  0.000000  0.333333      6.000000
  0.055556  0.055556  0.333333     12.000000
  0.111111  0.055556  0.333333     12.000000
  0.166667  0.055556  0.333333     12.000000
  0.222222  0.055556  0.333333     12.000000
  0.277778  0.055556  0.333333     12.000000
  0.333333  0.055556  0.333333     12.000000
  0.388889  0.055556  0.333333     12.000000
  0.444444  0.055556  0.333333     12.000000
  0.500000  0.055556  0.333333     12.000000
 -0.444444  0.055556  0.333333     12.000000
 -0.388889  0.055556  0.333333     12.000000
 -0.333333  0.055556  0.333333     12.000000
 -0.277778  0.055556  0.333333     12.000000
 -0.222222  0.055556  0.333333     12.000000
 -0.166667  0.055556  0.333333     12.000000
  0.111111  0.111111  0.333333     12.000000
  0.166667  0.111111  0.333333     12.000000
  0.222222  0.111111  0.333333     12.000000
  0.277778  0.111111  0.333333     12.000000
  0.333333  0.111111  0.333333     12.000000
  0.388889  0.111111  0.333333     12.000000
  0.444444  0.111111  0.333333     12.000000
  0.500000  0.111111  0.333333     12.000000
 -0.444444  0.111111  0.333333     12.000000
 -0.388889  0.111111  0.333333     12.000000
 -0.333333  0.111111  0.333333     12.000000
 -0.277778  0.111111  0.333333     12.000000
  0.166667  0.166667  0.333333     12.000000
  0.222222  0.166667  0.333333     12.000000
  0.277778  0.166667  0.333333     12.000000
  0.333333  0.166667  0.333333     12.000000
  0.388889  0.166667  0.333333     12.000000
  0.444444  0.166667  0.333333     12.000000
  0.500000  0.166667  0.333333     12.000000
 -0.444444  0.166667  0.333333     12.000000
 -0.388889  0.166667  0.333333     12.000000
  0.222222  0.222222  0.333333     12.000000
  0.277778  0.222222  0.333333     12.000000
  0.333333  0.222222  0.333333     12.000000
  0.388889  0.222222  0.333333     12.000000
  0.444444  0.222222  0.333333     12.000000
  0.500000  0.222222  0.333333     12.000000
  0.277778  0.277778  0.333333     12.000000
  0.333333  0.277778  0.333333     12.000000
  0.388889  0.277778  0.333333     12.000000
  0.333333  0.333333  0.333333      4.000000
 -0.000000 -0.000000  0.500000      1.000000
  0.055556 -0.000000  0.500000      6.000000
  0.111111  0.000000  0.500000      6.000000
  0.166667  0.000000  0.500000      6.000000
  0.222222 -0.000000  0.500000      6.000000
  0.277778  0.000000  0.500000      6.000000
  0.333333 -0.000000  0.500000      6.000000
  0.388889  0.000000  0.500000      6.000000
  0.444444 -0.000000  0.500000      6.000000
  0.500000  0.000000  0.500000      3.000000
  0.055556  0.055556  0.500000      6.000000
  0.111111  0.055556  0.500000     12.000000
  0.166667  0.055556  0.500000     12.000000
  0.222222  0.055556  0.500000     12.000000
  0.277778  0.055556  0.500000     12.000000
  0.333333  0.055556  0.500000     12.000000
  0.388889  0.055556  0.500000     12.000000
  0.444444  0.055556  0.500000     12.000000
  0.111111  0.111111  0.500000      6.000000
  0.166667  0.111111  0.500000     12.000000
  0.222222  0.111111  0.500000     12.000000
  0.277778  0.111111  0.500000     12.000000
  0.333333  0.111111  0.500000     12.000000
  0.388889  0.111111  0.500000     12.000000
  0.444444  0.111111  0.500000      6.000000
  0.166667  0.166667  0.500000      6.000000
  0.222222  0.166667  0.500000     12.000000
  0.277778  0.166667  0.500000     12.000000
  0.333333  0.166667  0.500000     12.000000
  0.388889  0.166667  0.500000     12.000000
  0.222222  0.222222  0.500000      6.000000
  0.277778  0.222222  0.500000     12.000000
  0.333333  0.222222  0.500000     12.000000
  0.388889  0.222222  0.500000      6.000000
  0.277778  0.277778  0.500000      6.000000
  0.333333  0.277778  0.500000     12.000000
  0.333333  0.333333  0.500000      2.000000
 
 Following cartesian coordinates:
            Coordinates               Weight
  0.000000  0.000000  0.000000      1.000000
  0.014283  0.008246  0.000000      6.000000
  0.028566  0.016492  0.000000      6.000000
  0.042849  0.024739  0.000000      6.000000
  0.057132  0.032985  0.000000      6.000000
  0.071415  0.041231  0.000000      6.000000
  0.085698  0.049477  0.000000      6.000000
  0.099980  0.057724  0.000000      6.000000
  0.114263  0.065970  0.000000      6.000000
  0.128546  0.074216  0.000000      3.000000
  0.014283  0.024739  0.000000      6.000000
  0.028566  0.032985  0.000000     12.000000
  0.042849  0.041231  0.000000     12.000000
  0.057132  0.049477  0.000000     12.000000
  0.071415  0.057724  0.000000     12.000000
  0.085698  0.065970  0.000000     12.000000
  0.099980  0.074216  0.000000     12.000000
  0.114263  0.082462  0.000000     12.000000
  0.028566  0.049477  0.000000      6.000000
  0.042849  0.057724  0.000000     12.000000
  0.057132  0.065970  0.000000     12.000000
  0.071415  0.074216  0.000000     12.000000
  0.085698  0.082462  0.000000     12.000000
  0.099980  0.090709  0.000000     12.000000
  0.114263  0.098955  0.000000      6.000000
  0.042849  0.074216  0.000000      6.000000
  0.057132  0.082462  0.000000     12.000000
  0.071415  0.090709  0.000000     12.000000
  0.085698  0.098955  0.000000     12.000000
  0.099980  0.107201  0.000000     12.000000
  0.057132  0.098955  0.000000      6.000000
  0.071415  0.107201  0.000000     12.000000
  0.085698  0.115447  0.000000     12.000000
  0.099980  0.123694  0.000000      6.000000
  0.071415  0.123694  0.000000      6.000000
  0.085698  0.131940  0.000000     12.000000
  0.085698  0.148432  0.000000      2.000000
  0.000000 -0.000000  0.006786      2.000000
  0.014283  0.008246  0.006786      6.000000
  0.028566  0.016492  0.006786      6.000000
  0.042849  0.024739  0.006786      6.000000
  0.057132  0.032985  0.006786      6.000000
  0.071415  0.041231  0.006786      6.000000
  0.085698  0.049477  0.006786      6.000000
  0.099980  0.057724  0.006786      6.000000
  0.114263  0.065970  0.006786      6.000000
  0.128546  0.074216  0.006786      6.000000
 -0.114263 -0.065970  0.006786      6.000000
 -0.099980 -0.057724  0.006786      6.000000
 -0.085698 -0.049477  0.006786      6.000000
 -0.071415 -0.041231  0.006786      6.000000
 -0.057132 -0.032985  0.006786      6.000000
 -0.042849 -0.024739  0.006786      6.000000
 -0.028566 -0.016492  0.006786      6.000000
 -0.014283 -0.008246  0.006786      6.000000
  0.014283  0.024739  0.006786     12.000000
  0.028566  0.032985  0.006786     12.000000
  0.042849  0.041231  0.006786     12.000000
  0.057132  0.049477  0.006786     12.000000
  0.071415  0.057724  0.006786     12.000000
  0.085698  0.065970  0.006786     12.000000
  0.099980  0.074216  0.006786     12.000000
  0.114263  0.082462  0.006786     12.000000
  0.128546  0.090709  0.006786     12.000000
 -0.114263 -0.049477  0.006786     12.000000
 -0.099980 -0.041231  0.006786     12.000000
 -0.085698 -0.032985  0.006786     12.000000
 -0.071415 -0.024739  0.006786     12.000000
 -0.057132 -0.016492  0.006786     12.000000
 -0.042849 -0.008246  0.006786     12.000000
  0.028566  0.049477  0.006786     12.000000
  0.042849  0.057724  0.006786     12.000000
  0.057132  0.065970  0.006786     12.000000
  0.071415  0.074216  0.006786     12.000000
  0.085698  0.082462  0.006786     12.000000
  0.099980  0.090709  0.006786     12.000000
  0.114263  0.098955  0.006786     12.000000
  0.128546  0.107201  0.006786     12.000000
 -0.114263 -0.032985  0.006786     12.000000
 -0.099980 -0.024739  0.006786     12.000000
 -0.085698 -0.016492  0.006786     12.000000
 -0.071415 -0.008246  0.006786     12.000000
  0.042849  0.074216  0.006786     12.000000
  0.057132  0.082462  0.006786     12.000000
  0.071415  0.090709  0.006786     12.000000
  0.085698  0.098955  0.006786     12.000000
  0.099980  0.107201  0.006786     12.000000
  0.114263  0.115447  0.006786     12.000000
  0.128546  0.123694  0.006786     12.000000
 -0.114263 -0.016492  0.006786     12.000000
 -0.099980 -0.008246  0.006786     12.000000
  0.057132  0.098955  0.006786     12.000000
  0.071415  0.107201  0.006786     12.000000
  0.085698  0.115447  0.006786     12.000000
  0.099980  0.123694  0.006786     12.000000
  0.114263  0.131940  0.006786     12.000000
  0.128546  0.140186  0.006786     12.000000
  0.071415  0.123694  0.006786     12.000000
  0.085698  0.131940  0.006786     12.000000
  0.099980  0.140186  0.006786     12.000000
  0.085698  0.148432  0.006786      4.000000
  0.000000 -0.000000  0.013572      2.000000
  0.014283  0.008246  0.013572      6.000000
  0.028566  0.016492  0.013572      6.000000
  0.042849  0.024739  0.013572      6.000000
  0.057132  0.032985  0.013572      6.000000
  0.071415  0.041231  0.013572      6.000000
  0.085698  0.049477  0.013572      6.000000
  0.099980  0.057724  0.013572      6.000000
  0.114263  0.065970  0.013572      6.000000
  0.128546  0.074216  0.013572      6.000000
 -0.114263 -0.065970  0.013572      6.000000
 -0.099980 -0.057724  0.013572      6.000000
 -0.085698 -0.049477  0.013572      6.000000
 -0.071415 -0.041231  0.013572      6.000000
 -0.057132 -0.032985  0.013572      6.000000
 -0.042849 -0.024739  0.013572      6.000000
 -0.028566 -0.016492  0.013572      6.000000
 -0.014283 -0.008246  0.013572      6.000000
  0.014283  0.024739  0.013572     12.000000
  0.028566  0.032985  0.013572     12.000000
  0.042849  0.041231  0.013572     12.000000
  0.057132  0.049477  0.013572     12.000000
  0.071415  0.057724  0.013572     12.000000
  0.085698  0.065970  0.013572     12.000000
  0.099980  0.074216  0.013572     12.000000
  0.114263  0.082462  0.013572     12.000000
  0.128546  0.090709  0.013572     12.000000
 -0.114263 -0.049477  0.013572     12.000000
 -0.099980 -0.041231  0.013572     12.000000
 -0.085698 -0.032985  0.013572     12.000000
 -0.071415 -0.024739  0.013572     12.000000
 -0.057132 -0.016492  0.013572     12.000000
 -0.042849 -0.008246  0.013572     12.000000
  0.028566  0.049477  0.013572     12.000000
  0.042849  0.057724  0.013572     12.000000
  0.057132  0.065970  0.013572     12.000000
  0.071415  0.074216  0.013572     12.000000
  0.085698  0.082462  0.013572     12.000000
  0.099980  0.090709  0.013572     12.000000
  0.114263  0.098955  0.013572     12.000000
  0.128546  0.107201  0.013572     12.000000
 -0.114263 -0.032985  0.013572     12.000000
 -0.099980 -0.024739  0.013572     12.000000
 -0.085698 -0.016492  0.013572     12.000000
 -0.071415 -0.008246  0.013572     12.000000
  0.042849  0.074216  0.013572     12.000000
  0.057132  0.082462  0.013572     12.000000
  0.071415  0.090709  0.013572     12.000000
  0.085698  0.098955  0.013572     12.000000
  0.099980  0.107201  0.013572     12.000000
  0.114263  0.115447  0.013572     12.000000
  0.128546  0.123694  0.013572     12.000000
 -0.114263 -0.016492  0.013572     12.000000
 -0.099980 -0.008246  0.013572     12.000000
  0.057132  0.098955  0.013572     12.000000
  0.071415  0.107201  0.013572     12.000000
  0.085698  0.115447  0.013572     12.000000
  0.099980  0.123694  0.013572     12.000000
  0.114263  0.131940  0.013572     12.000000
  0.128546  0.140186  0.013572     12.000000
  0.071415  0.123694  0.013572     12.000000
  0.085698  0.131940  0.013572     12.000000
  0.099980  0.140186  0.013572     12.000000
  0.085698  0.148432  0.013572      4.000000
  0.000000 -0.000000  0.020358      1.000000
  0.014283  0.008246  0.020358      6.000000
  0.028566  0.016492  0.020358      6.000000
  0.042849  0.024739  0.020358      6.000000
  0.057132  0.032985  0.020358      6.000000
  0.071415  0.041231  0.020358      6.000000
  0.085698  0.049477  0.020358      6.000000
  0.099980  0.057724  0.020358      6.000000
  0.114263  0.065970  0.020358      6.000000
  0.128546  0.074216  0.020358      3.000000
  0.014283  0.024739  0.020358      6.000000
  0.028566  0.032985  0.020358     12.000000
  0.042849  0.041231  0.020358     12.000000
  0.057132  0.049477  0.020358     12.000000
  0.071415  0.057724  0.020358     12.000000
  0.085698  0.065970  0.020358     12.000000
  0.099980  0.074216  0.020358     12.000000
  0.114263  0.082462  0.020358     12.000000
  0.028566  0.049477  0.020358      6.000000
  0.042849  0.057724  0.020358     12.000000
  0.057132  0.065970  0.020358     12.000000
  0.071415  0.074216  0.020358     12.000000
  0.085698  0.082462  0.020358     12.000000
  0.099980  0.090709  0.020358     12.000000
  0.114263  0.098955  0.020358      6.000000
  0.042849  0.074216  0.020358      6.000000
  0.057132  0.082462  0.020358     12.000000
  0.071415  0.090709  0.020358     12.000000
  0.085698  0.098955  0.020358     12.000000
  0.099980  0.107201  0.020358     12.000000
  0.057132  0.098955  0.020358      6.000000
  0.071415  0.107201  0.020358     12.000000
  0.085698  0.115447  0.020358     12.000000
  0.099980  0.123694  0.020358      6.000000
  0.071415  0.123694  0.020358      6.000000
  0.085698  0.131940  0.020358     12.000000
  0.085698  0.148432  0.020358      2.000000
 
 TETIRR: Found   2825 inequivalent tetrahedra from    11664


--------------------------------------------------------------------------------------------------------




 Dimension of arrays:
   k-points           NKPTS =    202   k-points in BZ     NKDIM =    202   number of bands    NBANDS=     80
   number of dos      NEDOS =   3000   number of ions     NIONS =     14
   non local maximal  LDIM  =      6   non local SUM 2l+1 LMDIM =     18
   total plane-waves  NPLWV = 141120
   max r-space proj   IRMAX =      1   max aug-charges    IRDMAX= 151718
   dimension x,y,z NGX =    28 NGY =   28 NGZ =  180
   dimension x,y,z NGXF=    56 NGYF=   56 NGZF=  360
   support grid    NGXF=   112 NGYF=  112 NGZF=  720
   ions per type =               4   8   2
   NGX,Y,Z   is equivalent  to a cutoff of  11.97, 11.97, 12.18 a.u.
   NGXF,Y,Z  is equivalent  to a cutoff of  23.93, 23.93, 24.37 a.u.

 SYSTEM =  ZnIn2S4 DOS/PDOS                        
 POSCAR =  In2 S4 Zn                               

 Startparameter for this run:
   NWRITE =      2    write-flag & timer
   PREC   = accura    normal or accurate (medium, high low for compatibility)
   ISTART =      0    job   : 0-new  1-cont  2-samecut
   ICHARG =     11    charge: 1-file 2-atom 10-const
   ISPIN  =      1    spin polarized calculation?
   LNONCOLLINEAR =      F non collinear calculations
   LSORBIT =      F    spin-orbit coupling
   INIWAV =      1    electr: 0-lowe 1-rand  2-diag
   LASPH  =      T    aspherical Exc in radial PAW
   METAGGA=      F    non-selfconsistent MetaGGA calc.

 Electronic Relaxation 1
   ENCUT  =  500.0 eV  36.75 Ry    6.06 a.u.   7.09  7.09 44.78*2*pi/ulx,y,z
   ENINI  =  500.0     initial cutoff
   ENAUG  =  575.9 eV  augmentation charge cutoff
   NELM   =    150;   NELMIN=  2; NELMDL= -5     # of ELM steps 
   EDIFF  = 0.1E-06   stopping-criterion for ELM
   LREAL  =      F    real-space projection
   NLSPLINE    = F    spline interpolate recip. space projectors
   LCOMPAT=      F    compatible to vasp.4.4
   GGA_COMPAT  = T    GGA compatible to vasp.4.4-vasp.4.6
   LMAXPAW     = -100 max onsite density
   LMAXMIX     =    2 max onsite mixed and CHGCAR
   VOSKOWN=      0    Vosko Wilk Nusair interpolation
   ROPT   =    0.00000   0.00000   0.00000
 Ionic relaxation
   EDIFFG = 0.1E-05   stopping-criterion for IOM
   NSW    =      0    number of steps for IOM
   NBLOCK =      1;   KBLOCK =      1    inner block; outer block 
   IBRION =     -1    ionic relax: 0-MD 1-quasi-New 2-CG
   NFREE  =      0    steps in history (QN), initial steepest desc. (CG)
   ISIF   =      2    stress and relaxation
   IWAVPR =     10    prediction:  0-non 1-charg 2-wave 3-comb
   ISYM   =      2    0-nonsym 1-usesym 2-fastsym
   LCORR  =      T    Harris-Foulkes like correction to forces

   POTIM  = 0.5000    time-step for ionic-motion
   TEIN   =    0.0    initial temperature
   TEBEG  =    0.0;   TEEND  =   0.0 temperature during run
   SMASS  =  -3.00    Nose mass-parameter (am)
   estimated Nose-frequenzy (Omega)   =  0.10E-29 period in steps =****** mass=  -0.346E-27a.u.
   SCALEE = 1.0000    scale energy and forces
   NPACO  =    256;   APACO  = 16.0  distance and # of slots for P.C.
   PSTRESS=    0.0 pullay stress

  Mass of Ions in am
   POMASS = 114.82 32.07 65.39
  Ionic Valenz
   ZVAL   =  13.00  6.00 12.00
  Atomic Wigner-Seitz radii
   RWIGS  =  -1.00 -1.00 -1.00
  virtual crystal weights 
   VCA    =   1.00  1.00  1.00
   NELECT =     124.0000    total number of electrons
   NUPDOWN=      -1.0000    fix difference up-down

 DOS related values:
   EMIN   =  10.00;   EMAX   =-10.00  energy-range for DOS
   EFERMI =   0.00
   ISMEAR =    -5;   SIGMA  =   0.20  broadening in eV -4-tet -1-fermi 0-gaus

 Electronic relaxation 2 (details)
   IALGO  =     38    algorithm
   LDIAG  =      T    sub-space diagonalisation (order eigenvalues)
   LSUBROT=      F    optimize rotation matrix (better conditioning)
   TURBO    =      0    0=normal 1=particle mesh
   IRESTART =      0    0=no restart 2=restart with 2 vectors
   NREBOOT  =      0    no. of reboots
   NMIN     =      0    reboot dimension
   EREF     =   0.00    reference energy to select bands
   IMIX   =      4    mixing-type and parameters
     AMIX     =   0.40;   BMIX     =  1.00
     AMIX_MAG =   1.60;   BMIX_MAG =  1.00
     AMIN     =   0.10
     WC   =   100.;   INIMIX=   1;  MIXPRE=   1;  MAXMIX= -45

 Intra band minimization:
   WEIMIN = 0.0000     energy-eigenvalue tresh-hold
   EBREAK =  0.31E-09  absolut break condition
   DEPER  =   0.30     relativ break condition  

   TIME   =   0.40     timestep for ELM

  volume/ion in A,a.u.               =      22.99       155.12
  Fermi-wavevector in a.u.,A,eV,Ry     =   1.191293  2.251217 19.309102  1.419179
  Thomas-Fermi vector in A             =   2.327358
 
 Write flags
   LWAVE        =      F    write WAVECAR
   LDOWNSAMPLE  =      F    k-point downsampling of WAVECAR
   LCHARG       =      F    write CHGCAR
   LVTOT        =      F    write LOCPOT, total local potential
   LVHAR        =      F    write LOCPOT, Hartree potential only
   LELF         =      F    write electronic localiz. function (ELF)
   LORBIT       =     11    0 simple, 1 ext, 2 COOP (PROOUT), +10 PAW based schemes


 Dipole corrections
   LMONO  =      F    monopole corrections only (constant potential shift)
   LDIPOL =      F    correct potential (dipole corrections)
   IDIPOL =      0    1-x, 2-y, 3-z, 4-all directions 
   EPSILON=  1.0000000 bulk dielectric constant

 Exchange correlation treatment:
   GGA     =    PE    GGA type
   LEXCH   =     8    internal setting for exchange type
   VOSKOWN=      0    Vosko Wilk Nusair interpolation
   LHFCALC =     F    Hartree Fock is set to
   LHFONE  =     F    Hartree Fock one center treatment
   AEXX    =    0.0000 exact exchange contribution

 Linear response parameters
   LEPSILON=     F    determine dielectric tensor
   LRPA    =     F    only Hartree local field effects (RPA)
   LNABLA  =     F    use nabla operator in PAW spheres
   LVEL    =     F    velocity operator in full k-point grid
   LINTERFAST=   F  fast interpolation
   KINTER  =     0    interpolate to denser k-point grid
   CSHIFT  =0.1000    complex shift for real part using Kramers Kronig
   OMEGAMAX=  -1.0    maximum frequency
   DEG_THRESHOLD= 0.2000000E-02 threshold for treating states as degnerate
   RTIME   =   -0.100 relaxation time in fs
  (WPLASMAI=    0.000 imaginary part of plasma frequency in eV, 0.658/RTIME)
   DFIELD  = 0.0000000 0.0000000 0.0000000 field for delta impulse in time
 
 Orbital magnetization related:
   ORBITALMAG=     F  switch on orbital magnetization
   LCHIMAG   =     F  perturbation theory with respect to B field
   DQ        =  0.001000  dq finite difference perturbation B field
   LLRAUG    =     F  two centre corrections for induced B field



--------------------------------------------------------------------------------------------------------


 Static calculation
 charge density and potential remain constant during run
 non-spin polarized calculation
 Variant of blocked Davidson
 Davidson routine will perform the subspace rotation
 perform sub-space diagonalisation
    after iterative eigenvector-optimisation
 no mixing
 using additional bands           18
 reciprocal scheme for non local part
 use partial core corrections
 calculate Harris-corrections to forces 
   (improved forces if not selfconsistent)
 use gradient corrections 
 WARNING: stress and forces are not correct
  (second derivative of E(xc) not defined)
 use of overlap-Matrix (Vanderbilt PP)
 Fermi weights with tetrahedron method with Bloechl corrections


--------------------------------------------------------------------------------------------------------


  energy-cutoff  :      500.00
  volume of cell :      321.80
      direct lattice vectors                 reciprocal lattice vectors
     3.889649070  0.000000000 -0.000000000     0.257092602  0.148432483  0.000000000
    -1.944824535  3.368534906  0.000000000    -0.000000000  0.296864966  0.000000000
    -0.000000000 -0.000000000 24.560598922     0.000000000 -0.000000000  0.040715619

  length of vectors
     3.889649070  3.889649070 24.560598922     0.296864966  0.296864966  0.040715619


 
 k-points in units of 2pi/SCALE and weight: DOS / PDOS                              
   0.00000000  0.00000000  0.00000000       0.001
   0.01428292  0.00824625  0.00000000       0.003
   0.02856584  0.01649250  0.00000000       0.003
   0.04284877  0.02473875  0.00000000       0.003
   0.05713169  0.03298500  0.00000000       0.003
   0.07141461  0.04123125  0.00000000       0.003
   0.08569753  0.04947749  0.00000000       0.003
   0.09998046  0.05772374  0.00000000       0.003
   0.11426338  0.06596999  0.00000000       0.003
   0.12854630  0.07421624  0.00000000       0.002
   0.01428292  0.02473875  0.00000000       0.003
   0.02856584  0.03298500  0.00000000       0.006
   0.04284877  0.04123125  0.00000000       0.006
   0.05713169  0.04947749  0.00000000       0.006
   0.07141461  0.05772374  0.00000000       0.006
   0.08569753  0.06596999  0.00000000       0.006
   0.09998046  0.07421624  0.00000000       0.006
   0.11426338  0.08246249  0.00000000       0.006
   0.02856584  0.04947749  0.00000000       0.003
   0.04284877  0.05772374  0.00000000       0.006
   0.05713169  0.06596999  0.00000000       0.006
   0.07141461  0.07421624  0.00000000       0.006
   0.08569753  0.08246249  0.00000000       0.006
   0.09998046  0.09070874  0.00000000       0.006
   0.11426338  0.09895499  0.00000000       0.003
   0.04284877  0.07421624  0.00000000       0.003
   0.05713169  0.08246249  0.00000000       0.006
   0.07141461  0.09070874  0.00000000       0.006
   0.08569753  0.09895499  0.00000000       0.006
   0.09998046  0.10720124  0.00000000       0.006
   0.05713169  0.09895499  0.00000000       0.003
   0.07141461  0.10720124  0.00000000       0.006
   0.08569753  0.11544749  0.00000000       0.006
   0.09998046  0.12369374  0.00000000       0.003
   0.07141461  0.12369374  0.00000000       0.003
   0.08569753  0.13193998  0.00000000       0.006
   0.08569753  0.14843248  0.00000000       0.001
   0.00000000 -0.00000000  0.00678594       0.001
   0.01428292  0.00824625  0.00678594       0.003
   0.02856584  0.01649250  0.00678594       0.003
   0.04284877  0.02473875  0.00678594       0.003
   0.05713169  0.03298500  0.00678594       0.003
   0.07141461  0.04123125  0.00678594       0.003
   0.08569753  0.04947749  0.00678594       0.003
   0.09998046  0.05772374  0.00678594       0.003
   0.11426338  0.06596999  0.00678594       0.003
   0.12854630  0.07421624  0.00678594       0.003
  -0.11426338 -0.06596999  0.00678594       0.003
  -0.09998046 -0.05772374  0.00678594       0.003
  -0.08569753 -0.04947749  0.00678594       0.003
  -0.07141461 -0.04123125  0.00678594       0.003
  -0.05713169 -0.03298500  0.00678594       0.003
  -0.04284877 -0.02473875  0.00678594       0.003
  -0.02856584 -0.01649250  0.00678594       0.003
  -0.01428292 -0.00824625  0.00678594       0.003
   0.01428292  0.02473875  0.00678594       0.006
   0.02856584  0.03298500  0.00678594       0.006
   0.04284877  0.04123125  0.00678594       0.006
   0.05713169  0.04947749  0.00678594       0.006
   0.07141461  0.05772374  0.00678594       0.006
   0.08569753  0.06596999  0.00678594       0.006
   0.09998046  0.07421624  0.00678594       0.006
   0.11426338  0.08246249  0.00678594       0.006
   0.12854630  0.09070874  0.00678594       0.006
  -0.11426338 -0.04947749  0.00678594       0.006
  -0.09998046 -0.04123125  0.00678594       0.006
  -0.08569753 -0.03298500  0.00678594       0.006
  -0.07141461 -0.02473875  0.00678594       0.006
  -0.05713169 -0.01649250  0.00678594       0.006
  -0.04284877 -0.00824625  0.00678594       0.006
   0.02856584  0.04947749  0.00678594       0.006
   0.04284877  0.05772374  0.00678594       0.006
   0.05713169  0.06596999  0.00678594       0.006
   0.07141461  0.07421624  0.00678594       0.006
   0.08569753  0.08246249  0.00678594       0.006
   0.09998046  0.09070874  0.00678594       0.006
   0.11426338  0.09895499  0.00678594       0.006
   0.12854630  0.10720124  0.00678594       0.006
  -0.11426338 -0.03298500  0.00678594       0.006
  -0.09998046 -0.02473875  0.00678594       0.006
  -0.08569753 -0.01649250  0.00678594       0.006
  -0.07141461 -0.00824625  0.00678594       0.006
   0.04284877  0.07421624  0.00678594       0.006
   0.05713169  0.08246249  0.00678594       0.006
   0.07141461  0.09070874  0.00678594       0.006
   0.08569753  0.09895499  0.00678594       0.006
   0.09998046  0.10720124  0.00678594       0.006
   0.11426338  0.11544749  0.00678594       0.006
   0.12854630  0.12369374  0.00678594       0.006
  -0.11426338 -0.01649250  0.00678594       0.006
  -0.09998046 -0.00824625  0.00678594       0.006
   0.05713169  0.09895499  0.00678594       0.006
   0.07141461  0.10720124  0.00678594       0.006
   0.08569753  0.11544749  0.00678594       0.006
   0.09998046  0.12369374  0.00678594       0.006
   0.11426338  0.13193998  0.00678594       0.006
   0.12854630  0.14018623  0.00678594       0.006
   0.07141461  0.12369374  0.00678594       0.006
   0.08569753  0.13193998  0.00678594       0.006
   0.09998046  0.14018623  0.00678594       0.006
   0.08569753  0.14843248  0.00678594       0.002
   0.00000000 -0.00000000  0.01357187       0.001
   0.01428292  0.00824625  0.01357187       0.003
   0.02856584  0.01649250  0.01357187       0.003
   0.04284877  0.02473875  0.01357187       0.003
   0.05713169  0.03298500  0.01357187       0.003
   0.07141461  0.04123125  0.01357187       0.003
   0.08569753  0.04947749  0.01357187       0.003
   0.09998046  0.05772374  0.01357187       0.003
   0.11426338  0.06596999  0.01357187       0.003
   0.12854630  0.07421624  0.01357187       0.003
  -0.11426338 -0.06596999  0.01357187       0.003
  -0.09998046 -0.05772374  0.01357187       0.003
  -0.08569753 -0.04947749  0.01357187       0.003
  -0.07141461 -0.04123125  0.01357187       0.003
  -0.05713169 -0.03298500  0.01357187       0.003
  -0.04284877 -0.02473875  0.01357187       0.003
  -0.02856584 -0.01649250  0.01357187       0.003
  -0.01428292 -0.00824625  0.01357187       0.003
   0.01428292  0.02473875  0.01357187       0.006
   0.02856584  0.03298500  0.01357187       0.006
   0.04284877  0.04123125  0.01357187       0.006
   0.05713169  0.04947749  0.01357187       0.006
   0.07141461  0.05772374  0.01357187       0.006
   0.08569753  0.06596999  0.01357187       0.006
   0.09998046  0.07421624  0.01357187       0.006
   0.11426338  0.08246249  0.01357187       0.006
   0.12854630  0.09070874  0.01357187       0.006
  -0.11426338 -0.04947749  0.01357187       0.006
  -0.09998046 -0.04123125  0.01357187       0.006
  -0.08569753 -0.03298500  0.01357187       0.006
  -0.07141461 -0.02473875  0.01357187       0.006
  -0.05713169 -0.01649250  0.01357187       0.006
  -0.04284877 -0.00824625  0.01357187       0.006
   0.02856584  0.04947749  0.01357187       0.006
   0.04284877  0.05772374  0.01357187       0.006
   0.05713169  0.06596999  0.01357187       0.006
   0.07141461  0.07421624  0.01357187       0.006
   0.08569753  0.08246249  0.01357187       0.006
   0.09998046  0.09070874  0.01357187       0.006
   0.11426338  0.09895499  0.01357187       0.006
   0.12854630  0.10720124  0.01357187       0.006
  -0.11426338 -0.03298500  0.01357187       0.006
  -0.09998046 -0.02473875  0.01357187       0.006
  -0.08569753 -0.01649250  0.01357187       0.006
  -0.07141461 -0.00824625  0.01357187       0.006
   0.04284877  0.07421624  0.01357187       0.006
   0.05713169  0.08246249  0.01357187       0.006
   0.07141461  0.09070874  0.01357187       0.006
   0.08569753  0.09895499  0.01357187       0.006
   0.09998046  0.10720124  0.01357187       0.006
   0.11426338  0.11544749  0.01357187       0.006
   0.12854630  0.12369374  0.01357187       0.006
  -0.11426338 -0.01649250  0.01357187       0.006
  -0.09998046 -0.00824625  0.01357187       0.006
   0.05713169  0.09895499  0.01357187       0.006
   0.07141461  0.10720124  0.01357187       0.006
   0.08569753  0.11544749  0.01357187       0.006
   0.09998046  0.12369374  0.01357187       0.006
   0.11426338  0.13193998  0.01357187       0.006
   0.12854630  0.14018623  0.01357187       0.006
   0.07141461  0.12369374  0.01357187       0.006
   0.08569753  0.13193998  0.01357187       0.006
   0.09998046  0.14018623  0.01357187       0.006
   0.08569753  0.14843248  0.01357187       0.002
   0.00000000 -0.00000000  0.02035781       0.001
   0.01428292  0.00824625  0.02035781       0.003
   0.02856584  0.01649250  0.02035781       0.003
   0.04284877  0.02473875  0.02035781       0.003
   0.05713169  0.03298500  0.02035781       0.003
   0.07141461  0.04123125  0.02035781       0.003
   0.08569753  0.04947749  0.02035781       0.003
   0.09998046  0.05772374  0.02035781       0.003
   0.11426338  0.06596999  0.02035781       0.003
   0.12854630  0.07421624  0.02035781       0.002
   0.01428292  0.02473875  0.02035781       0.003
   0.02856584  0.03298500  0.02035781       0.006
   0.04284877  0.04123125  0.02035781       0.006
   0.05713169  0.04947749  0.02035781       0.006
   0.07141461  0.05772374  0.02035781       0.006
   0.08569753  0.06596999  0.02035781       0.006
   0.09998046  0.07421624  0.02035781       0.006
   0.11426338  0.08246249  0.02035781       0.006
   0.02856584  0.04947749  0.02035781       0.003
   0.04284877  0.05772374  0.02035781       0.006
   0.05713169  0.06596999  0.02035781       0.006
   0.07141461  0.07421624  0.02035781       0.006
   0.08569753  0.08246249  0.02035781       0.006
   0.09998046  0.09070874  0.02035781       0.006
   0.11426338  0.09895499  0.02035781       0.003
   0.04284877  0.07421624  0.02035781       0.003
   0.05713169  0.08246249  0.02035781       0.006
   0.07141461  0.09070874  0.02035781       0.006
   0.08569753  0.09895499  0.02035781       0.006
   0.09998046  0.10720124  0.02035781       0.006
   0.05713169  0.09895499  0.02035781       0.003
   0.07141461  0.10720124  0.02035781       0.006
   0.08569753  0.11544749  0.02035781       0.006
   0.09998046  0.12369374  0.02035781       0.003
   0.07141461  0.12369374  0.02035781       0.003
   0.08569753  0.13193998  0.02035781       0.006
   0.08569753  0.14843248  0.02035781       0.001
 
 k-points in reciprocal lattice and weights: DOS / PDOS                              
   0.00000000  0.00000000  0.00000000       0.001
   0.05555556 -0.00000000 -0.00000000       0.003
   0.11111111 -0.00000000 -0.00000000       0.003
   0.16666667  0.00000000 -0.00000000       0.003
   0.22222222 -0.00000000 -0.00000000       0.003
   0.27777778  0.00000000  0.00000000       0.003
   0.33333333 -0.00000000  0.00000000       0.003
   0.38888889  0.00000000 -0.00000000       0.003
   0.44444444 -0.00000000 -0.00000000       0.003
   0.50000000  0.00000000  0.00000000       0.002
   0.05555556  0.05555556 -0.00000000       0.003
   0.11111111  0.05555556  0.00000000       0.006
   0.16666667  0.05555556  0.00000000       0.006
   0.22222222  0.05555556  0.00000000       0.006
   0.27777778  0.05555556  0.00000000       0.006
   0.33333333  0.05555556 -0.00000000       0.006
   0.38888889  0.05555556 -0.00000000       0.006
   0.44444444  0.05555556 -0.00000000       0.006
   0.11111111  0.11111111 -0.00000000       0.003
   0.16666667  0.11111111 -0.00000000       0.006
   0.22222222  0.11111111 -0.00000000       0.006
   0.27777778  0.11111111 -0.00000000       0.006
   0.33333333  0.11111111 -0.00000000       0.006
   0.38888889  0.11111111  0.00000000       0.006
   0.44444444  0.11111111  0.00000000       0.003
   0.16666667  0.16666667 -0.00000000       0.003
   0.22222222  0.16666667 -0.00000000       0.006
   0.27777778  0.16666667 -0.00000000       0.006
   0.33333333  0.16666667 -0.00000000       0.006
   0.38888889  0.16666667 -0.00000000       0.006
   0.22222222  0.22222222 -0.00000000       0.003
   0.27777778  0.22222222 -0.00000000       0.006
   0.33333333  0.22222222  0.00000000       0.006
   0.38888889  0.22222222  0.00000000       0.003
   0.27777778  0.27777778 -0.00000000       0.003
   0.33333333  0.27777778 -0.00000000       0.006
   0.33333333  0.33333333 -0.00000000       0.001
  -0.00000000 -0.00000000  0.16666667       0.001
   0.05555556  0.00000000  0.16666667       0.003
   0.11111111  0.00000000  0.16666667       0.003
   0.16666667  0.00000000  0.16666667       0.003
   0.22222222 -0.00000000  0.16666667       0.003
   0.27777778  0.00000000  0.16666667       0.003
   0.33333333 -0.00000000  0.16666667       0.003
   0.38888889  0.00000000  0.16666667       0.003
   0.44444444 -0.00000000  0.16666667       0.003
   0.50000000  0.00000000  0.16666667       0.003
  -0.44444444  0.00000000  0.16666667       0.003
  -0.38888889  0.00000000  0.16666667       0.003
  -0.33333333  0.00000000  0.16666667       0.003
  -0.27777778  0.00000000  0.16666667       0.003
  -0.22222222  0.00000000  0.16666667       0.003
  -0.16666667 -0.00000000  0.16666667       0.003
  -0.11111111  0.00000000  0.16666667       0.003
  -0.05555556  0.00000000  0.16666667       0.003
   0.05555556  0.05555556  0.16666667       0.006
   0.11111111  0.05555556  0.16666667       0.006
   0.16666667  0.05555556  0.16666667       0.006
   0.22222222  0.05555556  0.16666667       0.006
   0.27777778  0.05555556  0.16666667       0.006
   0.33333333  0.05555556  0.16666667       0.006
   0.38888889  0.05555556  0.16666667       0.006
   0.44444444  0.05555556  0.16666667       0.006
   0.50000000  0.05555556  0.16666667       0.006
  -0.44444444  0.05555556  0.16666667       0.006
  -0.38888889  0.05555556  0.16666667       0.006
  -0.33333333  0.05555556  0.16666667       0.006
  -0.27777778  0.05555556  0.16666667       0.006
  -0.22222222  0.05555556  0.16666667       0.006
  -0.16666667  0.05555556  0.16666667       0.006
   0.11111111  0.11111111  0.16666667       0.006
   0.16666667  0.11111111  0.16666667       0.006
   0.22222222  0.11111111  0.16666667       0.006
   0.27777778  0.11111111  0.16666667       0.006
   0.33333333  0.11111111  0.16666667       0.006
   0.38888889  0.11111111  0.16666667       0.006
   0.44444444  0.11111111  0.16666667       0.006
   0.50000000  0.11111111  0.16666667       0.006
  -0.44444444  0.11111111  0.16666667       0.006
  -0.38888889  0.11111111  0.16666667       0.006
  -0.33333333  0.11111111  0.16666667       0.006
  -0.27777778  0.11111111  0.16666667       0.006
   0.16666667  0.16666667  0.16666667       0.006
   0.22222222  0.16666667  0.16666667       0.006
   0.27777778  0.16666667  0.16666667       0.006
   0.33333333  0.16666667  0.16666667       0.006
   0.38888889  0.16666667  0.16666667       0.006
   0.44444444  0.16666667  0.16666667       0.006
   0.50000000  0.16666667  0.16666667       0.006
  -0.44444444  0.16666667  0.16666667       0.006
  -0.38888889  0.16666667  0.16666667       0.006
   0.22222222  0.22222222  0.16666667       0.006
   0.27777778  0.22222222  0.16666667       0.006
   0.33333333  0.22222222  0.16666667       0.006
   0.38888889  0.22222222  0.16666667       0.006
   0.44444444  0.22222222  0.16666667       0.006
   0.50000000  0.22222222  0.16666667       0.006
   0.27777778  0.27777778  0.16666667       0.006
   0.33333333  0.27777778  0.16666667       0.006
   0.38888889  0.27777778  0.16666667       0.006
   0.33333333  0.33333333  0.16666667       0.002
   0.00000000  0.00000000  0.33333333       0.001
   0.05555556  0.00000000  0.33333333       0.003
   0.11111111  0.00000000  0.33333333       0.003
   0.16666667  0.00000000  0.33333333       0.003
   0.22222222 -0.00000000  0.33333333       0.003
   0.27777778  0.00000000  0.33333333       0.003
   0.33333333 -0.00000000  0.33333333       0.003
   0.38888889  0.00000000  0.33333333       0.003
   0.44444444 -0.00000000  0.33333333       0.003
   0.50000000  0.00000000  0.33333333       0.003
  -0.44444444  0.00000000  0.33333333       0.003
  -0.38888889  0.00000000  0.33333333       0.003
  -0.33333333  0.00000000  0.33333333       0.003
  -0.27777778  0.00000000  0.33333333       0.003
  -0.22222222  0.00000000  0.33333333       0.003
  -0.16666667 -0.00000000  0.33333333       0.003
  -0.11111111  0.00000000  0.33333333       0.003
  -0.05555556  0.00000000  0.33333333       0.003
   0.05555556  0.05555556  0.33333333       0.006
   0.11111111  0.05555556  0.33333333       0.006
   0.16666667  0.05555556  0.33333333       0.006
   0.22222222  0.05555556  0.33333333       0.006
   0.27777778  0.05555556  0.33333333       0.006
   0.33333333  0.05555556  0.33333333       0.006
   0.38888889  0.05555556  0.33333333       0.006
   0.44444444  0.05555556  0.33333333       0.006
   0.50000000  0.05555556  0.33333333       0.006
  -0.44444444  0.05555556  0.33333333       0.006
  -0.38888889  0.05555556  0.33333333       0.006
  -0.33333333  0.05555556  0.33333333       0.006
  -0.27777778  0.05555556  0.33333333       0.006
  -0.22222222  0.05555556  0.33333333       0.006
  -0.16666667  0.05555556  0.33333333       0.006
   0.11111111  0.11111111  0.33333333       0.006
   0.16666667  0.11111111  0.33333333       0.006
   0.22222222  0.11111111  0.33333333       0.006
   0.27777778  0.11111111  0.33333333       0.006
   0.33333333  0.11111111  0.33333333       0.006
   0.38888889  0.11111111  0.33333333       0.006
   0.44444444  0.11111111  0.33333333       0.006
   0.50000000  0.11111111  0.33333333       0.006
  -0.44444444  0.11111111  0.33333333       0.006
  -0.38888889  0.11111111  0.33333333       0.006
  -0.33333333  0.11111111  0.33333333       0.006
  -0.27777778  0.11111111  0.33333333       0.006
   0.16666667  0.16666667  0.33333333       0.006
   0.22222222  0.16666667  0.33333333       0.006
   0.27777778  0.16666667  0.33333333       0.006
   0.33333333  0.16666667  0.33333333       0.006
   0.38888889  0.16666667  0.33333333       0.006
   0.44444444  0.16666667  0.33333333       0.006
   0.50000000  0.16666667  0.33333333       0.006
  -0.44444444  0.16666667  0.33333333       0.006
  -0.38888889  0.16666667  0.33333333       0.006
   0.22222222  0.22222222  0.33333333       0.006
   0.27777778  0.22222222  0.33333333       0.006
   0.33333333  0.22222222  0.33333333       0.006
   0.38888889  0.22222222  0.33333333       0.006
   0.44444444  0.22222222  0.33333333       0.006
   0.50000000  0.22222222  0.33333333       0.006
   0.27777778  0.27777778  0.33333333       0.006
   0.33333333  0.27777778  0.33333333       0.006
   0.38888889  0.27777778  0.33333333       0.006
   0.33333333  0.33333333  0.33333333       0.002
  -0.00000000 -0.00000000  0.50000000       0.001
   0.05555556 -0.00000000  0.50000000       0.003
   0.11111111  0.00000000  0.50000000       0.003
   0.16666667  0.00000000  0.50000000       0.003
   0.22222222 -0.00000000  0.50000000       0.003
   0.27777778  0.00000000  0.50000000       0.003
   0.33333333 -0.00000000  0.50000000       0.003
   0.38888889  0.00000000  0.50000000       0.003
   0.44444444 -0.00000000  0.50000000       0.003
   0.50000000  0.00000000  0.50000000       0.002
   0.05555556  0.05555556  0.50000000       0.003
   0.11111111  0.05555556  0.50000000       0.006
   0.16666667  0.05555556  0.50000000       0.006
   0.22222222  0.05555556  0.50000000       0.006
   0.27777778  0.05555556  0.50000000       0.006
   0.33333333  0.05555556  0.50000000       0.006
   0.38888889  0.05555556  0.50000000       0.006
   0.44444444  0.05555556  0.50000000       0.006
   0.11111111  0.11111111  0.50000000       0.003
   0.16666667  0.11111111  0.50000000       0.006
   0.22222222  0.11111111  0.50000000       0.006
   0.27777778  0.11111111  0.50000000       0.006
   0.33333333  0.11111111  0.50000000       0.006
   0.38888889  0.11111111  0.50000000       0.006
   0.44444444  0.11111111  0.50000000       0.003
   0.16666667  0.16666667  0.50000000       0.003
   0.22222222  0.16666667  0.50000000       0.006
   0.27777778  0.16666667  0.50000000       0.006
   0.33333333  0.16666667  0.50000000       0.006
   0.38888889  0.16666667  0.50000000       0.006
   0.22222222  0.22222222  0.50000000       0.003
   0.27777778  0.22222222  0.50000000       0.006
   0.33333333  0.22222222  0.50000000       0.006
   0.38888889  0.22222222  0.50000000       0.003
   0.27777778  0.27777778  0.50000000       0.003
   0.33333333  0.27777778  0.50000000       0.006
   0.33333333  0.33333333  0.50000000       0.001
 
 position of ions in fractional coordinates (direct lattice) 
   0.00000000  0.00000000  0.26953970
   0.00000000  0.00000000  0.73046030
   0.33333334  0.66666669  0.10645982
   0.66666663  0.33333331  0.89354018
   0.33333334  0.66666669  0.20390956
   0.66666663  0.33333331  0.79609047
   0.33333334  0.66666669  0.94021881
   0.66666663  0.33333331  0.05978119
   0.33333334  0.66666669  0.68138550
   0.66666663  0.33333331  0.31861450
   0.33333334  0.66666669  0.43694477
   0.66666663  0.33333331  0.56305523
   0.33333334  0.66666669  0.54170330
   0.66666663  0.33333331  0.45829670
 
 position of ions in cartesian coordinates  (Angst):
  -0.00000000 -0.00000000  6.62005658
  -0.00000000 -0.00000000 17.94054234
  -0.00000000  2.24569001  2.61471696
   1.94482442  1.12284490 21.94588197
  -0.00000000  2.24569001  5.00814097
   1.94482442  1.12284490 19.55245867
  -0.00000000  2.24569001 23.09233707
   1.94482442  1.12284490  1.46826185
  -0.00000000  2.24569001 16.73523587
   1.94482442  1.12284490  7.82536305
  -0.00000000  2.24569001 10.73162533
   1.94482442  1.12284490 13.82897359
  -0.00000000  2.24569001 13.30455754
   1.94482442  1.12284490 11.25604139
 


--------------------------------------------------------------------------------------------------------


 k-point  1 :   0.0000 0.0000 0.0000  plane waves:    8123
 k-point  2 :   0.0556-0.0000-0.0000  plane waves:    8133
 k-point  3 :   0.1111-0.0000-0.0000  plane waves:    8107
 k-point  4 :   0.1667 0.0000-0.0000  plane waves:    8142
 k-point  5 :   0.2222-0.0000-0.0000  plane waves:    8146
 k-point  6 :   0.2778 0.0000 0.0000  plane waves:    8152
 k-point  7 :   0.3333-0.0000 0.0000  plane waves:    8160
 k-point  8 :   0.3889 0.0000-0.0000  plane waves:    8178
 k-point  9 :   0.4444-0.0000-0.0000  plane waves:    8168
 k-point 10 :   0.5000 0.0000 0.0000  plane waves:    8168
 k-point 11 :   0.0556 0.0556-0.0000  plane waves:    8117
 k-point 12 :   0.1111 0.0556 0.0000  plane waves:    8113
 k-point 13 :   0.1667 0.0556 0.0000  plane waves:    8133
 k-point 14 :   0.2222 0.0556 0.0000  plane waves:    8146
 k-point 15 :   0.2778 0.0556 0.0000  plane waves:    8171
 k-point 16 :   0.3333 0.0556-0.0000  plane waves:    8176
 k-point 17 :   0.3889 0.0556-0.0000  plane waves:    8173
 k-point 18 :   0.4444 0.0556-0.0000  plane waves:    8190
 k-point 19 :   0.1111 0.1111-0.0000  plane waves:    8121
 k-point 20 :   0.1667 0.1111-0.0000  plane waves:    8149
 k-point 21 :   0.2222 0.1111-0.0000  plane waves:    8170
 k-point 22 :   0.2778 0.1111-0.0000  plane waves:    8184
 k-point 23 :   0.3333 0.1111-0.0000  plane waves:    8186
 k-point 24 :   0.3889 0.1111 0.0000  plane waves:    8183
 k-point 25 :   0.4444 0.1111 0.0000  plane waves:    8187
 k-point 26 :   0.1667 0.1667-0.0000  plane waves:    8163
 k-point 27 :   0.2222 0.1667-0.0000  plane waves:    8176
 k-point 28 :   0.2778 0.1667-0.0000  plane waves:    8184
 k-point 29 :   0.3333 0.1667-0.0000  plane waves:    8201
 k-point 30 :   0.3889 0.1667-0.0000  plane waves:    8196
 k-point 31 :   0.2222 0.2222-0.0000  plane waves:    8179
 k-point 32 :   0.2778 0.2222-0.0000  plane waves:    8194
 k-point 33 :   0.3333 0.2222 0.0000  plane waves:    8198
 k-point 34 :   0.3889 0.2222 0.0000  plane waves:    8223
 k-point 35 :   0.2778 0.2778-0.0000  plane waves:    8203
 k-point 36 :   0.3333 0.2778-0.0000  plane waves:    8215
 k-point 37 :   0.3333 0.3333-0.0000  plane waves:    8193
 k-point 38 :  -0.0000-0.0000 0.1667  plane waves:    8147
 k-point 39 :   0.0556 0.0000 0.1667  plane waves:    8141
 k-point 40 :   0.1111 0.0000 0.1667  plane waves:    8108
 k-point 41 :   0.1667 0.0000 0.1667  plane waves:    8143
 k-point 42 :   0.2222-0.0000 0.1667  plane waves:    8161
 k-point 43 :   0.2778 0.0000 0.1667  plane waves:    8153
 k-point 44 :   0.3333-0.0000 0.1667  plane waves:    8167
 k-point 45 :   0.3889 0.0000 0.1667  plane waves:    8158
 k-point 46 :   0.4444-0.0000 0.1667  plane waves:    8173
 k-point 47 :   0.5000 0.0000 0.1667  plane waves:    8184
 k-point 48 :  -0.4444 0.0000 0.1667  plane waves:    8173
 k-point 49 :  -0.3889 0.0000 0.1667  plane waves:    8158
 k-point 50 :  -0.3333 0.0000 0.1667  plane waves:    8167
 k-point 51 :  -0.2778 0.0000 0.1667  plane waves:    8153
 k-point 52 :  -0.2222 0.0000 0.1667  plane waves:    8161
 k-point 53 :  -0.1667-0.0000 0.1667  plane waves:    8143
 k-point 54 :  -0.1111 0.0000 0.1667  plane waves:    8108
 k-point 55 :  -0.0556 0.0000 0.1667  plane waves:    8141
 k-point 56 :   0.0556 0.0556 0.1667  plane waves:    8105
 k-point 57 :   0.1111 0.0556 0.1667  plane waves:    8112
 k-point 58 :   0.1667 0.0556 0.1667  plane waves:    8129
 k-point 59 :   0.2222 0.0556 0.1667  plane waves:    8150
 k-point 60 :   0.2778 0.0556 0.1667  plane waves:    8164
 k-point 61 :   0.3333 0.0556 0.1667  plane waves:    8172
 k-point 62 :   0.3889 0.0556 0.1667  plane waves:    8173
 k-point 63 :   0.4444 0.0556 0.1667  plane waves:    8188
 k-point 64 :   0.5000 0.0556 0.1667  plane waves:    8188
 k-point 65 :  -0.4444 0.0556 0.1667  plane waves:    8173
 k-point 66 :  -0.3889 0.0556 0.1667  plane waves:    8172
 k-point 67 :  -0.3333 0.0556 0.1667  plane waves:    8164
 k-point 68 :  -0.2778 0.0556 0.1667  plane waves:    8150
 k-point 69 :  -0.2222 0.0556 0.1667  plane waves:    8129
 k-point 70 :  -0.1667 0.0556 0.1667  plane waves:    8112
 k-point 71 :   0.1111 0.1111 0.1667  plane waves:    8138
 k-point 72 :   0.1667 0.1111 0.1667  plane waves:    8152
 k-point 73 :   0.2222 0.1111 0.1667  plane waves:    8171
 k-point 74 :   0.2778 0.1111 0.1667  plane waves:    8179
 k-point 75 :   0.3333 0.1111 0.1667  plane waves:    8185
 k-point 76 :   0.3889 0.1111 0.1667  plane waves:    8184
 k-point 77 :   0.4444 0.1111 0.1667  plane waves:    8185
 k-point 78 :   0.5000 0.1111 0.1667  plane waves:    8184
 k-point 79 :  -0.4444 0.1111 0.1667  plane waves:    8185
 k-point 80 :  -0.3889 0.1111 0.1667  plane waves:    8179
 k-point 81 :  -0.3333 0.1111 0.1667  plane waves:    8171
 k-point 82 :  -0.2778 0.1111 0.1667  plane waves:    8152
 k-point 83 :   0.1667 0.1667 0.1667  plane waves:    8163
 k-point 84 :   0.2222 0.1667 0.1667  plane waves:    8178
 k-point 85 :   0.2778 0.1667 0.1667  plane waves:    8182
 k-point 86 :   0.3333 0.1667 0.1667  plane waves:    8186
 k-point 87 :   0.3889 0.1667 0.1667  plane waves:    8200
 k-point 88 :   0.4444 0.1667 0.1667  plane waves:    8200
 k-point 89 :   0.5000 0.1667 0.1667  plane waves:    8186
 k-point 90 :  -0.4444 0.1667 0.1667  plane waves:    8182
 k-point 91 :  -0.3889 0.1667 0.1667  plane waves:    8178
 k-point 92 :   0.2222 0.2222 0.1667  plane waves:    8171
 k-point 93 :   0.2778 0.2222 0.1667  plane waves:    8185
 k-point 94 :   0.3333 0.2222 0.1667  plane waves:    8198
 k-point 95 :   0.3889 0.2222 0.1667  plane waves:    8216
 k-point 96 :   0.4444 0.2222 0.1667  plane waves:    8198
 k-point 97 :   0.5000 0.2222 0.1667  plane waves:    8185
 k-point 98 :   0.2778 0.2778 0.1667  plane waves:    8198
 k-point 99 :   0.3333 0.2778 0.1667  plane waves:    8216
 k-point ** :   0.3889 0.2778 0.1667  plane waves:    8216
 k-point ** :   0.3333 0.3333 0.1667  plane waves:    8208
 k-point ** :   0.0000 0.0000 0.3333  plane waves:    8142
 k-point ** :   0.0556 0.0000 0.3333  plane waves:    8113
 k-point ** :   0.1111 0.0000 0.3333  plane waves:    8113
 k-point ** :   0.1667 0.0000 0.3333  plane waves:    8137
 k-point ** :   0.2222-0.0000 0.3333  plane waves:    8159
 k-point ** :   0.2778 0.0000 0.3333  plane waves:    8154
 k-point ** :   0.3333-0.0000 0.3333  plane waves:    8168
 k-point ** :   0.3889 0.0000 0.3333  plane waves:    8166
 k-point ** :   0.4444-0.0000 0.3333  plane waves:    8180
 k-point ** :   0.5000 0.0000 0.3333  plane waves:    8176
 k-point ** :  -0.4444 0.0000 0.3333  plane waves:    8180
 k-point ** :  -0.3889 0.0000 0.3333  plane waves:    8166
 k-point ** :  -0.3333 0.0000 0.3333  plane waves:    8168
 k-point ** :  -0.2778 0.0000 0.3333  plane waves:    8154
 k-point ** :  -0.2222 0.0000 0.3333  plane waves:    8159
 k-point ** :  -0.1667-0.0000 0.3333  plane waves:    8137
 k-point ** :  -0.1111 0.0000 0.3333  plane waves:    8113
 k-point ** :  -0.0556 0.0000 0.3333  plane waves:    8113
 k-point ** :   0.0556 0.0556 0.3333  plane waves:    8102
 k-point ** :   0.1111 0.0556 0.3333  plane waves:    8122
 k-point ** :   0.1667 0.0556 0.3333  plane waves:    8137
 k-point ** :   0.2222 0.0556 0.3333  plane waves:    8158
 k-point ** :   0.2778 0.0556 0.3333  plane waves:    8171
 k-point ** :   0.3333 0.0556 0.3333  plane waves:    8167
 k-point ** :   0.3889 0.0556 0.3333  plane waves:    8173
 k-point ** :   0.4444 0.0556 0.3333  plane waves:    8194
 k-point ** :   0.5000 0.0556 0.3333  plane waves:    8194
 k-point ** :  -0.4444 0.0556 0.3333  plane waves:    8173
 k-point ** :  -0.3889 0.0556 0.3333  plane waves:    8167
 k-point ** :  -0.3333 0.0556 0.3333  plane waves:    8171
 k-point ** :  -0.2778 0.0556 0.3333  plane waves:    8158
 k-point ** :  -0.2222 0.0556 0.3333  plane waves:    8137
 k-point ** :  -0.1667 0.0556 0.3333  plane waves:    8122
 k-point ** :   0.1111 0.1111 0.3333  plane waves:    8129
 k-point ** :   0.1667 0.1111 0.3333  plane waves:    8149
 k-point ** :   0.2222 0.1111 0.3333  plane waves:    8166
 k-point ** :   0.2778 0.1111 0.3333  plane waves:    8178
 k-point ** :   0.3333 0.1111 0.3333  plane waves:    8179
 k-point ** :   0.3889 0.1111 0.3333  plane waves:    8185
 k-point ** :   0.4444 0.1111 0.3333  plane waves:    8199
 k-point ** :   0.5000 0.1111 0.3333  plane waves:    8185
 k-point ** :  -0.4444 0.1111 0.3333  plane waves:    8179
 k-point ** :  -0.3889 0.1111 0.3333  plane waves:    8178
 k-point ** :  -0.3333 0.1111 0.3333  plane waves:    8166
 k-point ** :  -0.2778 0.1111 0.3333  plane waves:    8149
 k-point ** :   0.1667 0.1667 0.3333  plane waves:    8160
 k-point ** :   0.2222 0.1667 0.3333  plane waves:    8179
 k-point ** :   0.2778 0.1667 0.3333  plane waves:    8190
 k-point ** :   0.3333 0.1667 0.3333  plane waves:    8186
 k-point ** :   0.3889 0.1667 0.3333  plane waves:    8200
 k-point ** :   0.4444 0.1667 0.3333  plane waves:    8200
 k-point ** :   0.5000 0.1667 0.3333  plane waves:    8186
 k-point ** :  -0.4444 0.1667 0.3333  plane waves:    8190
 k-point ** :  -0.3889 0.1667 0.3333  plane waves:    8179
 k-point ** :   0.2222 0.2222 0.3333  plane waves:    8178
 k-point ** :   0.2778 0.2222 0.3333  plane waves:    8179
 k-point ** :   0.3333 0.2222 0.3333  plane waves:    8195
 k-point ** :   0.3889 0.2222 0.3333  plane waves:    8203
 k-point ** :   0.4444 0.2222 0.3333  plane waves:    8195
 k-point ** :   0.5000 0.2222 0.3333  plane waves:    8179
 k-point ** :   0.2778 0.2778 0.3333  plane waves:    8203
 k-point ** :   0.3333 0.2778 0.3333  plane waves:    8202
 k-point ** :   0.3889 0.2778 0.3333  plane waves:    8202
 k-point ** :   0.3333 0.3333 0.3333  plane waves:    8232
 k-point ** :  -0.0000-0.0000 0.5000  plane waves:    8142
 k-point ** :   0.0556-0.0000 0.5000  plane waves:    8102
 k-point ** :   0.1111 0.0000 0.5000  plane waves:    8108
 k-point ** :   0.1667 0.0000 0.5000  plane waves:    8132
 k-point ** :   0.2222-0.0000 0.5000  plane waves:    8162
 k-point ** :   0.2778 0.0000 0.5000  plane waves:    8148
 k-point ** :   0.3333-0.0000 0.5000  plane waves:    8164
 k-point ** :   0.3889 0.0000 0.5000  plane waves:    8180
 k-point ** :   0.4444-0.0000 0.5000  plane waves:    8184
 k-point ** :   0.5000 0.0000 0.5000  plane waves:    8184
 k-point ** :   0.0556 0.0556 0.5000  plane waves:    8104
 k-point ** :   0.1111 0.0556 0.5000  plane waves:    8120
 k-point ** :   0.1667 0.0556 0.5000  plane waves:    8134
 k-point ** :   0.2222 0.0556 0.5000  plane waves:    8156
 k-point ** :   0.2778 0.0556 0.5000  plane waves:    8166
 k-point ** :   0.3333 0.0556 0.5000  plane waves:    8160
 k-point ** :   0.3889 0.0556 0.5000  plane waves:    8176
 k-point ** :   0.4444 0.0556 0.5000  plane waves:    8204
 k-point ** :   0.1111 0.1111 0.5000  plane waves:    8108
 k-point ** :   0.1667 0.1111 0.5000  plane waves:    8142
 k-point ** :   0.2222 0.1111 0.5000  plane waves:    8166
 k-point ** :   0.2778 0.1111 0.5000  plane waves:    8170
 k-point ** :   0.3333 0.1111 0.5000  plane waves:    8174
 k-point ** :   0.3889 0.1111 0.5000  plane waves:    8194
 k-point ** :   0.4444 0.1111 0.5000  plane waves:    8202
 k-point ** :   0.1667 0.1667 0.5000  plane waves:    8162
 k-point ** :   0.2222 0.1667 0.5000  plane waves:    8172
 k-point ** :   0.2778 0.1667 0.5000  plane waves:    8186
 k-point ** :   0.3333 0.1667 0.5000  plane waves:    8194
 k-point ** :   0.3889 0.1667 0.5000  plane waves:    8190
 k-point ** :   0.2222 0.2222 0.5000  plane waves:    8188
 k-point ** :   0.2778 0.2222 0.5000  plane waves:    8182
 k-point ** :   0.3333 0.2222 0.5000  plane waves:    8200
 k-point ** :   0.3889 0.2222 0.5000  plane waves:    8204
 k-point ** :   0.2778 0.2778 0.5000  plane waves:    8204
 k-point ** :   0.3333 0.2778 0.5000  plane waves:    8204
 k-point ** :   0.3333 0.3333 0.5000  plane waves:    8250

 maximum and minimum number of plane-waves per node :      8250     8102

 maximum number of plane-waves:      8250
 maximum index in each direction: 
   IXMAX=    7   IYMAX=    7   IZMAX=   44
   IXMIN=   -7   IYMIN=   -7   IZMIN=  -45


 serial   3D FFT for wavefunctions
 parallel 3D FFT for charge:
    minimum data exchange during FFTs selected (reduces bandwidth)


 total amount of memory used by VASP MPI-rank0  1060938. kBytes
=======================================================================

   base      :      30000. kBytes
   nonl-proj :     722300. kBytes
   fftplans  :      21173. kBytes
   grid      :      14726. kBytes
   one-center:        217. kBytes
   wavefun   :     272522. kBytes
 
     INWAV:  cpu time    0.0000: real time    0.0001
 initial charge density was supplied:
 number of electron     124.0000001 magnetization 
 keeping initial charge density in first step


--------------------------------------------------------------------------------------------------------


 Maximum index for augmentation-charges        18491 (set IRDMAX)


--------------------------------------------------------------------------------------------------------


 First call to EWALD:  gamma=   0.259
 Maximum number of real-space cells 5x 5x 1
 Maximum number of reciprocal cells 2x 2x 9

    FEWALD:  cpu time    0.0136: real time    0.0138


--------------------------------------- Iteration      1(   1)  ---------------------------------------


    POTLOK:  cpu time    0.1007: real time    0.1053
    SETDIJ:  cpu time    0.3526: real time    0.3538
     EDDAV:  cpu time   69.7646: real time   74.1523
 BZINTS: Fermi energy: 24.096406;124.000000 electrons
         Band energy: 852.388901;  BLOECHL correction: -0.322807
       DOS:  cpu time    0.3546: real time    0.3554
    --------------------------------------------
      LOOP:  cpu time   70.5726: real time   74.9668

 eigenvalue-minimisations  : 32536
 total energy-change (2. order) : 0.1324066E+04  (-0.5286210E+04)
 number of electron     124.0000001 magnetization 
 augmentation part      124.0000001 magnetization 

 Free energy of the ion-electron system (eV)
  ---------------------------------------------------
  alpha Z        PSCENC =       288.02087273
  Ewald energy   TEWEN  =     -7404.59342914
  -Hartree energ DENC   =     -4521.65054028
  -exchange      EXHF   =         0.00000000
  -V(xc)+E(xc)   XCENC  =       381.54094076
  PAW double counting   =     16265.55345671   -16556.73220832
  entropy T*S    EENTRO =         0.00000000
  eigenvalues    EBANDS =       852.38890054
  atomic energy  EATOM  =     12019.53804467
  Solvation  Ediel_sol  =         0.00000000
  ---------------------------------------------------
  free energy    TOTEN  =      1324.06603768 eV

  energy without entropy =     1324.06603768  energy(sigma->0) =     1324.06603768


--------------------------------------------------------------------------------------------------------




--------------------------------------- Iteration      1(   2)  ---------------------------------------


     EDDAV:  cpu time   65.6089: real time   69.1345
 BZINTS: Fermi energy:  9.877630;124.000000 electrons
         Band energy:-274.634733;  BLOECHL correction: -0.099499
       DOS:  cpu time    0.3473: real time    0.4521
    --------------------------------------------
      LOOP:  cpu time   65.9562: real time   69.5865

 eigenvalue-minimisations  : 32368
 total energy-change (2. order) :-0.1127024E+04  (-0.1081157E+04)
 number of electron     124.0000001 magnetization 
 augmentation part      124.0000001 magnetization 

 Free energy of the ion-electron system (eV)
  ---------------------------------------------------
  alpha Z        PSCENC =       288.02087273
  Ewald energy   TEWEN  =     -7404.59342914
  -Hartree energ DENC   =     -4521.65054028
  -exchange      EXHF   =         0.00000000
  -V(xc)+E(xc)   XCENC  =       381.54094076
  PAW double counting   =     16265.55345671   -16556.73220832
  entropy T*S    EENTRO =         0.00000000
  eigenvalues    EBANDS =      -274.63473346
  atomic energy  EATOM  =     12019.53804467
  Solvation  Ediel_sol  =         0.00000000
  ---------------------------------------------------
  free energy    TOTEN  =       197.04240368 eV

  energy without entropy =      197.04240368  energy(sigma->0) =      197.04240368


--------------------------------------------------------------------------------------------------------




--------------------------------------- Iteration      1(   3)  ---------------------------------------


     EDDAV:  cpu time   73.5957: real time   78.2870
 BZINTS: Fermi energy:  4.991492;124.000000 electrons
         Band energy:-503.608911;  BLOECHL correction: -0.000004
       DOS:  cpu time    0.3509: real time    0.3517
    --------------------------------------------
      LOOP:  cpu time   73.9466: real time   78.6387

 eigenvalue-minimisations  : 36864
 total energy-change (2. order) :-0.2289742E+03  (-0.2178865E+03)
 number of electron     124.0000001 magnetization 
 augmentation part      124.0000001 magnetization 

 Free energy of the ion-electron system (eV)
  ---------------------------------------------------
  alpha Z        PSCENC =       288.02087273
  Ewald energy   TEWEN  =     -7404.59342914
  -Hartree energ DENC   =     -4521.65054028
  -exchange      EXHF   =         0.00000000
  -V(xc)+E(xc)   XCENC  =       381.54094076
  PAW double counting   =     16265.55345671   -16556.73220832
  entropy T*S    EENTRO =         0.00000000
  eigenvalues    EBANDS =      -503.60891058
  atomic energy  EATOM  =     12019.53804467
  Solvation  Ediel_sol  =         0.00000000
  ---------------------------------------------------
  free energy    TOTEN  =       -31.93177343 eV

  energy without entropy =      -31.93177343  energy(sigma->0) =      -31.93177343


--------------------------------------------------------------------------------------------------------




--------------------------------------- Iteration      1(   4)  ---------------------------------------


     EDDAV:  cpu time   78.5557: real time   83.8382
 BZINTS: Fermi energy:  4.197606;124.000000 electrons
         Band energy:-524.005837;  BLOECHL correction:  0.000000
       DOS:  cpu time    0.1384: real time    0.1387
    --------------------------------------------
      LOOP:  cpu time   78.6941: real time   83.9769

 eigenvalue-minimisations  : 39792
 total energy-change (2. order) :-0.2039693E+02  (-0.2006079E+02)
 number of electron     124.0000001 magnetization 
 augmentation part      124.0000001 magnetization 

 Free energy of the ion-electron system (eV)
  ---------------------------------------------------
  alpha Z        PSCENC =       288.02087273
  Ewald energy   TEWEN  =     -7404.59342914
  -Hartree energ DENC   =     -4521.65054028
  -exchange      EXHF   =         0.00000000
  -V(xc)+E(xc)   XCENC  =       381.54094076
  PAW double counting   =     16265.55345671   -16556.73220832
  entropy T*S    EENTRO =         0.00000000
  eigenvalues    EBANDS =      -524.00583665
  atomic energy  EATOM  =     12019.53804467
  Solvation  Ediel_sol  =         0.00000000
  ---------------------------------------------------
  free energy    TOTEN  =       -52.32869951 eV

  energy without entropy =      -52.32869951  energy(sigma->0) =      -52.32869951


--------------------------------------------------------------------------------------------------------




--------------------------------------- Iteration      1(   5)  ---------------------------------------


     EDDAV:  cpu time   82.9246: real time   86.6055
 BZINTS: Fermi energy:  4.170957;124.000000 electrons
         Band energy:-524.928804;  BLOECHL correction:  0.000000
       DOS:  cpu time    0.1342: real time    0.1604
    --------------------------------------------
      LOOP:  cpu time   83.0588: real time   86.7660

 eigenvalue-minimisations  : 43816
 total energy-change (2. order) :-0.9229673E+00  (-0.9200383E+00)
 number of electron     124.0000001 magnetization 
 augmentation part      124.0000001 magnetization 

 Free energy of the ion-electron system (eV)
  ---------------------------------------------------
  alpha Z        PSCENC =       288.02087273
  Ewald energy   TEWEN  =     -7404.59342914
  -Hartree energ DENC   =     -4521.65054028
  -exchange      EXHF   =         0.00000000
  -V(xc)+E(xc)   XCENC  =       381.54094076
  PAW double counting   =     16265.55345671   -16556.73220832
  entropy T*S    EENTRO =         0.00000000
  eigenvalues    EBANDS =      -524.92880395
  atomic energy  EATOM  =     12019.53804467
  Solvation  Ediel_sol  =         0.00000000
  ---------------------------------------------------
  free energy    TOTEN  =       -53.25166681 eV

  energy without entropy =      -53.25166681  energy(sigma->0) =      -53.25166681


--------------------------------------------------------------------------------------------------------




--------------------------------------- Iteration      1(   6)  ---------------------------------------


     EDDAV:  cpu time   91.1045: real time   94.9564
 BZINTS: Fermi energy:  4.167242;124.000000 electrons
         Band energy:-524.969655;  BLOECHL correction:  0.000000
       DOS:  cpu time    0.1141: real time    0.1143
    --------------------------------------------
      LOOP:  cpu time   91.2185: real time   95.0708

 eigenvalue-minimisations  : 49056
 total energy-change (2. order) :-0.4085102E-01  (-0.4083992E-01)
 number of electron     124.0000001 magnetization 
 augmentation part      124.0000001 magnetization 

 Free energy of the ion-electron system (eV)
  ---------------------------------------------------
  alpha Z        PSCENC =       288.02087273
  Ewald energy   TEWEN  =     -7404.59342914
  -Hartree energ DENC   =     -4521.65054028
  -exchange      EXHF   =         0.00000000
  -V(xc)+E(xc)   XCENC  =       381.54094076
  PAW double counting   =     16265.55345671   -16556.73220832
  entropy T*S    EENTRO =         0.00000000
  eigenvalues    EBANDS =      -524.96965496
  atomic energy  EATOM  =     12019.53804467
  Solvation  Ediel_sol  =         0.00000000
  ---------------------------------------------------
  free energy    TOTEN  =       -53.29251782 eV

  energy without entropy =      -53.29251782  energy(sigma->0) =      -53.29251782


--------------------------------------------------------------------------------------------------------




--------------------------------------- Iteration      1(   7)  ---------------------------------------


     EDDAV:  cpu time   94.2718: real time  100.6015
 BZINTS: Fermi energy:  4.166741;124.000000 electrons
         Band energy:-524.970468;  BLOECHL correction:  0.000000
       DOS:  cpu time    0.1155: real time    0.1157
    --------------------------------------------
      LOOP:  cpu time   94.3872: real time  100.7173

 eigenvalue-minimisations  : 50008
 total energy-change (2. order) :-0.8127792E-03  (-0.8127103E-03)
 number of electron     124.0000001 magnetization 
 augmentation part      124.0000001 magnetization 

 Free energy of the ion-electron system (eV)
  ---------------------------------------------------
  alpha Z        PSCENC =       288.02087273
  Ewald energy   TEWEN  =     -7404.59342914
  -Hartree energ DENC   =     -4521.65054028
  -exchange      EXHF   =         0.00000000
  -V(xc)+E(xc)   XCENC  =       381.54094076
  PAW double counting   =     16265.55345671   -16556.73220832
  entropy T*S    EENTRO =         0.00000000
  eigenvalues    EBANDS =      -524.97046774
  atomic energy  EATOM  =     12019.53804467
  Solvation  Ediel_sol  =         0.00000000
  ---------------------------------------------------
  free energy    TOTEN  =       -53.29333060 eV

  energy without entropy =      -53.29333060  energy(sigma->0) =      -53.29333060


--------------------------------------------------------------------------------------------------------




--------------------------------------- Iteration      1(   8)  ---------------------------------------


     EDDAV:  cpu time  100.1858: real time  104.1594
 BZINTS: Fermi energy:  4.170835;124.000000 electrons
         Band energy:-524.970498;  BLOECHL correction:  0.000000
       DOS:  cpu time    0.1303: real time    0.1440
    --------------------------------------------
      LOOP:  cpu time  100.3162: real time  104.3034

 eigenvalue-minimisations  : 49408
 total energy-change (2. order) :-0.3005686E-04  (-0.3005620E-04)
 number of electron     124.0000001 magnetization 
 augmentation part      124.0000001 magnetization 

 Free energy of the ion-electron system (eV)
  ---------------------------------------------------
  alpha Z        PSCENC =       288.02087273
  Ewald energy   TEWEN  =     -7404.59342914
  -Hartree energ DENC   =     -4521.65054028
  -exchange      EXHF   =         0.00000000
  -V(xc)+E(xc)   XCENC  =       381.54094076
  PAW double counting   =     16265.55345671   -16556.73220832
  entropy T*S    EENTRO =         0.00000000
  eigenvalues    EBANDS =      -524.97049780
  atomic energy  EATOM  =     12019.53804467
  Solvation  Ediel_sol  =         0.00000000
  ---------------------------------------------------
  free energy    TOTEN  =       -53.29336066 eV

  energy without entropy =      -53.29336066  energy(sigma->0) =      -53.29336066


--------------------------------------------------------------------------------------------------------




--------------------------------------- Iteration      1(   9)  ---------------------------------------


     EDDAV:  cpu time   92.4385: real time   95.4988
 BZINTS: Fermi energy:  4.166550;124.000000 electrons
         Band energy:-524.970499;  BLOECHL correction:  0.000000
       DOS:  cpu time    0.1050: real time    0.1053
    --------------------------------------------
      LOOP:  cpu time   92.5435: real time   95.6040

 eigenvalue-minimisations  : 50032
 total energy-change (2. order) :-0.9612068E-06  (-0.9611687E-06)
 number of electron     124.0000001 magnetization 
 augmentation part      124.0000001 magnetization 

 Free energy of the ion-electron system (eV)
  ---------------------------------------------------
  alpha Z        PSCENC =       288.02087273
  Ewald energy   TEWEN  =     -7404.59342914
  -Hartree energ DENC   =     -4521.65054028
  -exchange      EXHF   =         0.00000000
  -V(xc)+E(xc)   XCENC  =       381.54094076
  PAW double counting   =     16265.55345671   -16556.73220832
  entropy T*S    EENTRO =         0.00000000
  eigenvalues    EBANDS =      -524.97049876
  atomic energy  EATOM  =     12019.53804467
  Solvation  Ediel_sol  =         0.00000000
  ---------------------------------------------------
  free energy    TOTEN  =       -53.29336162 eV

  energy without entropy =      -53.29336162  energy(sigma->0) =      -53.29336162


--------------------------------------------------------------------------------------------------------




--------------------------------------- Iteration      1(  10)  ---------------------------------------


     EDDAV:  cpu time   74.5474: real time   77.1449
 BZINTS: Fermi energy:  4.163632;124.000000 electrons
         Band energy:-524.970499;  BLOECHL correction:  0.000000
       DOS:  cpu time    0.1105: real time    0.1108
    --------------------------------------------
      LOOP:  cpu time   74.6579: real time   77.2557

 eigenvalue-minimisations  : 36528
 total energy-change (2. order) :-0.3985588E-07  (-0.3983055E-07)
 number of electron     124.0000001 magnetization 
 augmentation part      124.0000001 magnetization 

 Free energy of the ion-electron system (eV)
  ---------------------------------------------------
  alpha Z        PSCENC =       288.02087273
  Ewald energy   TEWEN  =     -7404.59342914
  -Hartree energ DENC   =     -4521.65054028
  -exchange      EXHF   =         0.00000000
  -V(xc)+E(xc)   XCENC  =       381.54094076
  PAW double counting   =     16265.55345671   -16556.73220832
  entropy T*S    EENTRO =         0.00000000
  eigenvalues    EBANDS =      -524.97049880
  atomic energy  EATOM  =     12019.53804467
  Solvation  Ediel_sol  =         0.00000000
  ---------------------------------------------------
  free energy    TOTEN  =       -53.29336166 eV

  energy without entropy =      -53.29336166  energy(sigma->0) =      -53.29336166


--------------------------------------------------------------------------------------------------------




 average (electrostatic) potential at core
  the test charge radii are     1.0774  0.9698  0.9521
  (the norm of the test charge is              1.0000)
       1 -96.6294       2 -96.6294       3 -97.6509       4 -97.6509       5 -86.9722
       6 -86.9722       7 -87.9391       8 -87.9391       9 -86.4948      10 -86.4948
      11 -86.2544      12 -86.2544      13 -34.1552      14 -34.1552
 
 
 
 E-fermi :   4.1636     XC(G=0):  -9.3624     alpha+bet : -9.9930


 k-point     1 :       0.0000    0.0000    0.0000
  band No.  band energies     occupation 
      1     -11.1992      2.00000
      2     -11.1987      2.00000
      3     -11.0073      2.00000
      4     -11.0073      2.00000
      5     -11.0069      2.00000
      6     -11.0069      2.00000
      7     -10.8427      2.00000
      8     -10.8427      2.00000
      9     -10.8425      2.00000
     10     -10.8425      2.00000
     11      -9.9916      2.00000
     12      -9.9599      2.00000
     13      -9.9599      2.00000
     14      -9.9599      2.00000
     15      -9.9599      2.00000
     16      -9.9583      2.00000
     17      -9.9458      2.00000
     18      -9.8115      2.00000
     19      -9.8115      2.00000
     20      -9.8115      2.00000
     21      -9.8115      2.00000
     22      -9.7270      2.00000
     23      -8.8823      2.00000
     24      -8.8217      2.00000
     25      -8.6402      2.00000
     26      -8.0271      2.00000
     27      -7.7857      2.00000
     28      -7.7071      2.00000
     29      -2.2207      2.00000
     30      -2.2207      2.00000
     31      -2.1255      2.00000
     32      -2.1255      2.00000
     33      -2.0940      2.00000
     34      -1.8876      2.00000
     35      -1.7242      2.00000
     36      -1.7241      2.00000
     37      -1.6649      2.00000
     38      -1.5687      2.00000
     39      -1.4593      2.00000
     40      -1.4592      2.00000
     41      -0.0971      2.00000
     42       0.4747      2.00000
     43       0.6820      2.00000
     44       1.7419      2.00000
     45       1.7419      2.00000
     46       1.9173      2.00000
     47       1.9173      2.00000
     48       2.4434      2.00000
     49       2.5878      2.00000
     50       2.9931      2.00000
     51       2.9931      2.00000
     52       2.9985      2.00000
     53       2.9985      2.00000
     54       3.3023      2.00000
     55       3.3024      2.00000
     56       3.3307      2.00000
     57       3.3307      2.00000
     58       3.5388      2.00000
     59       3.5388      2.00000
     60       3.9779      2.00000
     61       4.1211      2.00000
     62       4.1212      2.00000
     63       4.4667      0.00000
     64       5.2272      0.00000
     65       6.1596      0.00000
     66       6.2965      0.00000
     67       6.7425      0.00000
     68       7.4463      0.00000
     69       7.6993      0.00000
     70       7.7005      0.00000
     71       8.7249      0.00000
     72       8.7463      0.00000
     73       8.7464      0.00000
     74       8.9708      0.00000
     75       8.9708      0.00000
     76       9.1766      0.00000
     77       9.8804      0.00000
     78       9.8811      0.00000
     79       9.8986      0.00000
     80       9.8992      0.00000

 k-point     2 :       0.0556   -0.0000   -0.0000
  band No.  band energies     occupation 
      1     -11.2006      2.00000
      2     -11.2003      2.00000
      3     -11.0186      2.00000
      4     -11.0169      2.00000
      5     -11.0046      2.00000
      6     -11.0041      2.00000
      7     -10.8466      2.00000
      8     -10.8461      2.00000
      9     -10.8427      2.00000
     10     -10.8424      2.00000
     11      -9.9872      2.00000
     12      -9.9871      2.00000
     13      -9.9599      2.00000
     14      -9.9577      2.00000
     15      -9.9577      2.00000
     16      -9.9400      2.00000
     17      -9.9168      2.00000
     18      -9.8142      2.00000
     19      -9.8132      2.00000
     20      -9.8108      2.00000
     21      -9.8108      2.00000
     22      -9.6887      2.00000
     23      -8.8612      2.00000
     24      -8.8006      2.00000
     25      -8.6201      2.00000
     26      -8.0091      2.00000
     27      -7.7567      2.00000
     28      -7.6829      2.00000
     29      -2.2235      2.00000
     30      -2.2130      2.00000
     31      -2.1244      2.00000
     32      -2.1176      2.00000
     33      -2.0745      2.00000
     34      -1.8838      2.00000
     35      -1.7395      2.00000
     36      -1.7263      2.00000
     37      -1.6412      2.00000
     38      -1.5719      2.00000
     39      -1.4688      2.00000
     40      -1.4590      2.00000
     41      -0.0761      2.00000
     42       0.4796      2.00000
     43       0.6215      2.00000
     44       1.6228      2.00000
     45       1.7011      2.00000
     46       1.7028      2.00000
     47       1.8847      2.00000
     48       2.3833      2.00000
     49       2.5705      2.00000
     50       2.8179      2.00000
     51       2.8946      2.00000
     52       2.9209      2.00000
     53       2.9237      2.00000
     54       3.1943      2.00000
     55       3.2402      2.00000
     56       3.3109      2.00000
     57       3.3271      2.00000
     58       3.3532      2.00000
     59       3.5010      2.00000
     60       3.9421      2.00000
     61       4.0629      2.00000
     62       4.0854      2.00000
     63       4.6490      0.00000
     64       5.3201      0.00000
     65       6.3185      0.00000
     66       6.4071      0.00000
     67       6.9324      0.00000
     68       7.5853      0.00000
     69       7.8307      0.00000
     70       7.8396      0.00000
     71       8.5127      0.00000
     72       8.5970      0.00000
     73       8.8005      0.00000
     74       8.9900      0.00000
     75       9.0210      0.00000
     76       9.1870      0.00000
     77       9.8811      0.00000
     78       9.9148      0.00000
     79       9.9580      0.00000
     80       9.9742      0.00000

 k-point     3 :       0.1111   -0.0000   -0.0000
  band No.  band energies     occupation 
      1     -11.2077      2.00000
      2     -11.2068      2.00000
      3     -11.0469      2.00000
      4     -11.0408      2.00000
      5     -10.9966      2.00000
      6     -10.9961      2.00000
      7     -10.8555      2.00000
      8     -10.8541      2.00000
      9     -10.8425      2.00000
     10     -10.8422      2.00000
     11     -10.0323      2.00000
     12     -10.0316      2.00000
     13      -9.9515      2.00000
     14      -9.9515      2.00000
     15      -9.9227      2.00000
     16      -9.9198      2.00000
     17      -9.8284      2.00000
     18      -9.8196      2.00000
     19      -9.8087      2.00000
     20      -9.8087      2.00000
     21      -9.8053      2.00000
     22      -9.5818      2.00000
     23      -8.7980      2.00000
     24      -8.7378      2.00000
     25      -8.5611      2.00000
     26      -7.9592      2.00000
     27      -7.6746      2.00000
     28      -7.6129      2.00000
     29      -2.2304      2.00000
     30      -2.1907      2.00000
     31      -2.1203      2.00000
     32      -2.0946      2.00000
     33      -2.0198      2.00000
     34      -1.8793      2.00000
     35      -1.7570      2.00000
     36      -1.7325      2.00000
     37      -1.6000      2.00000
     38      -1.5844      2.00000
     39      -1.4894      2.00000
     40      -1.4586      2.00000
     41      -0.0310      2.00000
     42       0.4265      2.00000
     43       0.4937      2.00000
     44       1.1859      2.00000
     45       1.3803      2.00000
     46       1.5949      2.00000
     47       1.7919      2.00000
     48       2.1217      2.00000
     49       2.4012      2.00000
     50       2.4456      2.00000
     51       2.6215      2.00000
     52       2.7507      2.00000
     53       2.7548      2.00000
     54       2.9431      2.00000
     55       2.9660      2.00000
     56       3.0443      2.00000
     57       3.2447      2.00000
     58       3.3806      2.00000
     59       3.4482      2.00000
     60       3.6063      2.00000
     61       3.9848      2.00000
     62       4.1420      2.00000
     63       5.0235      0.00000
     64       5.5334      0.00000
     65       6.6376      0.00000
     66       6.6582      0.00000
     67       7.3680      0.00000
     68       7.9011      0.00000
     69       7.9774      0.00000
     70       8.1111      0.00000
     71       8.2763      0.00000
     72       8.4147      0.00000
     73       8.9279      0.00000
     74       8.9510      0.00000
     75       9.1523      0.00000
     76       9.1622      0.00000
     77       9.9341      0.00000
     78      10.0743      0.00000
     79      10.1731      0.00000
     80      10.2305      0.00000

 k-point     4 :       0.1667    0.0000   -0.0000
  band No.  band energies     occupation 
      1     -11.2272      2.00000
      2     -11.2233      2.00000
      3     -11.0748      2.00000
      4     -11.0664      2.00000
      5     -10.9849      2.00000
      6     -10.9844      2.00000
      7     -10.8650      2.00000
      8     -10.8632      2.00000
      9     -10.8416      2.00000
     10     -10.8413      2.00000
     11     -10.0904      2.00000
     12     -10.0900      2.00000
     13      -9.9430      2.00000
     14      -9.9430      2.00000
     15      -9.8986      2.00000
     16      -9.8982      2.00000
     17      -9.8256      2.00000
     18      -9.8252      2.00000
     19      -9.8043      2.00000
     20      -9.8043      2.00000
     21      -9.6410      2.00000
     22      -9.4202      2.00000
     23      -8.6946      2.00000
     24      -8.6353      2.00000
     25      -8.4671      2.00000
     26      -7.8866      2.00000
     27      -7.5522      2.00000
     28      -7.5052      2.00000
     29      -2.2366      2.00000
     30      -2.1555      2.00000
     31      -2.1108      2.00000
     32      -2.0583      2.00000
     33      -1.9442      2.00000
     34      -1.8858      2.00000
     35      -1.7710      2.00000
     36      -1.7418      2.00000
     37      -1.6190      2.00000
     38      -1.5537      2.00000
     39      -1.5046      2.00000
     40      -1.4583      2.00000
     41      -0.0329      2.00000
     42       0.1070      2.00000
     43       0.5192      2.00000
     44       0.6145      2.00000
     45       1.0770      2.00000
     46       1.4404      2.00000
     47       1.6538      2.00000
     48       1.6917      2.00000
     49       1.8866      2.00000
     50       2.0479      2.00000
     51       2.3094      2.00000
     52       2.5375      2.00000
     53       2.5471      2.00000
     54       2.6368      2.00000
     55       2.6999      2.00000
     56       2.8268      2.00000
     57       3.0528      2.00000
     58       3.3726      2.00000
     59       3.3805      2.00000
     60       3.4298      2.00000
     61       3.8384      2.00000
     62       4.1431      2.00000
     63       5.4109      0.00000
     64       5.7372      0.00000
     65       6.8152      0.00000
     66       6.8461      0.00000
     67       7.6417      0.00000
     68       7.7902      0.00000
     69       7.9144      0.00000
     70       8.2597      0.00000
     71       8.5568      0.00000
     72       8.6687      0.00000
     73       8.9982      0.00000
     74       9.1627      0.00000
     75       9.3066      0.00000
     76       9.3119      0.00000
     77       9.9456      0.00000
     78      10.1772      0.00000
     79      10.3968      0.00000
     80      10.5028      0.00000

 k-point     5 :       0.2222   -0.0000   -0.0000
  band No.  band energies     occupation 
      1     -11.2617      2.00000
      2     -11.2539      2.00000
      3     -11.0895      2.00000
      4     -11.0820      2.00000
      5     -10.9714      2.00000
      6     -10.9707      2.00000
      7     -10.8736      2.00000
      8     -10.8719      2.00000
      9     -10.8396      2.00000
     10     -10.8393      2.00000
     11     -10.1545      2.00000
     12     -10.1544      2.00000
     13      -9.9342      2.00000
     14      -9.9342      2.00000
     15      -9.8794      2.00000
     16      -9.8793      2.00000
     17      -9.8281      2.00000
     18      -9.8280      2.00000
     19      -9.7971      2.00000
     20      -9.7971      2.00000
     21      -9.4260      2.00000
     22      -9.2191      2.00000
     23      -8.5564      2.00000
     24      -8.4994      2.00000
     25      -8.3449      2.00000
     26      -7.8021      2.00000
     27      -7.4066      2.00000
     28      -7.3738      2.00000
     29      -2.2352      2.00000
     30      -2.1106      2.00000
     31      -2.0925      2.00000
     32      -2.0121      2.00000
     33      -1.9048      2.00000
     34      -1.8802      2.00000
     35      -1.8190      2.00000
     36      -1.7528      2.00000
     37      -1.6639      2.00000
     38      -1.5235      2.00000
     39      -1.5005      2.00000
     40      -1.4585      2.00000
     41      -0.3233      2.00000
     42      -0.1777      2.00000
     43       0.1393      2.00000
     44       0.5398      2.00000
     45       0.8037      2.00000
     46       1.2238      2.00000
     47       1.2648      2.00000
     48       1.3232      2.00000
     49       1.4916      2.00000
     50       1.6019      2.00000
     51       2.0282      2.00000
     52       2.2493      2.00000
     53       2.3141      2.00000
     54       2.3296      2.00000
     55       2.3909      2.00000
     56       2.7848      2.00000
     57       2.8110      2.00000
     58       3.2835      2.00000
     59       3.3480      2.00000
     60       3.4056      2.00000
     61       3.6750      2.00000
     62       4.0764      2.00000
     63       5.6990      0.00000
     64       5.8302      0.00000
     65       6.6931      0.00000
     66       6.7902      0.00000
     67       7.3582      0.00000
     68       7.6977      0.00000
     69       7.9907      0.00000
     70       8.5102      0.00000
     71       8.7447      0.00000
     72       8.8686      0.00000
     73       9.3793      0.00000
     74       9.3842      0.00000
     75       9.4345      0.00000
     76       9.7390      0.00000
     77       9.7913      0.00000
     78      10.5793      0.00000
     79      10.7494      0.00000
     80      10.8395      0.00000

 k-point     6 :       0.2778    0.0000    0.0000
  band No.  band energies     occupation 
      1     -11.3030      2.00000
      2     -11.2929      2.00000
      3     -11.0925      2.00000
      4     -11.0867      2.00000
      5     -10.9583      2.00000
      6     -10.9576      2.00000
      7     -10.8813      2.00000
      8     -10.8797      2.00000
      9     -10.8359      2.00000
     10     -10.8356      2.00000
     11     -10.2170      2.00000
     12     -10.2170      2.00000
     13      -9.9272      2.00000
     14      -9.9272      2.00000
     15      -9.8693      2.00000
     16      -9.8693      2.00000
     17      -9.8235      2.00000
     18      -9.8235      2.00000
     19      -9.7870      2.00000
     20      -9.7870      2.00000
     21      -9.1861      2.00000
     22      -8.9952      2.00000
     23      -8.3943      2.00000
     24      -8.3427      2.00000
     25      -8.2048      2.00000
     26      -7.7166      2.00000
     27      -7.2566      2.00000
     28      -7.2361      2.00000
     29      -2.2191      2.00000
     30      -2.0635      2.00000
     31      -2.0596      2.00000
     32      -1.9891      2.00000
     33      -1.9615      2.00000
     34      -1.9012      2.00000
     35      -1.8821      2.00000
     36      -1.7641      2.00000
     37      -1.7084      2.00000
     38      -1.5290      2.00000
     39      -1.4600      2.00000
     40      -1.4593      2.00000
     41      -0.7109      2.00000
     42      -0.6111      2.00000
     43      -0.0863      2.00000
     44       0.4132      2.00000
     45       0.6346      2.00000
     46       0.7525      2.00000
     47       0.9069      2.00000
     48       1.0913      2.00000
     49       1.1963      2.00000
     50       1.3273      2.00000
     51       1.8408      2.00000
     52       1.8649      2.00000
     53       2.1027      2.00000
     54       2.1242      2.00000
     55       2.1696      2.00000
     56       2.5650      2.00000
     57       2.7864      2.00000
     58       3.2403      2.00000
     59       3.2808      2.00000
     60       3.3710      2.00000
     61       3.5294      2.00000
     62       3.9571      2.00000
     63       5.7795      0.00000
     64       5.8270      0.00000
     65       6.4668      0.00000
     66       6.5964      0.00000
     67       7.1381      0.00000
     68       7.4679      0.00000
     69       7.9691      0.00000
     70       8.6137      0.00000
     71       8.8866      0.00000
     72       8.9369      0.00000
     73       9.4817      0.00000
     74       9.5648      0.00000
     75       9.6657      0.00000
     76       9.7716      0.00000
     77      10.1690      0.00000
     78      10.6419      0.00000
     79      10.7197      0.00000
     80      10.9266      0.00000

 k-point     7 :       0.3333   -0.0000    0.0000
  band No.  band energies     occupation 
      1     -11.3414      2.00000
      2     -11.3312      2.00000
      3     -11.0905      2.00000
      4     -11.0859      2.00000
      5     -10.9477      2.00000
      6     -10.9470      2.00000
      7     -10.8877      2.00000
      8     -10.8862      2.00000
      9     -10.8306      2.00000
     10     -10.8304      2.00000
     11     -10.2714      2.00000
     12     -10.2713      2.00000
     13      -9.9225      2.00000
     14      -9.9225      2.00000
     15      -9.8688      2.00000
     16      -9.8688      2.00000
     17      -9.8122      2.00000
     18      -9.8122      2.00000
     19      -9.7753      2.00000
     20      -9.7753      2.00000
     21      -8.9411      2.00000
     22      -8.7694      2.00000
     23      -8.2264      2.00000
     24      -8.1844      2.00000
     25      -8.0609      2.00000
     26      -7.6419      2.00000
     27      -7.1205      2.00000
     28      -7.1101      2.00000
     29      -2.2214      2.00000
     30      -2.1842      2.00000
     31      -2.0291      2.00000
     32      -2.0125      2.00000
     33      -2.0076      2.00000
     34      -1.9188      2.00000
     35      -1.9137      2.00000
     36      -1.7741      2.00000
     37      -1.7420      2.00000
     38      -1.5435      2.00000
     39      -1.4601      2.00000
     40      -1.4171      2.00000
     41      -1.0646      2.00000
     42      -1.0157      2.00000
     43      -0.1803      2.00000
     44       0.1505      2.00000
     45       0.2778      2.00000
     46       0.4997      2.00000
     47       0.7159      2.00000
     48       0.8509      2.00000
     49       0.9383      2.00000
     50       1.1799      2.00000
     51       1.6431      2.00000
     52       1.7864      2.00000
     53       1.9207      2.00000
     54       1.9478      2.00000
     55       1.9583      2.00000
     56       2.3437      2.00000
     57       2.8142      2.00000
     58       3.1818      2.00000
     59       3.2002      2.00000
     60       3.3335      2.00000
     61       3.4295      2.00000
     62       3.8025      2.00000
     63       5.6437      0.00000
     64       5.7956      0.00000
     65       6.2701      0.00000
     66       6.4207      0.00000
     67       6.9649      0.00000
     68       7.2682      0.00000
     69       7.8553      0.00000
     70       8.5630      0.00000
     71       8.8514      0.00000
     72       8.9515      0.00000
     73       9.4652      0.00000
     74       9.6093      0.00000
     75       9.6796      0.00000
     76       9.8670      0.00000
     77      10.2201      0.00000
     78      10.4725      0.00000
     79      10.6836      0.00000
     80      11.1668      0.00000

 k-point     8 :       0.3889    0.0000   -0.0000
  band No.  band energies     occupation 
      1     -11.3711      2.00000
      2     -11.3624      2.00000
      3     -11.0874      2.00000
      4     -11.0834      2.00000
      5     -10.9405      2.00000
      6     -10.9396      2.00000
      7     -10.8926      2.00000
      8     -10.8912      2.00000
      9     -10.8248      2.00000
     10     -10.8246      2.00000
     11     -10.3130      2.00000
     12     -10.3129      2.00000
     13      -9.9200      2.00000
     14      -9.9200      2.00000
     15      -9.8716      2.00000
     16      -9.8716      2.00000
     17      -9.8007      2.00000
     18      -9.8007      2.00000
     19      -9.7644      2.00000
     20      -9.7644      2.00000
     21      -8.7174      2.00000
     22      -8.5689      2.00000
     23      -8.0778      2.00000
     24      -8.0491      2.00000
     25      -7.9308      2.00000
     26      -7.5889      2.00000
     27      -7.0143      2.00000
     28      -7.0107      2.00000
     29      -2.4671      2.00000
     30      -2.2670      2.00000
     31      -2.1316      2.00000
     32      -1.9602      2.00000
     33      -1.9528      2.00000
     34      -1.9322      2.00000
     35      -1.8775      2.00000
     36      -1.7812      2.00000
     37      -1.7565      2.00000
     38      -1.5644      2.00000
     39      -1.4603      2.00000
     40      -1.4008      2.00000
     41      -1.3583      2.00000
     42      -1.3118      2.00000
     43      -0.3150      2.00000
     44      -0.0846      2.00000
     45       0.1550      2.00000
     46       0.2497      2.00000
     47       0.5227      2.00000
     48       0.6588      2.00000
     49       0.8196      2.00000
     50       1.0644      2.00000
     51       1.5586      2.00000
     52       1.7200      2.00000
     53       1.7809      2.00000
     54       1.8130      2.00000
     55       1.8810      2.00000
     56       2.1690      2.00000
     57       2.8509      2.00000
     58       3.0806      2.00000
     59       3.1541      2.00000
     60       3.3009      2.00000
     61       3.3707      2.00000
     62       3.6400      2.00000
     63       5.5123      0.00000
     64       5.6846      0.00000
     65       6.1205      0.00000
     66       6.2902      0.00000
     67       6.8490      0.00000
     68       7.1165      0.00000
     69       7.7354      0.00000
     70       8.4965      0.00000
     71       8.7313      0.00000
     72       8.9075      0.00000
     73       9.4217      0.00000
     74       9.4535      0.00000
     75       9.7361      0.00000
     76       9.8823      0.00000
     77      10.1134      0.00000
     78      10.3202      0.00000
     79      10.6409      0.00000
     80      11.0975      0.00000

 k-point     9 :       0.4444   -0.0000   -0.0000
  band No.  band energies     occupation 
      1     -11.3895      2.00000
      2     -11.3825      2.00000
      3     -11.0850      2.00000
      4     -11.0815      2.00000
      5     -10.9365      2.00000
      6     -10.9356      2.00000
      7     -10.8956      2.00000
      8     -10.8943      2.00000
      9     -10.8203      2.00000
     10     -10.8201      2.00000
     11     -10.3389      2.00000
     12     -10.3389      2.00000
     13      -9.9189      2.00000
     14      -9.9188      2.00000
     15      -9.8741      2.00000
     16      -9.8741      2.00000
     17      -9.7930      2.00000
     18      -9.7930      2.00000
     19      -9.7567      2.00000
     20      -9.7567      2.00000
     21      -8.5515      2.00000
     22      -8.4280      2.00000
     23      -7.9763      2.00000
     24      -7.9599      2.00000
     25      -7.8348      2.00000
     26      -7.5626      2.00000
     27      -6.9481      2.00000
     28      -6.9478      2.00000
     29      -2.6442      2.00000
     30      -2.4729      2.00000
     31      -2.0883      2.00000
     32      -1.9487      2.00000
     33      -1.9243      2.00000
     34      -1.8738      2.00000
     35      -1.8591      2.00000
     36      -1.7841      2.00000
     37      -1.7518      2.00000
     38      -1.5954      2.00000
     39      -1.5544      2.00000
     40      -1.5311      2.00000
     41      -1.4598      2.00000
     42      -1.3791      2.00000
     43      -0.5627      2.00000
     44      -0.0709      2.00000
     45       0.0341      2.00000
     46       0.1534      2.00000
     47       0.3410      2.00000
     48       0.6335      2.00000
     49       0.7447      2.00000
     50       0.9910      2.00000
     51       1.4912      2.00000
     52       1.5521      2.00000
     53       1.6931      2.00000
     54       1.7287      2.00000
     55       2.0073      2.00000
     56       2.0572      2.00000
     57       2.8689      2.00000
     58       3.0094      2.00000
     59       3.1139      2.00000
     60       3.2790      2.00000
     61       3.3386      2.00000
     62       3.5125      2.00000
     63       5.4347      0.00000
     64       5.5777      0.00000
     65       6.0277      0.00000
     66       6.2046      0.00000
     67       6.7881      0.00000
     68       7.0138      0.00000
     69       7.6519      0.00000
     70       8.4627      0.00000
     71       8.6262      0.00000
     72       8.8535      0.00000
     73       9.3178      0.00000
     74       9.3834      0.00000
     75       9.7573      0.00000
     76       9.8648      0.00000
     77      10.0268      0.00000
     78      10.2466      0.00000
     79      10.6215      0.00000
     80      11.0671      0.00000

 k-point    10 :       0.5000    0.0000    0.0000
  band No.  band energies     occupation 
      1     -11.3957      2.00000
      2     -11.3896      2.00000
      3     -11.0841      2.00000
      4     -11.0807      2.00000
      5     -10.9352      2.00000
      6     -10.9343      2.00000
      7     -10.8966      2.00000
      8     -10.8953      2.00000
      9     -10.8186      2.00000
     10     -10.8184      2.00000
     11     -10.3477      2.00000
     12     -10.3477      2.00000
     13      -9.9186      2.00000
     14      -9.9186      2.00000
     15      -9.8751      2.00000
     16      -9.8751      2.00000
     17      -9.7903      2.00000
     18      -9.7903      2.00000
     19      -9.7539      2.00000
     20      -9.7539      2.00000
     21      -8.4878      2.00000
     22      -8.3774      2.00000
     23      -7.9410      2.00000
     24      -7.9293      2.00000
     25      -7.7977      2.00000
     26      -7.5566      2.00000
     27      -6.9263      2.00000
     28      -6.9258      2.00000
     29      -2.7066      2.00000
     30      -2.5539      2.00000
     31      -2.0719      2.00000
     32      -1.9555      2.00000
     33      -1.9099      2.00000
     34      -1.8552      2.00000
     35      -1.8259      2.00000
     36      -1.7843      2.00000
     37      -1.7471      2.00000
     38      -1.6253      2.00000
     39      -1.6242      2.00000
     40      -1.5815      2.00000
     41      -1.4595      2.00000
     42      -1.4000      2.00000
     43      -0.6457      2.00000
     44      -0.1273      2.00000
     45       0.0208      2.00000
     46       0.1560      2.00000
     47       0.2806      2.00000
     48       0.6417      2.00000
     49       0.7191      2.00000
     50       0.9658      2.00000
     51       1.4303      2.00000
     52       1.5106      2.00000
     53       1.6631      2.00000
     54       1.7000      2.00000
     55       2.0187      2.00000
     56       2.0732      2.00000
     57       2.8657      2.00000
     58       2.9841      2.00000
     59       3.0998      2.00000
     60       3.2713      2.00000
     61       3.3282      2.00000
     62       3.4641      2.00000
     63       5.4130      0.00000
     64       5.5326      0.00000
     65       5.9969      0.00000
     66       6.1741      0.00000
     67       6.7706      0.00000
     68       6.9753      0.00000
     69       7.6225      0.00000
     70       8.4563      0.00000
     71       8.5843      0.00000
     72       8.8311      0.00000
     73       9.2656      0.00000
     74       9.3687      0.00000
     75       9.7621      0.00000
     76       9.8538      0.00000
     77       9.9940      0.00000
     78      10.2292      0.00000
     79      10.6235      0.00000
     80      11.0410      0.00000

 k-point    11 :       0.0556    0.0556   -0.0000
  band No.  band energies     occupation 
      1     -11.2048      2.00000
      2     -11.2044      2.00000
      3     -11.0385      2.00000
      4     -11.0335      2.00000
      5     -10.9992      2.00000
      6     -10.9988      2.00000
      7     -10.8529      2.00000
      8     -10.8517      2.00000
      9     -10.8426      2.00000
     10     -10.8424      2.00000
     11     -10.0176      2.00000
     12     -10.0170      2.00000
     13      -9.9569      2.00000
     14      -9.9560      2.00000
     15      -9.9281      2.00000
     16      -9.9240      2.00000
     17      -9.8539      2.00000
     18      -9.8180      2.00000
     19      -9.8143      2.00000
     20      -9.8095      2.00000
     21      -9.8094      2.00000
     22      -9.6164      2.00000
     23      -8.8189      2.00000
     24      -8.7586      2.00000
     25      -8.5806      2.00000
     26      -7.9752      2.00000
     27      -7.7012      2.00000
     28      -7.6358      2.00000
     29      -2.2284      2.00000
     30      -2.1981      2.00000
     31      -2.1218      2.00000
     32      -2.1022      2.00000
     33      -2.0373      2.00000
     34      -1.8798      2.00000
     35      -1.7531      2.00000
     36      -1.7308      2.00000
     37      -1.6105      2.00000
     38      -1.5803      2.00000
     39      -1.4839      2.00000
     40      -1.4586      2.00000
     41      -0.0428      2.00000
     42       0.4892      2.00000
     43       0.4934      2.00000
     44       1.3465      2.00000
     45       1.4448      2.00000
     46       1.6316      2.00000
     47       1.8140      2.00000
     48       2.2296      2.00000
     49       2.4998      2.00000
     50       2.5703      2.00000
     51       2.6819      2.00000
     52       2.6819      2.00000
     53       2.8032      2.00000
     54       3.0385      2.00000
     55       3.1558      2.00000
     56       3.1606      2.00000
     57       3.2832      2.00000
     58       3.3164      2.00000
     59       3.4101      2.00000
     60       3.7086      2.00000
     61       4.0044      2.00000
     62       4.1331      2.00000
     63       4.9184      0.00000
     64       5.4735      0.00000
     65       6.5557      0.00000
     66       6.5900      0.00000
     67       7.2462      0.00000
     68       7.8162      0.00000
     69       8.0408      0.00000
     70       8.0491      0.00000
     71       8.3191      0.00000
     72       8.3505      0.00000
     73       8.9000      0.00000
     74       8.9613      0.00000
     75       9.0114      0.00000
     76       9.2548      0.00000
     77       9.9070      0.00000
     78      10.0036      0.00000
     79      10.1195      0.00000
     80      10.2545      0.00000

 k-point    12 :       0.1111    0.0556    0.0000
  band No.  band energies     occupation 
      1     -11.2183      2.00000
      2     -11.2157      2.00000
      3     -11.0661      2.00000
      4     -11.0580      2.00000
      5     -10.9896      2.00000
      6     -10.9891      2.00000
      7     -10.8614      2.00000
      8     -10.8597      2.00000
      9     -10.8422      2.00000
     10     -10.8420      2.00000
     11     -10.0659      2.00000
     12     -10.0654      2.00000
     13      -9.9528      2.00000
     14      -9.9524      2.00000
     15      -9.9031      2.00000
     16      -9.9026      2.00000
     17      -9.8242      2.00000
     18      -9.8234      2.00000
     19      -9.8062      2.00000
     20      -9.8062      2.00000
     21      -9.7074      2.00000
     22      -9.4826      2.00000
     23      -8.7352      2.00000
     24      -8.6753      2.00000
     25      -8.5040      2.00000
     26      -7.9143      2.00000
     27      -7.5992      2.00000
     28      -7.5470      2.00000
     29      -2.2349      2.00000
     30      -2.1696      2.00000
     31      -2.1147      2.00000
     32      -2.0724      2.00000
     33      -1.9716      2.00000
     34      -1.8817      2.00000
     35      -1.7640      2.00000
     36      -1.7394      2.00000
     37      -1.6041      2.00000
     38      -1.5696      2.00000
     39      -1.5011      2.00000
     40      -1.4580      2.00000
     41      -0.0154      2.00000
     42       0.2314      2.00000
     43       0.5106      2.00000
     44       0.8371      2.00000
     45       1.1779      2.00000
     46       1.4829      2.00000
     47       1.6838      2.00000
     48       1.9098      2.00000
     49       2.1261      2.00000
     50       2.2271      2.00000
     51       2.2943      2.00000
     52       2.4190      2.00000
     53       2.6077      2.00000
     54       2.8514      2.00000
     55       2.9638      2.00000
     56       2.9906      2.00000
     57       3.1265      2.00000
     58       3.2908      2.00000
     59       3.3316      2.00000
     60       3.4730      2.00000
     61       3.8600      2.00000
     62       4.1631      2.00000
     63       5.2938      0.00000
     64       5.6853      0.00000
     65       6.8107      0.00000
     66       6.8238      0.00000
     67       7.6945      0.00000
     68       7.8574      0.00000
     69       7.9988      0.00000
     70       8.1617      0.00000
     71       8.4827      0.00000
     72       8.5373      0.00000
     73       8.7985      0.00000
     74       8.9477      0.00000
     75       9.2127      0.00000
     76       9.3928      0.00000
     77       9.9897      0.00000
     78      10.0609      0.00000
     79      10.2364      0.00000
     80      10.4038      0.00000

 k-point    13 :       0.1667    0.0556    0.0000
  band No.  band energies     occupation 
      1     -11.2461      2.00000
      2     -11.2398      2.00000
      3     -11.0856      2.00000
      4     -11.0775      2.00000
      5     -10.9772      2.00000
      6     -10.9766      2.00000
      7     -10.8698      2.00000
      8     -10.8681      2.00000
      9     -10.8410      2.00000
     10     -10.8408      2.00000
     11     -10.1249      2.00000
     12     -10.1246      2.00000
     13      -9.9465      2.00000
     14      -9.9464      2.00000
     15      -9.8821      2.00000
     16      -9.8820      2.00000
     17      -9.8282      2.00000
     18      -9.8280      2.00000
     19      -9.8002      2.00000
     20      -9.8002      2.00000
     21      -9.5142      2.00000
     22      -9.3015      2.00000
     23      -8.6132      2.00000
     24      -8.5549      2.00000
     25      -8.3957      2.00000
     26      -7.8361      2.00000
     27      -7.4659      2.00000
     28      -7.4276      2.00000
     29      -2.2372      2.00000
     30      -2.1304      2.00000
     31      -2.0998      2.00000
     32      -2.0305      2.00000
     33      -1.9000      2.00000
     34      -1.8941      2.00000
     35      -1.7907      2.00000
     36      -1.7507      2.00000
     37      -1.6438      2.00000
     38      -1.5305      2.00000
     39      -1.5092      2.00000
     40      -1.4572      2.00000
     41      -0.1523      2.00000
     42      -0.0647      2.00000
     43       0.3165      2.00000
     44       0.5491      2.00000
     45       0.8918      2.00000
     46       1.2954      2.00000
     47       1.4659      2.00000
     48       1.5141      2.00000
     49       1.5845      2.00000
     50       1.7971      2.00000
     51       1.9866      2.00000
     52       2.2088      2.00000
     53       2.3123      2.00000
     54       2.6575      2.00000
     55       2.6945      2.00000
     56       2.8006      2.00000
     57       2.8933      2.00000
     58       3.2300      2.00000
     59       3.3202      2.00000
     60       3.3838      2.00000
     61       3.6859      2.00000
     62       4.1275      2.00000
     63       5.6367      0.00000
     64       5.8430      0.00000
     65       6.8266      0.00000
     66       6.8962      0.00000
     67       7.5416      0.00000
     68       7.8316      0.00000
     69       8.0411      0.00000
     70       8.4579      0.00000
     71       8.6656      0.00000
     72       8.8217      0.00000
     73       8.9804      0.00000
     74       9.1350      0.00000
     75       9.4802      0.00000
     76       9.6112      0.00000
     77       9.8252      0.00000
     78      10.2840      0.00000
     79      10.4651      0.00000
     80      10.6684      0.00000

 k-point    14 :       0.2222    0.0556    0.0000
  band No.  band energies     occupation 
      1     -11.2848      2.00000
      2     -11.2753      2.00000
      3     -11.0925      2.00000
      4     -11.0860      2.00000
      5     -10.9643      2.00000
      6     -10.9637      2.00000
      7     -10.8774      2.00000
      8     -10.8759      2.00000
      9     -10.8385      2.00000
     10     -10.8382      2.00000
     11     -10.1865      2.00000
     12     -10.1864      2.00000
     13      -9.9399      2.00000
     14      -9.9399      2.00000
     15      -9.8679      2.00000
     16      -9.8679      2.00000
     17      -9.8281      2.00000
     18      -9.8281      2.00000
     19      -9.7912      2.00000
     20      -9.7912      2.00000
     21      -9.2870      2.00000
     22      -9.0890      2.00000
     23      -8.4610      2.00000
     24      -8.4063      2.00000
     25      -8.2640      2.00000
     26      -7.7515      2.00000
     27      -7.3192      2.00000
     28      -7.2937      2.00000
     29      -2.2282      2.00000
     30      -2.0872      2.00000
     31      -2.0709      2.00000
     32      -1.9807      2.00000
     33      -1.9285      2.00000
     34      -1.8759      2.00000
     35      -1.8592      2.00000
     36      -1.7631      2.00000
     37      -1.6890      2.00000
     38      -1.5237      2.00000
     39      -1.4844      2.00000
     40      -1.4541      2.00000
     41      -0.5309      2.00000
     42      -0.4030      2.00000
     43      -0.0050      2.00000
     44       0.5045      2.00000
     45       0.7061      2.00000
     46       0.9587      2.00000
     47       1.0775      2.00000
     48       1.1146      2.00000
     49       1.3161      2.00000
     50       1.4075      2.00000
     51       1.7731      2.00000
     52       1.9539      2.00000
     53       2.0497      2.00000
     54       2.3524      2.00000
     55       2.4303      2.00000
     56       2.5987      2.00000
     57       2.8099      2.00000
     58       3.1593      2.00000
     59       3.2932      2.00000
     60       3.3548      2.00000
     61       3.5144      2.00000
     62       4.0347      2.00000
     63       5.8537      0.00000
     64       5.8824      0.00000
     65       6.6288      0.00000
     66       6.7494      0.00000
     67       7.3071      0.00000
     68       7.6372      0.00000
     69       8.1381      0.00000
     70       8.6791      0.00000
     71       8.8374      0.00000
     72       8.9830      0.00000
     73       9.1615      0.00000
     74       9.3479      0.00000
     75       9.7106      0.00000
     76       9.7675      0.00000
     77      10.0031      0.00000
     78      10.6610      0.00000
     79      10.6925      0.00000
     80      10.7972      0.00000

 k-point    15 :       0.2778    0.0556    0.0000
  band No.  band energies     occupation 
      1     -11.3246      2.00000
      2     -11.3142      2.00000
      3     -11.0919      2.00000
      4     -11.0869      2.00000
      5     -10.9530      2.00000
      6     -10.9523      2.00000
      7     -10.8841      2.00000
      8     -10.8826      2.00000
      9     -10.8342      2.00000
     10     -10.8339      2.00000
     11     -10.2436      2.00000
     12     -10.2435      2.00000
     13      -9.9348      2.00000
     14      -9.9348      2.00000
     15      -9.8643      2.00000
     16      -9.8643      2.00000
     17      -9.8197      2.00000
     18      -9.8197      2.00000
     19      -9.7804      2.00000
     20      -9.7804      2.00000
     21      -9.0441      2.00000
     22      -8.8634      2.00000
     23      -8.2929      2.00000
     24      -8.2456      2.00000
     25      -8.1212      2.00000
     26      -7.6717      2.00000
     27      -7.1774      2.00000
     28      -7.1629      2.00000
     29      -2.2016      2.00000
     30      -2.1030      2.00000
     31      -2.0406      2.00000
     32      -2.0232      2.00000
     33      -1.9408      2.00000
     34      -1.9293      2.00000
     35      -1.9076      2.00000
     36      -1.7748      2.00000
     37      -1.7284      2.00000
     38      -1.5351      2.00000
     39      -1.4664      2.00000
     40      -1.4287      2.00000
     41      -0.8959      2.00000
     42      -0.8300      2.00000
     43      -0.1520      2.00000
     44       0.3274      2.00000
     45       0.4064      2.00000
     46       0.6282      2.00000
     47       0.7746      2.00000
     48       0.9160      2.00000
     49       1.0185      2.00000
     50       1.1887      2.00000
     51       1.6160      2.00000
     52       1.7353      2.00000
     53       1.8953      2.00000
     54       2.1033      2.00000
     55       2.1886      2.00000
     56       2.3499      2.00000
     57       2.8176      2.00000
     58       3.0722      2.00000
     59       3.2538      2.00000
     60       3.3226      2.00000
     61       3.3847      2.00000
     62       3.8977      2.00000
     63       5.7930      0.00000
     64       5.9174      0.00000
     65       6.4128      0.00000
     66       6.5574      0.00000
     67       7.1160      0.00000
     68       7.4259      0.00000
     69       8.0702      0.00000
     70       8.7003      0.00000
     71       8.9282      0.00000
     72       9.0366      0.00000
     73       9.2553      0.00000
     74       9.4613      0.00000
     75       9.6725      0.00000
     76       9.9350      0.00000
     77      10.2492      0.00000
     78      10.5591      0.00000
     79      10.8456      0.00000
     80      10.8896      0.00000

 k-point    16 :       0.3333    0.0556   -0.0000
  band No.  band energies     occupation 
      1     -11.3582      2.00000
      2     -11.3487      2.00000
      3     -11.0888      2.00000
      4     -11.0847      2.00000
      5     -10.9446      2.00000
      6     -10.9438      2.00000
      7     -10.8894      2.00000
      8     -10.8881      2.00000
      9     -10.8288      2.00000
     10     -10.8285      2.00000
     11     -10.2905      2.00000
     12     -10.2905      2.00000
     13      -9.9315      2.00000
     14      -9.9315      2.00000
     15      -9.8667      2.00000
     16      -9.8667      2.00000
     17      -9.8076      2.00000
     18      -9.8076      2.00000
     19      -9.7698      2.00000
     20      -9.7698      2.00000
     21      -8.8081      2.00000
     22      -8.6486      2.00000
     23      -8.1306      2.00000
     24      -8.0953      2.00000
     25      -7.9830      2.00000
     26      -7.6083      2.00000
     27      -7.0579      2.00000
     28      -7.0517      2.00000
     29      -2.3447      2.00000
     30      -2.1635      2.00000
     31      -2.1331      2.00000
     32      -1.9925      2.00000
     33      -1.9727      2.00000
     34      -1.9231      2.00000
     35      -1.8830      2.00000
     36      -1.7832      2.00000
     37      -1.7538      2.00000
     38      -1.5516      2.00000
     39      -1.4653      2.00000
     40      -1.3946      2.00000
     41      -1.2190      2.00000
     42      -1.1802      2.00000
     43      -0.1986      2.00000
     44      -0.0351      2.00000
     45       0.2197      2.00000
     46       0.3648      2.00000
     47       0.6081      2.00000
     48       0.6641      2.00000
     49       0.8547      2.00000
     50       1.0395      2.00000
     51       1.5149      2.00000
     52       1.6415      2.00000
     53       1.8060      2.00000
     54       1.9260      2.00000
     55       1.9924      2.00000
     56       2.1387      2.00000
     57       2.8392      2.00000
     58       2.9725      2.00000
     59       3.2072      2.00000
     60       3.2647      2.00000
     61       3.3323      2.00000
     62       3.7361      2.00000
     63       5.6640      0.00000
     64       5.8441      0.00000
     65       6.2416      0.00000
     66       6.4110      0.00000
     67       6.9723      0.00000
     68       7.2499      0.00000
     69       7.9530      0.00000
     70       8.6240      0.00000
     71       8.8366      0.00000
     72       9.0312      0.00000
     73       9.3191      0.00000
     74       9.4848      0.00000
     75       9.5829      0.00000
     76       9.9540      0.00000
     77      10.1909      0.00000
     78      10.4311      0.00000
     79      10.8104      0.00000
     80      11.0087      0.00000

 k-point    17 :       0.3889    0.0556   -0.0000
  band No.  band energies     occupation 
      1     -11.3818      2.00000
      2     -11.3740      2.00000
      3     -11.0859      2.00000
      4     -11.0823      2.00000
      5     -10.9394      2.00000
      6     -10.9385      2.00000
      7     -10.8931      2.00000
      8     -10.8918      2.00000
      9     -10.8237      2.00000
     10     -10.8235      2.00000
     11     -10.3236      2.00000
     12     -10.3236      2.00000
     13      -9.9299      2.00000
     14      -9.9299      2.00000
     15      -9.8698      2.00000
     16      -9.8698      2.00000
     17      -9.7972      2.00000
     18      -9.7972      2.00000
     19      -9.7617      2.00000
     20      -9.7617      2.00000
     21      -8.6099      2.00000
     22      -8.4758      2.00000
     23      -8.0016      2.00000
     24      -7.9802      2.00000
     25      -7.8682      2.00000
     26      -7.5700      2.00000
     27      -6.9735      2.00000
     28      -6.9722      2.00000
     29      -2.5585      2.00000
     30      -2.3735      2.00000
     31      -2.1026      2.00000
     32      -1.9479      2.00000
     33      -1.9327      2.00000
     34      -1.9192      2.00000
     35      -1.8459      2.00000
     36      -1.7865      2.00000
     37      -1.7587      2.00000
     38      -1.5742      2.00000
     39      -1.4679      2.00000
     40      -1.4651      2.00000
     41      -1.4517      2.00000
     42      -1.3601      2.00000
     43      -0.4427      2.00000
     44      -0.0640      2.00000
     45       0.0806      2.00000
     46       0.1903      2.00000
     47       0.4196      2.00000
     48       0.5256      2.00000
     49       0.7839      2.00000
     50       0.9343      2.00000
     51       1.4638      2.00000
     52       1.5540      2.00000
     53       1.7133      2.00000
     54       1.7491      2.00000
     55       1.9867      2.00000
     56       2.0216      2.00000
     57       2.8482      2.00000
     58       2.8869      2.00000
     59       3.1596      2.00000
     60       3.2317      2.00000
     61       3.3074      2.00000
     62       3.5836      2.00000
     63       5.5618      0.00000
     64       5.7308      0.00000
     65       6.1229      0.00000
     66       6.3100      0.00000
     67       6.8818      0.00000
     68       7.1228      0.00000
     69       7.8512      0.00000
     70       8.5691      0.00000
     71       8.7071      0.00000
     72       8.9853      0.00000
     73       9.3319      0.00000
     74       9.3776      0.00000
     75       9.5759      0.00000
     76       9.9276      0.00000
     77      10.0944      0.00000
     78      10.3299      0.00000
     79      10.7427      0.00000
     80      11.0283      0.00000

 k-point    18 :       0.4444    0.0556   -0.0000
  band No.  band energies     occupation 
      1     -11.3938      2.00000
      2     -11.3875      2.00000
      3     -11.0841      2.00000
      4     -11.0808      2.00000
      5     -10.9370      2.00000
      6     -10.9361      2.00000
      7     -10.8951      2.00000
      8     -10.8938      2.00000
      9     -10.8206      2.00000
     10     -10.8204      2.00000
     11     -10.3407      2.00000
     12     -10.3407      2.00000
     13      -9.9292      2.00000
     14      -9.9292      2.00000
     15      -9.8717      2.00000
     16      -9.8717      2.00000
     17      -9.7915      2.00000
     18      -9.7915      2.00000
     19      -9.7573      2.00000
     20      -9.7573      2.00000
     21      -8.4909      2.00000
     22      -8.3790      2.00000
     23      -7.9313      2.00000
     24      -7.9189      2.00000
     25      -7.7989      2.00000
     26      -7.5563      2.00000
     27      -6.9310      2.00000
     28      -6.9307      2.00000
     29      -2.6777      2.00000
     30      -2.5226      2.00000
     31      -2.0695      2.00000
     32      -1.9507      2.00000
     33      -1.9104      2.00000
     34      -1.8851      2.00000
     35      -1.8071      2.00000
     36      -1.7851      2.00000
     37      -1.7509      2.00000
     38      -1.6091      2.00000
     39      -1.5992      2.00000
     40      -1.5629      2.00000
     41      -1.4672      2.00000
     42      -1.3880      2.00000
     43      -0.6100      2.00000
     44      -0.1041      2.00000
     45       0.0312      2.00000
     46       0.1496      2.00000
     47       0.3008      2.00000
     48       0.4874      2.00000
     49       0.7647      2.00000
     50       0.8799      2.00000
     51       1.4288      2.00000
     52       1.4935      2.00000
     53       1.6315      2.00000
     54       1.6483      2.00000
     55       1.9072      2.00000
     56       2.1201      2.00000
     57       2.8337      2.00000
     58       2.8405      2.00000
     59       3.1310      2.00000
     60       3.2208      2.00000
     61       3.2953      2.00000
     62       3.4885      2.00000
     63       5.5138      0.00000
     64       5.6515      0.00000
     65       6.0630      0.00000
     66       6.2552      0.00000
     67       6.8400      0.00000
     68       7.0531      0.00000
     69       7.7947      0.00000
     70       8.5579      0.00000
     71       8.6157      0.00000
     72       8.9483      0.00000
     73       9.2650      0.00000
     74       9.3535      0.00000
     75       9.5850      0.00000
     76       9.9096      0.00000
     77      10.0348      0.00000
     78      10.2970      0.00000
     79      10.6836      0.00000
     80      11.0821      0.00000

 k-point    19 :       0.1111    0.1111   -0.0000
  band No.  band energies     occupation 
      1     -11.2407      2.00000
      2     -11.2349      2.00000
      3     -11.0837      2.00000
      4     -11.0754      2.00000
      5     -10.9796      2.00000
      6     -10.9790      2.00000
      7     -10.8681      2.00000
      8     -10.8664      2.00000
      9     -10.8418      2.00000
     10     -10.8416      2.00000
     11     -10.1111      2.00000
     12     -10.1109      2.00000
     13      -9.9565      2.00000
     14      -9.9563      2.00000
     15      -9.8813      2.00000
     16      -9.8812      2.00000
     17      -9.8282      2.00000
     18      -9.8281      2.00000
     19      -9.8012      2.00000
     20      -9.8012      2.00000
     21      -9.5444      2.00000
     22      -9.3297      2.00000
     23      -8.6318      2.00000
     24      -8.5730      2.00000
     25      -8.4129      2.00000
     26      -7.8481      2.00000
     27      -7.4869      2.00000
     28      -7.4466      2.00000
     29      -2.2376      2.00000
     30      -2.1376      2.00000
     31      -2.1016      2.00000
     32      -2.0365      2.00000
     33      -1.9080      2.00000
     34      -1.8910      2.00000
     35      -1.7820      2.00000
     36      -1.7514      2.00000
     37      -1.6355      2.00000
     38      -1.5353      2.00000
     39      -1.5109      2.00000
     40      -1.4563      2.00000
     41      -0.0618      2.00000
     42      -0.0607      2.00000
     43       0.4112      2.00000
     44       0.5540      2.00000
     45       0.9202      2.00000
     46       1.2874      2.00000
     47       1.5001      2.00000
     48       1.6712      2.00000
     49       1.6968      2.00000
     50       1.8386      2.00000
     51       1.8930      2.00000
     52       2.0995      2.00000
     53       2.3495      2.00000
     54       2.7880      2.00000
     55       2.8206      2.00000
     56       2.9958      2.00000
     57       2.9969      2.00000
     58       3.1042      2.00000
     59       3.1104      2.00000
     60       3.4073      2.00000
     61       3.6524      2.00000
     62       4.1525      2.00000
     63       5.6264      0.00000
     64       5.8579      0.00000
     65       6.9081      0.00000
     66       6.9620      0.00000
     67       7.7766      0.00000
     68       7.8048      0.00000
     69       8.1149      0.00000
     70       8.4259      0.00000
     71       8.6667      0.00000
     72       8.7315      0.00000
     73       8.8820      0.00000
     74       8.9100      0.00000
     75       9.4879      0.00000
     76       9.5209      0.00000
     77       9.9290      0.00000
     78      10.0422      0.00000
     79      10.3951      0.00000
     80      10.4139      0.00000

 k-point    20 :       0.1667    0.1111   -0.0000
  band No.  band energies     occupation 
      1     -11.2741      2.00000
      2     -11.2652      2.00000
      3     -11.0922      2.00000
      4     -11.0854      2.00000
      5     -10.9685      2.00000
      6     -10.9678      2.00000
      7     -10.8745      2.00000
      8     -10.8730      2.00000
      9     -10.8405      2.00000
     10     -10.8403      2.00000
     11     -10.1631      2.00000
     12     -10.1630      2.00000
     13      -9.9581      2.00000
     14      -9.9580      2.00000
     15      -9.8639      2.00000
     16      -9.8639      2.00000
     17      -9.8316      2.00000
     18      -9.8316      2.00000
     19      -9.7931      2.00000
     20      -9.7931      2.00000
     21      -9.3392      2.00000
     22      -9.1374      2.00000
     23      -8.4933      2.00000
     24      -8.4369      2.00000
     25      -8.2946      2.00000
     26      -7.7705      2.00000
     27      -7.3538      2.00000
     28      -7.3253      2.00000
     29      -2.2320      2.00000
     30      -2.1011      2.00000
     31      -2.0750      2.00000
     32      -1.9895      2.00000
     33      -1.9099      2.00000
     34      -1.8622      2.00000
     35      -1.8399      2.00000
     36      -1.7663      2.00000
     37      -1.6760      2.00000
     38      -1.5190      2.00000
     39      -1.5002      2.00000
     40      -1.4510      2.00000
     41      -0.4016      2.00000
     42      -0.2818      2.00000
     43       0.0658      2.00000
     44       0.5886      2.00000
     45       0.6783      2.00000
     46       1.0482      2.00000
     47       1.1652      2.00000
     48       1.2698      2.00000
     49       1.3321      2.00000
     50       1.4937      2.00000
     51       1.5601      2.00000
     52       1.9027      2.00000
     53       2.0676      2.00000
     54       2.5408      2.00000
     55       2.6382      2.00000
     56       2.7208      2.00000
     57       2.8721      2.00000
     58       3.0022      2.00000
     59       3.0825      2.00000
     60       3.3830      2.00000
     61       3.4281      2.00000
     62       4.0896      2.00000
     63       5.9168      0.00000
     64       5.9749      0.00000
     65       6.8203      0.00000
     66       6.9218      0.00000
     67       7.5817      0.00000
     68       7.7830      0.00000
     69       8.4253      0.00000
     70       8.5726      0.00000
     71       8.7177      0.00000
     72       8.8729      0.00000
     73       9.1622      0.00000
     74       9.2276      0.00000
     75       9.6652      0.00000
     76       9.6889      0.00000
     77       9.8228      0.00000
     78      10.1795      0.00000
     79      10.5897      0.00000
     80      10.6388      0.00000

 k-point    21 :       0.2222    0.1111   -0.0000
  band No.  band energies     occupation 
      1     -11.3116      2.00000
      2     -11.3013      2.00000
      3     -11.0931      2.00000
      4     -11.0878      2.00000
      5     -10.9581      2.00000
      6     -10.9574      2.00000
      7     -10.8802      2.00000
      8     -10.8788      2.00000
      9     -10.8379      2.00000
     10     -10.8377      2.00000
     11     -10.2154      2.00000
     12     -10.2153      2.00000
     13      -9.9581      2.00000
     14      -9.9581      2.00000
     15      -9.8557      2.00000
     16      -9.8557      2.00000
     17      -9.8288      2.00000
     18      -9.8288      2.00000
     19      -9.7831      2.00000
     20      -9.7831      2.00000
     21      -9.1088      2.00000
     22      -8.9225      2.00000
     23      -8.3306      2.00000
     24      -8.2797      2.00000
     25      -8.1591      2.00000
     26      -7.6920      2.00000
     27      -7.2174      2.00000
     28      -7.1997      2.00000
     29      -2.2113      2.00000
     30      -2.0666      2.00000
     31      -2.0329      2.00000
     32      -2.0086      2.00000
     33      -1.9362      2.00000
     34      -1.8985      2.00000
     35      -1.8863      2.00000
     36      -1.7813      2.00000
     37      -1.7165      2.00000
     38      -1.5283      2.00000
     39      -1.4791      2.00000
     40      -1.4296      2.00000
     41      -0.7452      2.00000
     42      -0.6637      2.00000
     43      -0.1164      2.00000
     44       0.4101      2.00000
     45       0.6084      2.00000
     46       0.6783      2.00000
     47       0.7921      2.00000
     48       0.9511      2.00000
     49       1.0439      2.00000
     50       1.1772      2.00000
     51       1.4136      2.00000
     52       1.7099      2.00000
     53       1.8894      2.00000
     54       2.2414      2.00000
     55       2.3490      2.00000
     56       2.4383      2.00000
     57       2.8140      2.00000
     58       2.9186      2.00000
     59       3.0827      2.00000
     60       3.2293      2.00000
     61       3.3779      2.00000
     62       3.9776      2.00000
     63       5.9893      0.00000
     64       6.0950      0.00000
     65       6.6271      0.00000
     66       6.7522      0.00000
     67       7.4027      0.00000
     68       7.6765      0.00000
     69       8.4947      0.00000
     70       8.6924      0.00000
     71       8.8879      0.00000
     72       9.0065      0.00000
     73       9.2376      0.00000
     74       9.4521      0.00000
     75       9.6242      0.00000
     76       9.8966      0.00000
     77      10.1026      0.00000
     78      10.4752      0.00000
     79      10.6151      0.00000
     80      10.8800      0.00000

 k-point    22 :       0.2778    0.1111   -0.0000
  band No.  band energies     occupation 
      1     -11.3459      2.00000
      2     -11.3359      2.00000
      3     -11.0903      2.00000
      4     -11.0862      2.00000
      5     -10.9499      2.00000
      6     -10.9491      2.00000
      7     -10.8849      2.00000
      8     -10.8836      2.00000
      9     -10.8340      2.00000
     10     -10.8337      2.00000
     11     -10.2619      2.00000
     12     -10.2619      2.00000
     13      -9.9578      2.00000
     14      -9.9578      2.00000
     15      -9.8569      2.00000
     16      -9.8569      2.00000
     17      -9.8181      2.00000
     18      -9.8181      2.00000
     19      -9.7740      2.00000
     20      -9.7740      2.00000
     21      -8.8730      2.00000
     22      -8.7059      2.00000
     23      -8.1618      2.00000
     24      -8.1207      2.00000
     25      -8.0200      2.00000
     26      -7.6241      2.00000
     27      -7.0950      2.00000
     28      -7.0862      2.00000
     29      -2.2253      2.00000
     30      -2.1718      2.00000
     31      -2.0324      2.00000
     32      -2.0183      2.00000
     33      -1.9823      2.00000
     34      -1.9096      2.00000
     35      -1.8825      2.00000
     36      -1.7926      2.00000
     37      -1.7495      2.00000
     38      -1.5402      2.00000
     39      -1.4758      2.00000
     40      -1.3932      2.00000
     41      -1.0700      2.00000
     42      -1.0290      2.00000
     43      -0.1819      2.00000
     44       0.1561      2.00000
     45       0.2718      2.00000
     46       0.4863      2.00000
     47       0.5282      2.00000
     48       0.7268      2.00000
     49       0.8398      2.00000
     50       0.9575      2.00000
     51       1.3302      2.00000
     52       1.5443      2.00000
     53       1.8379      2.00000
     54       1.9738      2.00000
     55       2.0875      2.00000
     56       2.1810      2.00000
     57       2.7572      2.00000
     58       2.8268      2.00000
     59       3.0791      2.00000
     60       3.1085      2.00000
     61       3.3681      2.00000
     62       3.8279      2.00000
     63       5.9255      0.00000
     64       6.1219      0.00000
     65       6.4350      0.00000
     66       6.5883      0.00000
     67       7.2535      0.00000
     68       7.5072      0.00000
     69       8.4313      0.00000
     70       8.7870      0.00000
     71       8.9349      0.00000
     72       9.0028      0.00000
     73       9.2974      0.00000
     74       9.4641      0.00000
     75       9.5963      0.00000
     76      10.0108      0.00000
     77      10.2562      0.00000
     78      10.4963      0.00000
     79      10.7920      0.00000
     80      10.8664      0.00000

 k-point    23 :       0.3333    0.1111   -0.0000
  band No.  band energies     occupation 
      1     -11.3724      2.00000
      2     -11.3640      2.00000
      3     -11.0868      2.00000
      4     -11.0834      2.00000
      5     -10.9445      2.00000
      6     -10.9436      2.00000
      7     -10.8885      2.00000
      8     -10.8873      2.00000
      9     -10.8295      2.00000
     10     -10.8293      2.00000
     11     -10.2981      2.00000
     12     -10.2981      2.00000
     13      -9.9577      2.00000
     14      -9.9576      2.00000
     15      -9.8604      2.00000
     16      -9.8604      2.00000
     17      -9.8056      2.00000
     18      -9.8056      2.00000
     19      -9.7676      2.00000
     20      -9.7676      2.00000
     21      -8.6577      2.00000
     22      -8.5150      2.00000
     23      -8.0114      2.00000
     24      -7.9840      2.00000
     25      -7.8943      2.00000
     26      -7.5771      2.00000
     27      -7.0008      2.00000
     28      -6.9982      2.00000
     29      -2.4433      2.00000
     30      -2.2521      2.00000
     31      -2.1143      2.00000
     32      -1.9735      2.00000
     33      -1.9363      2.00000
     34      -1.9164      2.00000
     35      -1.8362      2.00000
     36      -1.7948      2.00000
     37      -1.7675      2.00000
     38      -1.5537      2.00000
     39      -1.4779      2.00000
     40      -1.3786      2.00000
     41      -1.3459      2.00000
     42      -1.3069      2.00000
     43      -0.2712      2.00000
     44      -0.0973      2.00000
     45       0.1547      2.00000
     46       0.2671      2.00000
     47       0.3463      2.00000
     48       0.4922      2.00000
     49       0.7482      2.00000
     50       0.8211      2.00000
     51       1.2845      2.00000
     52       1.4528      2.00000
     53       1.7450      2.00000
     54       1.8020      2.00000
     55       1.8676      2.00000
     56       2.0786      2.00000
     57       2.6630      2.00000
     58       2.7666      2.00000
     59       2.9966      2.00000
     60       3.1363      2.00000
     61       3.3523      2.00000
     62       3.6640      2.00000
     63       5.8349      0.00000
     64       6.0396      0.00000
     65       6.2930      0.00000
     66       6.4806      0.00000
     67       7.1426      0.00000
     68       7.3587      0.00000
     69       8.3378      0.00000
     70       8.7213      0.00000
     71       8.9234      0.00000
     72       9.0525      0.00000
     73       9.2830      0.00000
     74       9.4017      0.00000
     75       9.5073      0.00000
     76      10.0440      0.00000
     77      10.2051      0.00000
     78      10.4718      0.00000
     79      10.8255      0.00000
     80      11.0665      0.00000

 k-point    24 :       0.3889    0.1111    0.0000
  band No.  band energies     occupation 
      1     -11.3888      2.00000
      2     -11.3823      2.00000
      3     -11.0843      2.00000
      4     -11.0812      2.00000
      5     -10.9415      2.00000
      6     -10.9406      2.00000
      7     -10.8907      2.00000
      8     -10.8895      2.00000
      9     -10.8260      2.00000
     10     -10.8258      2.00000
     11     -10.3210      2.00000
     12     -10.3209      2.00000
     13      -9.9577      2.00000
     14      -9.9577      2.00000
     15      -9.8632      2.00000
     16      -9.8632      2.00000
     17      -9.7958      2.00000
     18      -9.7958      2.00000
     19      -9.7647      2.00000
     20      -9.7647      2.00000
     21      -8.4982      2.00000
     22      -8.3828      2.00000
     23      -7.9074      2.00000
     24      -7.8926      2.00000
     25      -7.8014      2.00000
     26      -7.5556      2.00000
     27      -6.9434      2.00000
     28      -6.9432      2.00000
     29      -2.5992      2.00000
     30      -2.4391      2.00000
     31      -2.0651      2.00000
     32      -1.9469      2.00000
     33      -1.9140      2.00000
     34      -1.9036      2.00000
     35      -1.8077      2.00000
     36      -1.7795      2.00000
     37      -1.7637      2.00000
     38      -1.5692      2.00000
     39      -1.5329      2.00000
     40      -1.5121      2.00000
     41      -1.4804      2.00000
     42      -1.3620      2.00000
     43      -0.5040      2.00000
     44      -0.0656      2.00000
     45       0.0360      2.00000
     46       0.1622      2.00000
     47       0.2371      2.00000
     48       0.3404      2.00000
     49       0.6812      2.00000
     50       0.7576      2.00000
     51       1.2855      2.00000
     52       1.4398      2.00000
     53       1.6001      2.00000
     54       1.6497      2.00000
     55       1.6887      2.00000
     56       2.1703      2.00000
     57       2.5980      2.00000
     58       2.7097      2.00000
     59       2.9501      2.00000
     60       3.1633      2.00000
     61       3.3350      2.00000
     62       3.5311      2.00000
     63       5.7687      0.00000
     64       5.9426      0.00000
     65       6.2077      0.00000
     66       6.4193      0.00000
     67       7.0741      0.00000
     68       7.2629      0.00000
     69       8.2651      0.00000
     70       8.6497      0.00000
     71       8.8517      0.00000
     72       9.1633      0.00000
     73       9.2675      0.00000
     74       9.2931      0.00000
     75       9.4332      0.00000
     76      10.0496      0.00000
     77      10.1449      0.00000
     78      10.4278      0.00000
     79      10.7574      0.00000
     80      11.1015      0.00000

 k-point    25 :       0.4444    0.1111    0.0000
  band No.  band energies     occupation 
      1     -11.3942      2.00000
      2     -11.3887      2.00000
      3     -11.0834      2.00000
      4     -11.0804      2.00000
      5     -10.9406      2.00000
      6     -10.9396      2.00000
      7     -10.8914      2.00000
      8     -10.8903      2.00000
      9     -10.8246      2.00000
     10     -10.8244      2.00000
     11     -10.3287      2.00000
     12     -10.3287      2.00000
     13      -9.9578      2.00000
     14      -9.9578      2.00000
     15      -9.8642      2.00000
     16      -9.8642      2.00000
     17      -9.7919      2.00000
     18      -9.7919      2.00000
     19      -9.7641      2.00000
     20      -9.7641      2.00000
     21      -8.4370      2.00000
     22      -8.3361      2.00000
     23      -7.8708      2.00000
     24      -7.8607      2.00000
     25      -7.7651      2.00000
     26      -7.5518      2.00000
     27      -6.9248      2.00000
     28      -6.9241      2.00000
     29      -2.6538      2.00000
     30      -2.5131      2.00000
     31      -2.0457      2.00000
     32      -1.9458      2.00000
     33      -1.9025      2.00000
     34      -1.8962      2.00000
     35      -1.8020      2.00000
     36      -1.7584      2.00000
     37      -1.7577      2.00000
     38      -1.6007      2.00000
     39      -1.5984      2.00000
     40      -1.5394      2.00000
     41      -1.4872      2.00000
     42      -1.3835      2.00000
     43      -0.5831      2.00000
     44      -0.1065      2.00000
     45       0.0479      2.00000
     46       0.1248      2.00000
     47       0.2025      2.00000
     48       0.2895      2.00000
     49       0.6570      2.00000
     50       0.7397      2.00000
     51       1.3494      2.00000
     52       1.3942      2.00000
     53       1.5735      2.00000
     54       1.5743      2.00000
     55       1.5945      2.00000
     56       2.2282      2.00000
     57       2.5855      2.00000
     58       2.6741      2.00000
     59       2.9366      2.00000
     60       3.1675      2.00000
     61       3.3284      2.00000
     62       3.4810      2.00000
     63       5.7466      0.00000
     64       5.9023      0.00000
     65       6.1789      0.00000
     66       6.3984      0.00000
     67       7.0509      0.00000
     68       7.2301      0.00000
     69       8.2383      0.00000
     70       8.6218      0.00000
     71       8.8281      0.00000
     72       9.1833      0.00000
     73       9.2442      0.00000
     74       9.3237      0.00000
     75       9.3666      0.00000
     76      10.0535      0.00000
     77      10.1200      0.00000
     78      10.4139      0.00000
     79      10.7209      0.00000
     80      11.0230      0.00000

 k-point    26 :       0.1667    0.1667   -0.0000
  band No.  band energies     occupation 
      1     -11.3067      2.00000
      2     -11.2964      2.00000
      3     -11.0936      2.00000
      4     -11.0882      2.00000
      5     -10.9602      2.00000
      6     -10.9595      2.00000
      7     -10.8784      2.00000
      8     -10.8771      2.00000
      9     -10.8396      2.00000
     10     -10.8395      2.00000
     11     -10.2023      2.00000
     12     -10.2023      2.00000
     13      -9.9705      2.00000
     14      -9.9705      2.00000
     15      -9.8497      2.00000
     16      -9.8496      2.00000
     17      -9.8349      2.00000
     18      -9.8349      2.00000
     19      -9.7840      2.00000
     20      -9.7840      2.00000
     21      -9.1308      2.00000
     22      -8.9425      2.00000
     23      -8.3426      2.00000
     24      -8.2903      2.00000
     25      -8.1720      2.00000
     26      -7.6993      2.00000
     27      -7.2318      2.00000
     28      -7.2129      2.00000
     29      -2.2144      2.00000
     30      -2.0718      2.00000
     31      -2.0345      2.00000
     32      -1.9804      2.00000
     33      -1.9382      2.00000
     34      -1.8901      2.00000
     35      -1.8722      2.00000
     36      -1.7850      2.00000
     37      -1.7117      2.00000
     38      -1.5253      2.00000
     39      -1.4852      2.00000
     40      -1.4291      2.00000
     41      -0.6779      2.00000
     42      -0.5942      2.00000
     43      -0.0994      2.00000
     44       0.4477      2.00000
     45       0.6300      2.00000
     46       0.7548      2.00000
     47       0.7566      2.00000
     48       0.9813      2.00000
     49       1.1377      2.00000
     50       1.1678      2.00000
     51       1.2272      2.00000
     52       1.6931      2.00000
     53       1.9005      2.00000
     54       2.1974      2.00000
     55       2.5271      2.00000
     56       2.5916      2.00000
     57       2.7605      2.00000
     58       2.7923      2.00000
     59       2.9804      2.00000
     60       3.1418      2.00000
     61       3.3928      2.00000
     62       4.0066      2.00000
     63       6.0788      0.00000
     64       6.1642      0.00000
     65       6.7572      0.00000
     66       6.8535      0.00000
     67       7.7060      0.00000
     68       7.7230      0.00000
     69       8.4182      0.00000
     70       8.7149      0.00000
     71       8.8449      0.00000
     72       9.0831      0.00000
     73       9.4501      0.00000
     74       9.4816      0.00000
     75       9.7390      0.00000
     76       9.8395      0.00000
     77       9.8396      0.00000
     78      10.0950      0.00000
     79      10.5573      0.00000
     80      10.8255      0.00000

 k-point    27 :       0.2222    0.1667   -0.0000
  band No.  band energies     occupation 
      1     -11.3383      2.00000
      2     -11.3280      2.00000
      3     -11.0913      2.00000
      4     -11.0872      2.00000
      5     -10.9536      2.00000
      6     -10.9528      2.00000
      7     -10.8813      2.00000
      8     -10.8802      2.00000
      9     -10.8379      2.00000
     10     -10.8377      2.00000
     11     -10.2395      2.00000
     12     -10.2395      2.00000
     13      -9.9811      2.00000
     14      -9.9811      2.00000
     15      -9.8447      2.00000
     16      -9.8447      2.00000
     17      -9.8307      2.00000
     18      -9.8307      2.00000
     19      -9.7759      2.00000
     20      -9.7759      2.00000
     21      -8.9067      2.00000
     22      -8.7355      2.00000
     23      -8.1758      2.00000
     24      -8.1309      2.00000
     25      -8.0389      2.00000
     26      -7.6330      2.00000
     27      -7.1163      2.00000
     28      -7.1061      2.00000
     29      -2.1793      2.00000
     30      -2.1503      2.00000
     31      -2.0305      2.00000
     32      -1.9865      2.00000
     33      -1.9709      2.00000
     34      -1.8989      2.00000
     35      -1.8820      2.00000
     36      -1.8015      2.00000
     37      -1.7462      2.00000
     38      -1.5330      2.00000
     39      -1.4841      2.00000
     40      -1.3919      2.00000
     41      -0.9617      2.00000
     42      -0.9186      2.00000
     43      -0.1819      2.00000
     44       0.2821      2.00000
     45       0.3448      2.00000
     46       0.4375      2.00000
     47       0.5621      2.00000
     48       0.6946      2.00000
     49       0.8699      2.00000
     50       0.9258      2.00000
     51       1.1280      2.00000
     52       1.5151      2.00000
     53       1.8283      2.00000
     54       1.8790      2.00000
     55       2.2746      2.00000
     56       2.3462      2.00000
     57       2.5954      2.00000
     58       2.6794      2.00000
     59       2.8979      2.00000
     60       3.0417      2.00000
     61       3.3980      2.00000
     62       3.8790      2.00000
     63       6.1226      0.00000
     64       6.3078      0.00000
     65       6.6252      0.00000
     66       6.7180      0.00000
     67       7.6187      0.00000
     68       7.7589      0.00000
     69       8.3658      0.00000
     70       8.8306      0.00000
     71       9.0086      0.00000
     72       9.2712      0.00000
     73       9.4734      0.00000
     74       9.6293      0.00000
     75       9.6931      0.00000
     76       9.9585      0.00000
     77      10.1368      0.00000
     78      10.3474      0.00000
     79      10.4919      0.00000
     80      10.8444      0.00000

 k-point    28 :       0.2778    0.1667   -0.0000
  band No.  band energies     occupation 
      1     -11.3645      2.00000
      2     -11.3557      2.00000
      3     -11.0878      2.00000
      4     -11.0845      2.00000
      5     -10.9492      2.00000
      6     -10.9483      2.00000
      7     -10.8833      2.00000
      8     -10.8823      2.00000
      9     -10.8355      2.00000
     10     -10.8354      2.00000
     11     -10.2711      2.00000
     12     -10.2711      2.00000
     13      -9.9892      2.00000
     14      -9.9892      2.00000
     15      -9.8478      2.00000
     16      -9.8478      2.00000
     17      -9.8181      2.00000
     18      -9.8181      2.00000
     19      -9.7712      2.00000
     20      -9.7712      2.00000
     21      -8.6887      2.00000
     22      -8.5403      2.00000
     23      -8.0135      2.00000
     24      -7.9803      2.00000
     25      -7.9100      2.00000
     26      -7.5823      2.00000
     27      -7.0220      2.00000
     28      -7.0182      2.00000
     29      -2.3396      2.00000
     30      -2.1537      2.00000
     31      -2.1198      2.00000
     32      -1.9903      2.00000
     33      -1.9406      2.00000
     34      -1.8981      2.00000
     35      -1.8342      2.00000
     36      -1.8053      2.00000
     37      -1.7737      2.00000
     38      -1.5381      2.00000
     39      -1.4894      2.00000
     40      -1.3583      2.00000
     41      -1.2305      2.00000
     42      -1.2068      2.00000
     43      -0.1840      2.00000
     44      -0.0334      2.00000
     45       0.1667      2.00000
     46       0.1960      2.00000
     47       0.3509      2.00000
     48       0.4450      2.00000
     49       0.7392      2.00000
     50       0.7715      2.00000
     51       1.0835      2.00000
     52       1.3861      2.00000
     53       1.5431      2.00000
     54       1.8682      2.00000
     55       2.0073      2.00000
     56       2.1376      2.00000
     57       2.4570      2.00000
     58       2.6013      2.00000
     59       2.7449      2.00000
     60       3.1068      2.00000
     61       3.3959      2.00000
     62       3.7206      2.00000
     63       6.1072      0.00000
     64       6.3376      0.00000
     65       6.4616      0.00000
     66       6.5907      0.00000
     67       7.5290      0.00000
     68       7.6522      0.00000
     69       8.5050      0.00000
     70       8.8568      0.00000
     71       9.0120      0.00000
     72       9.2676      0.00000
     73       9.4325      0.00000
     74       9.5399      0.00000
     75       9.7133      0.00000
     76      10.1242      0.00000
     77      10.2870      0.00000
     78      10.5305      0.00000
     79      10.7143      0.00000
     80      10.9206      0.00000

 k-point    29 :       0.3333    0.1667   -0.0000
  band No.  band energies     occupation 
      1     -11.3829      2.00000
      2     -11.3762      2.00000
      3     -11.0845      2.00000
      4     -11.0819      2.00000
      5     -10.9467      2.00000
      6     -10.9457      2.00000
      7     -10.8846      2.00000
      8     -10.8836      2.00000
      9     -10.8332      2.00000
     10     -10.8330      2.00000
     11     -10.2941      2.00000
     12     -10.2941      2.00000
     13      -9.9946      2.00000
     14      -9.9946      2.00000
     15      -9.8509      2.00000
     16      -9.8509      2.00000
     17      -9.8052      2.00000
     18      -9.8052      2.00000
     19      -9.7708      2.00000
     20      -9.7708      2.00000
     21      -8.5062      2.00000
     22      -8.3868      2.00000
     23      -7.8819      2.00000
     24      -7.8626      2.00000
     25      -7.8027      2.00000
     26      -7.5550      2.00000
     27      -6.9581      2.00000
     28      -6.9579      2.00000
     29      -2.4988      2.00000
     30      -2.3360      2.00000
     31      -2.0637      2.00000
     32      -1.9576      2.00000
     33      -1.9044      2.00000
     34      -1.8957      2.00000
     35      -1.8212      2.00000
     36      -1.7849      2.00000
     37      -1.7744      2.00000
     38      -1.5356      2.00000
     39      -1.4968      2.00000
     40      -1.4423      2.00000
     41      -1.4346      2.00000
     42      -1.3360      2.00000
     43      -0.3408      2.00000
     44      -0.1170      2.00000
     45       0.0025      2.00000
     46       0.0724      2.00000
     47       0.1895      2.00000
     48       0.2665      2.00000
     49       0.6100      2.00000
     50       0.7255      2.00000
     51       1.0780      2.00000
     52       1.3244      2.00000
     53       1.3639      2.00000
     54       1.6974      2.00000
     55       1.7789      2.00000
     56       2.1592      2.00000
     57       2.3640      2.00000
     58       2.5352      2.00000
     59       2.6678      2.00000
     60       3.1540      2.00000
     61       3.3871      2.00000
     62       3.5666      2.00000
     63       6.0653      0.00000
     64       6.2699      0.00000
     65       6.3329      0.00000
     66       6.5320      0.00000
     67       7.4588      0.00000
     68       7.5392      0.00000
     69       8.6512      0.00000
     70       8.8549      0.00000
     71       8.9395      0.00000
     72       9.1830      0.00000
     73       9.3358      0.00000
     74       9.4729      0.00000
     75       9.7247      0.00000
     76      10.2069      0.00000
     77      10.3278      0.00000
     78      10.5786      0.00000
     79      10.7877      0.00000
     80      11.1079      0.00000

 k-point    30 :       0.3889    0.1667   -0.0000
  band No.  band energies     occupation 
      1     -11.3922      2.00000
      2     -11.3872      2.00000
      3     -11.0827      2.00000
      4     -11.0803      2.00000
      5     -10.9456      2.00000
      6     -10.9446      2.00000
      7     -10.8852      2.00000
      8     -10.8843      2.00000
      9     -10.8317      2.00000
     10     -10.8315      2.00000
     11     -10.3061      2.00000
     12     -10.3061      2.00000
     13      -9.9974      2.00000
     14      -9.9973      2.00000
     15      -9.8527      2.00000
     16      -9.8527      2.00000
     17      -9.7956      2.00000
     18      -9.7956      2.00000
     19      -9.7733      2.00000
     20      -9.7733      2.00000
     21      -8.3963      2.00000
     22      -8.3040      2.00000
     23      -7.8077      2.00000
     24      -7.7979      2.00000
     25      -7.7371      2.00000
     26      -7.5492      2.00000
     27      -6.9280      2.00000
     28      -6.9270      2.00000
     29      -2.5855      2.00000
     30      -2.4561      2.00000
     31      -2.0213      2.00000
     32      -1.9441      2.00000
     33      -1.8985      2.00000
     34      -1.8833      2.00000
     35      -1.8179      2.00000
     36      -1.7728      2.00000
     37      -1.7529      2.00000
     38      -1.5676      2.00000
     39      -1.5610      2.00000
     40      -1.5092      2.00000
     41      -1.4853      2.00000
     42      -1.3628      2.00000
     43      -0.4867      2.00000
     44      -0.1225      2.00000
     45      -0.0841      2.00000
     46       0.0261      2.00000
     47       0.0928      2.00000
     48       0.2037      2.00000
     49       0.5331      2.00000
     50       0.6797      2.00000
     51       1.1658      2.00000
     52       1.2147      2.00000
     53       1.3933      2.00000
     54       1.5191      2.00000
     55       1.6051      2.00000
     56       2.1802      2.00000
     57       2.3858      2.00000
     58       2.4833      2.00000
     59       2.6459      2.00000
     60       3.1561      2.00000
     61       3.3777      2.00000
     62       3.4785      2.00000
     63       6.0343      0.00000
     64       6.1990      0.00000
     65       6.2668      0.00000
     66       6.5185      0.00000
     67       7.4197      0.00000
     68       7.4761      0.00000
     69       8.6964      0.00000
     70       8.8693      0.00000
     71       8.9069      0.00000
     72       9.1448      0.00000
     73       9.2509      0.00000
     74       9.4454      0.00000
     75       9.7073      0.00000
     76      10.2611      0.00000
     77      10.3208      0.00000
     78      10.5563      0.00000
     79      10.7114      0.00000
     80      11.0836      0.00000

 k-point    31 :       0.2222    0.2222   -0.0000
  band No.  band energies     occupation 
      1     -11.3615      2.00000
      2     -11.3525      2.00000
      3     -11.0882      2.00000
      4     -11.0850      2.00000
      5     -10.9511      2.00000
      6     -10.9502      2.00000
      7     -10.8809      2.00000
      8     -10.8800      2.00000
      9     -10.8382      2.00000
     10     -10.8382      2.00000
     11     -10.2585      2.00000
     12     -10.2585      2.00000
     13     -10.0040      2.00000
     14     -10.0040      2.00000
     15      -9.8355      2.00000
     16      -9.8355      2.00000
     17      -9.8305      2.00000
     18      -9.8305      2.00000
     19      -9.7723      2.00000
     20      -9.7723      2.00000
     21      -8.6994      2.00000
     22      -8.5490      2.00000
     23      -8.0138      2.00000
     24      -7.9777      2.00000
     25      -7.9150      2.00000
     26      -7.5843      2.00000
     27      -7.0300      2.00000
     28      -7.0257      2.00000
     29      -2.2968      2.00000
     30      -2.1341      2.00000
     31      -2.1029      2.00000
     32      -1.9951      2.00000
     33      -1.9416      2.00000
     34      -1.8887      2.00000
     35      -1.8363      2.00000
     36      -1.8098      2.00000
     37      -1.7757      2.00000
     38      -1.5316      2.00000
     39      -1.4948      2.00000
     40      -1.3537      2.00000
     41      -1.1784      2.00000
     42      -1.1589      2.00000
     43      -0.1957      2.00000
     44       0.0601      2.00000
     45       0.1173      2.00000
     46       0.1649      2.00000
     47       0.3904      2.00000
     48       0.3913      2.00000
     49       0.7222      2.00000
     50       0.8188      2.00000
     51       0.9647      2.00000
     52       1.3763      2.00000
     53       1.4484      2.00000
     54       1.9087      2.00000
     55       2.0881      2.00000
     56       2.2025      2.00000
     57       2.3387      2.00000
     58       2.5182      2.00000
     59       2.6015      2.00000
     60       3.1035      2.00000
     61       3.4105      2.00000
     62       3.7408      2.00000
     63       6.2249      0.00000
     64       6.4234      0.00000
     65       6.5643      0.00000
     66       6.6339      0.00000
     67       7.7739      0.00000
     68       7.8439      0.00000
     69       8.2146      0.00000
     70       8.9152      0.00000
     71       9.3060      0.00000
     72       9.3524      0.00000
     73       9.6076      0.00000
     74       9.6977      0.00000
     75       9.8682      0.00000
     76      10.0823      0.00000
     77      10.1931      0.00000
     78      10.5319      0.00000
     79      10.5638      0.00000
     80      11.0323      0.00000

 k-point    32 :       0.2778    0.2222   -0.0000
  band No.  band energies     occupation 
      1     -11.3790      2.00000
      2     -11.3721      2.00000
      3     -11.0848      2.00000
      4     -11.0824      2.00000
      5     -10.9501      2.00000
      6     -10.9491      2.00000
      7     -10.8795      2.00000
      8     -10.8788      2.00000
      9     -10.8389      2.00000
     10     -10.8388      2.00000
     11     -10.2723      2.00000
     12     -10.2723      2.00000
     13     -10.0230      2.00000
     14     -10.0230      2.00000
     15      -9.8367      2.00000
     16      -9.8367      2.00000
     17      -9.8186      2.00000
     18      -9.8186      2.00000
     19      -9.7736      2.00000
     20      -9.7736      2.00000
     21      -8.5111      2.00000
     22      -8.3893      2.00000
     23      -7.8671      2.00000
     24      -7.8426      2.00000
     25      -7.8018      2.00000
     26      -7.5546      2.00000
     27      -6.9682      2.00000
     28      -6.9678      2.00000
     29      -2.4248      2.00000
     30      -2.2629      2.00000
     31      -2.0653      2.00000
     32      -1.9617      2.00000
     33      -1.9030      2.00000
     34      -1.8719      2.00000
     35      -1.8341      2.00000
     36      -1.8059      2.00000
     37      -1.7726      2.00000
     38      -1.5170      2.00000
     39      -1.5060      2.00000
     40      -1.3755      2.00000
     41      -1.3682      2.00000
     42      -1.3234      2.00000
     43      -0.2244      2.00000
     44      -0.1749      2.00000
     45      -0.0981      2.00000
     46       0.0462      2.00000
     47       0.1595      2.00000
     48       0.1883      2.00000
     49       0.6929      2.00000
     50       0.7220      2.00000
     51       0.9113      2.00000
     52       1.1214      2.00000
     53       1.3175      2.00000
     54       1.7941      2.00000
     55       1.8462      2.00000
     56       2.1517      2.00000
     57       2.1691      2.00000
     58       2.4143      2.00000
     59       2.4628      2.00000
     60       3.1578      2.00000
     61       3.4157      2.00000
     62       3.5863      2.00000
     63       6.2758      0.00000
     64       6.3892      0.00000
     65       6.5017      0.00000
     66       6.5564      0.00000
     67       7.7337      0.00000
     68       7.8491      0.00000
     69       8.3812      0.00000
     70       8.9218      0.00000
     71       9.3410      0.00000
     72       9.4146      0.00000
     73       9.5342      0.00000
     74       9.7661      0.00000
     75       9.8611      0.00000
     76      10.3071      0.00000
     77      10.4675      0.00000
     78      10.6659      0.00000
     79      10.8231      0.00000
     80      10.9950      0.00000

 k-point    33 :       0.3333    0.2222    0.0000
  band No.  band energies     occupation 
      1     -11.3897      2.00000
      2     -11.3849      2.00000
      3     -11.0822      2.00000
      4     -11.0804      2.00000
      5     -10.9499      2.00000
      6     -10.9489      2.00000
      7     -10.8781      2.00000
      8     -10.8773      2.00000
      9     -10.8397      2.00000
     10     -10.8395      2.00000
     11     -10.2807      2.00000
     12     -10.2807      2.00000
     13     -10.0355      2.00000
     14     -10.0355      2.00000
     15      -9.8384      2.00000
     16      -9.8384      2.00000
     17      -9.8053      2.00000
     18      -9.8053      2.00000
     19      -9.7792      2.00000
     20      -9.7792      2.00000
     21      -8.3716      2.00000
     22      -8.2844      2.00000
     23      -7.7610      2.00000
     24      -7.7485      2.00000
     25      -7.7169      2.00000
     26      -7.5479      2.00000
     27      -6.9349      2.00000
     28      -6.9339      2.00000
     29      -2.5070      2.00000
     30      -2.3873      2.00000
     31      -2.0062      2.00000
     32      -1.9422      2.00000
     33      -1.8771      2.00000
     34      -1.8684      2.00000
     35      -1.8362      2.00000
     36      -1.7988      2.00000
     37      -1.7588      2.00000
     38      -1.5417      2.00000
     39      -1.5143      2.00000
     40      -1.5011      2.00000
     41      -1.4559      2.00000
     42      -1.3305      2.00000
     43      -0.3624      2.00000
     44      -0.3385      2.00000
     45      -0.1215      2.00000
     46      -0.0703      2.00000
     47       0.0360      2.00000
     48       0.0951      2.00000
     49       0.6000      2.00000
     50       0.6791      2.00000
     51       0.8888      2.00000
     52       1.0198      2.00000
     53       1.3422      2.00000
     54       1.5508      2.00000
     55       1.6404      2.00000
     56       2.0477      2.00000
     57       2.1491      2.00000
     58       2.3502      2.00000
     59       2.5213      2.00000
     60       3.1534      2.00000
     61       3.4135      2.00000
     62       3.4761      2.00000
     63       6.2728      0.00000
     64       6.3008      0.00000
     65       6.4184      0.00000
     66       6.5763      0.00000
     67       7.6662      0.00000
     68       7.8186      0.00000
     69       8.5962      0.00000
     70       8.8763      0.00000
     71       9.3292      0.00000
     72       9.3863      0.00000
     73       9.4570      0.00000
     74       9.6759      0.00000
     75       9.9980      0.00000
     76      10.4312      0.00000
     77      10.6449      0.00000
     78      10.7023      0.00000
     79      10.8571      0.00000
     80      11.1052      0.00000

 k-point    34 :       0.3889    0.2222    0.0000
  band No.  band energies     occupation 
      1     -11.3931      2.00000
      2     -11.3895      2.00000
      3     -11.0813      2.00000
      4     -11.0796      2.00000
      5     -10.9499      2.00000
      6     -10.9489      2.00000
      7     -10.8775      2.00000
      8     -10.8767      2.00000
      9     -10.8400      2.00000
     10     -10.8398      2.00000
     11     -10.2836      2.00000
     12     -10.2836      2.00000
     13     -10.0398      2.00000
     14     -10.0398      2.00000
     15      -9.8390      2.00000
     16      -9.8390      2.00000
     17      -9.7970      2.00000
     18      -9.7970      2.00000
     19      -9.7850      2.00000
     20      -9.7850      2.00000
     21      -8.3170      2.00000
     22      -8.2502      2.00000
     23      -7.7214      2.00000
     24      -7.7145      2.00000
     25      -7.6820      2.00000
     26      -7.5519      2.00000
     27      -6.9245      2.00000
     28      -6.9235      2.00000
     29      -2.5327      2.00000
     30      -2.4376      2.00000
     31      -1.9780      2.00000
     32      -1.9385      2.00000
     33      -1.8794      2.00000
     34      -1.8643      2.00000
     35      -1.8336      2.00000
     36      -1.7859      2.00000
     37      -1.7591      2.00000
     38      -1.5748      2.00000
     39      -1.5643      2.00000
     40      -1.5257      2.00000
     41      -1.4082      2.00000
     42      -1.3608      2.00000
     43      -0.4208      2.00000
     44      -0.3960      2.00000
     45      -0.1508      2.00000
     46      -0.1057      2.00000
     47       0.0234      2.00000
     48       0.0687      2.00000
     49       0.5598      2.00000
     50       0.6444      2.00000
     51       0.8148      2.00000
     52       1.1582      2.00000
     53       1.3153      2.00000
     54       1.4578      2.00000
     55       1.5230      2.00000
     56       2.0055      2.00000
     57       2.1337      2.00000
     58       2.3303      2.00000
     59       2.5890      2.00000
     60       3.1161      2.00000
     61       3.4108      2.00000
     62       3.4491      2.00000
     63       6.2388      0.00000
     64       6.2924      0.00000
     65       6.3821      0.00000
     66       6.5909      0.00000
     67       7.6371      0.00000
     68       7.8060      0.00000
     69       8.7059      0.00000
     70       8.8299      0.00000
     71       9.3264      0.00000
     72       9.3572      0.00000
     73       9.4442      0.00000
     74       9.6311      0.00000
     75      10.0410      0.00000
     76      10.5135      0.00000
     77      10.5855      0.00000
     78      10.7302      0.00000
     79      10.7963      0.00000
     80      11.1497      0.00000

 k-point    35 :       0.2778    0.2778   -0.0000
  band No.  band energies     occupation 
      1     -11.3885      2.00000
      2     -11.3839      2.00000
      3     -11.0821      2.00000
      4     -11.0805      2.00000
      5     -10.9516      2.00000
      6     -10.9506      2.00000
      7     -10.8743      2.00000
      8     -10.8737      2.00000
      9     -10.8437      2.00000
     10     -10.8437      2.00000
     11     -10.2684      2.00000
     12     -10.2684      2.00000
     13     -10.0526      2.00000
     14     -10.0526      2.00000
     15      -9.8266      2.00000
     16      -9.8266      2.00000
     17      -9.8162      2.00000
     18      -9.8162      2.00000
     19      -9.7807      2.00000
     20      -9.7807      2.00000
     21      -8.3634      2.00000
     22      -8.2778      2.00000
     23      -7.7448      2.00000
     24      -7.7296      2.00000
     25      -7.7083      2.00000
     26      -7.5475      2.00000
     27      -6.9384      2.00000
     28      -6.9373      2.00000
     29      -2.4707      2.00000
     30      -2.3560      2.00000
     31      -2.0027      2.00000
     32      -1.9380      2.00000
     33      -1.8717      2.00000
     34      -1.8459      2.00000
     35      -1.8390      2.00000
     36      -1.8290      2.00000
     37      -1.7616      2.00000
     38      -1.5419      2.00000
     39      -1.4914      2.00000
     40      -1.4824      2.00000
     41      -1.4493      2.00000
     42      -1.3153      2.00000
     43      -0.4562      2.00000
     44      -0.2392      2.00000
     45      -0.1710      2.00000
     46      -0.1261      2.00000
     47       0.0230      2.00000
     48       0.0440      2.00000
     49       0.6735      2.00000
     50       0.6987      2.00000
     51       0.7548      2.00000
     52       0.9378      2.00000
     53       1.3044      2.00000
     54       1.6165      2.00000
     55       1.6226      2.00000
     56       1.9709      2.00000
     57       2.1533      2.00000
     58       2.1576      2.00000
     59       2.5353      2.00000
     60       3.1527      2.00000
     61       3.4281      2.00000
     62       3.4735      2.00000
     63       6.2848      0.00000
     64       6.4001      0.00000
     65       6.4951      0.00000
     66       6.5816      0.00000
     67       7.7290      0.00000
     68       8.0284      0.00000
     69       8.4630      0.00000
     70       8.9042      0.00000
     71       9.3785      0.00000
     72       9.5287      0.00000
     73       9.7848      0.00000
     74       9.8346      0.00000
     75       9.9941      0.00000
     76      10.5397      0.00000
     77      10.6816      0.00000
     78      10.8921      0.00000
     79      10.9398      0.00000
     80      11.0415      0.00000

 k-point    36 :       0.3333    0.2778   -0.0000
  band No.  band energies     occupation 
      1     -11.3929      2.00000
      2     -11.3904      2.00000
      3     -11.0804      2.00000
      4     -11.0794      2.00000
      5     -10.9526      2.00000
      6     -10.9515      2.00000
      7     -10.8697      2.00000
      8     -10.8691      2.00000
      9     -10.8481      2.00000
     10     -10.8480      2.00000
     11     -10.2641      2.00000
     12     -10.2641      2.00000
     13     -10.0705      2.00000
     14     -10.0705      2.00000
     15      -9.8239      2.00000
     16      -9.8239      2.00000
     17      -9.8055      2.00000
     18      -9.8055      2.00000
     19      -9.7914      2.00000
     20      -9.7914      2.00000
     21      -8.2717      2.00000
     22      -8.2254      2.00000
     23      -7.6699      2.00000
     24      -7.6645      2.00000
     25      -7.6463      2.00000
     26      -7.5603      2.00000
     27      -6.9264      2.00000
     28      -6.9255      2.00000
     29      -2.4801      2.00000
     30      -2.4160      2.00000
     31      -1.9529      2.00000
     32      -1.9267      2.00000
     33      -1.8666      2.00000
     34      -1.8518      2.00000
     35      -1.8348      2.00000
     36      -1.8074      2.00000
     37      -1.7738      2.00000
     38      -1.5798      2.00000
     39      -1.5589      2.00000
     40      -1.5293      2.00000
     41      -1.3787      2.00000
     42      -1.3302      2.00000
     43      -0.6035      2.00000
     44      -0.3121      2.00000
     45      -0.2646      2.00000
     46      -0.1331      2.00000
     47      -0.0324      2.00000
     48      -0.0096      2.00000
     49       0.5432      2.00000
     50       0.6431      2.00000
     51       0.6731      2.00000
     52       1.1168      2.00000
     53       1.2955      2.00000
     54       1.3860      2.00000
     55       1.4773      2.00000
     56       1.9094      2.00000
     57       2.0088      2.00000
     58       2.1197      2.00000
     59       2.6905      2.00000
     60       3.0554      2.00000
     61       3.4306      2.00000
     62       3.4401      2.00000
     63       6.2048      0.00000
     64       6.4545      0.00000
     65       6.4694      0.00000
     66       6.6112      0.00000
     67       7.6967      0.00000
     68       8.0678      0.00000
     69       8.6198      0.00000
     70       8.8401      0.00000
     71       9.4426      0.00000
     72       9.5268      0.00000
     73       9.7553      0.00000
     74       9.9615      0.00000
     75      10.0867      0.00000
     76      10.6937      0.00000
     77      10.8000      0.00000
     78      10.8472      0.00000
     79      11.0974      0.00000
     80      11.1724      0.00000

 k-point    37 :       0.3333    0.3333   -0.0000
  band No.  band energies     occupation 
      1     -11.3931      2.00000
      2     -11.3931      2.00000
      3     -11.0794      2.00000
      4     -11.0794      2.00000
      5     -10.9537      2.00000
      6     -10.9526      2.00000
      7     -10.8629      2.00000
      8     -10.8622      2.00000
      9     -10.8549      2.00000
     10     -10.8549      2.00000
     11     -10.2557      2.00000
     12     -10.2557      2.00000
     13     -10.0852      2.00000
     14     -10.0852      2.00000
     15      -9.8129      2.00000
     16      -9.8129      2.00000
     17      -9.8041      2.00000
     18      -9.8041      2.00000
     19      -9.8031      2.00000
     20      -9.8031      2.00000
     21      -8.2206      2.00000
     22      -8.2206      2.00000
     23      -7.6334      2.00000
     24      -7.6334      2.00000
     25      -7.5944      2.00000
     26      -7.5944      2.00000
     27      -6.9248      2.00000
     28      -6.9248      2.00000
     29      -2.4439      2.00000
     30      -2.4439      2.00000
     31      -1.9221      2.00000
     32      -1.9221      2.00000
     33      -1.8806      2.00000
     34      -1.8424      2.00000
     35      -1.8116      2.00000
     36      -1.8116      2.00000
     37      -1.7971      2.00000
     38      -1.5958      2.00000
     39      -1.5747      2.00000
     40      -1.5390      2.00000
     41      -1.3363      2.00000
     42      -1.3363      2.00000
     43      -0.6935      2.00000
     44      -0.3969      2.00000
     45      -0.1738      2.00000
     46      -0.1738      2.00000
     47      -0.0587      2.00000
     48      -0.0587      2.00000
     49       0.3920      2.00000
     50       0.6803      2.00000
     51       0.6803      2.00000
     52       1.2552      2.00000
     53       1.2830      2.00000
     54       1.3015      2.00000
     55       1.3015      2.00000
     56       1.8830      2.00000
     57       1.9947      2.00000
     58       1.9947      2.00000
     59       2.8844      2.00000
     60       2.8844      2.00000
     61       3.4367      2.00000
     62       3.4367      2.00000
     63       6.1677      0.00000
     64       6.4634      0.00000
     65       6.5776      0.00000
     66       6.5776      0.00000
     67       7.6931      0.00000
     68       8.1418      0.00000
     69       8.7320      0.00000
     70       8.7320      0.00000
     71       9.5221      0.00000
     72       9.5221      0.00000
     73       9.9685      0.00000
     74      10.0592      0.00000
     75      10.0592      0.00000
     76      10.7026      0.00000
     77      10.8941      0.00000
     78      10.8991      0.00000
     79      11.2695      0.00000
     80      11.3515      0.00000

 k-point    38 :      -0.0000   -0.0000    0.1667
  band No.  band energies     occupation 
      1     -11.1992      2.00000
      2     -11.1987      2.00000
      3     -11.0073      2.00000
      4     -11.0073      2.00000
      5     -11.0069      2.00000
      6     -11.0069      2.00000
      7     -10.8427      2.00000
      8     -10.8427      2.00000
      9     -10.8425      2.00000
     10     -10.8425      2.00000
     11      -9.9916      2.00000
     12      -9.9599      2.00000
     13      -9.9599      2.00000
     14      -9.9599      2.00000
     15      -9.9599      2.00000
     16      -9.9584      2.00000
     17      -9.9458      2.00000
     18      -9.8115      2.00000
     19      -9.8115      2.00000
     20      -9.8115      2.00000
     21      -9.8115      2.00000
     22      -9.7270      2.00000
     23      -8.8790      2.00000
     24      -8.8268      2.00000
     25      -8.6380      2.00000
     26      -8.0288      2.00000
     27      -7.7820      2.00000
     28      -7.7095      2.00000
     29      -2.2207      2.00000
     30      -2.2207      2.00000
     31      -2.1255      2.00000
     32      -2.1255      2.00000
     33      -2.0975      2.00000
     34      -1.8756      2.00000
     35      -1.7242      2.00000
     36      -1.7241      2.00000
     37      -1.6770      2.00000
     38      -1.5670      2.00000
     39      -1.4593      2.00000
     40      -1.4592      2.00000
     41      -0.0734      2.00000
     42       0.3932      2.00000
     43       0.7504      2.00000
     44       1.7419      2.00000
     45       1.7419      2.00000
     46       1.9173      2.00000
     47       1.9173      2.00000
     48       2.3562      2.00000
     49       2.6806      2.00000
     50       2.9934      2.00000
     51       2.9934      2.00000
     52       2.9982      2.00000
     53       2.9982      2.00000
     54       3.3025      2.00000
     55       3.3025      2.00000
     56       3.3305      2.00000
     57       3.3305      2.00000
     58       3.5388      2.00000
     59       3.5388      2.00000
     60       3.9312      2.00000
     61       4.1211      2.00000
     62       4.1212      2.00000
     63       4.5133      0.00000
     64       5.2123      0.00000
     65       6.1344      0.00000
     66       6.3246      0.00000
     67       6.7425      0.00000
     68       7.4454      0.00000
     69       7.6890      0.00000
     70       7.7081      0.00000
     71       8.7270      0.00000
     72       8.7463      0.00000
     73       8.7463      0.00000
     74       8.9709      0.00000
     75       8.9709      0.00000
     76       9.1755      0.00000
     77       9.8789      0.00000
     78       9.8789      0.00000
     79       9.9001      0.00000
     80       9.9001      0.00000

 k-point    39 :       0.0556    0.0000    0.1667
  band No.  band energies     occupation 
      1     -11.2006      2.00000
      2     -11.2003      2.00000
      3     -11.0186      2.00000
      4     -11.0169      2.00000
      5     -11.0046      2.00000
      6     -11.0041      2.00000
      7     -10.8466      2.00000
      8     -10.8461      2.00000
      9     -10.8427      2.00000
     10     -10.8425      2.00000
     11      -9.9872      2.00000
     12      -9.9871      2.00000
     13      -9.9599      2.00000
     14      -9.9577      2.00000
     15      -9.9577      2.00000
     16      -9.9400      2.00000
     17      -9.9168      2.00000
     18      -9.8142      2.00000
     19      -9.8132      2.00000
     20      -9.8108      2.00000
     21      -9.8108      2.00000
     22      -9.6887      2.00000
     23      -8.8578      2.00000
     24      -8.8057      2.00000
     25      -8.6180      2.00000
     26      -8.0107      2.00000
     27      -7.7531      2.00000
     28      -7.6853      2.00000
     29      -2.2235      2.00000
     30      -2.2130      2.00000
     31      -2.1246      2.00000
     32      -2.1176      2.00000
     33      -2.0780      2.00000
     34      -1.8715      2.00000
     35      -1.7430      2.00000
     36      -1.7263      2.00000
     37      -1.6498      2.00000
     38      -1.5703      2.00000
     39      -1.4687      2.00000
     40      -1.4590      2.00000
     41      -0.0531      2.00000
     42       0.3912      2.00000
     43       0.6951      2.00000
     44       1.6253      2.00000
     45       1.6977      2.00000
     46       1.7028      2.00000
     47       1.8847      2.00000
     48       2.3309      2.00000
     49       2.6232      2.00000
     50       2.8186      2.00000
     51       2.8959      2.00000
     52       2.9198      2.00000
     53       2.9249      2.00000
     54       3.1945      2.00000
     55       3.2400      2.00000
     56       3.3105      2.00000
     57       3.3257      2.00000
     58       3.3537      2.00000
     59       3.5009      2.00000
     60       3.9430      2.00000
     61       4.0382      2.00000
     62       4.0854      2.00000
     63       4.6768      0.00000
     64       5.3085      0.00000
     65       6.2927      0.00000
     66       6.4355      0.00000
     67       6.9324      0.00000
     68       7.5845      0.00000
     69       7.8248      0.00000
     70       7.8433      0.00000
     71       8.5135      0.00000
     72       8.5974      0.00000
     73       8.8005      0.00000
     74       8.9899      0.00000
     75       9.0210      0.00000
     76       9.1870      0.00000
     77       9.8772      0.00000
     78       9.9185      0.00000
     79       9.9565      0.00000
     80       9.9777      0.00000

 k-point    40 :       0.1111    0.0000    0.1667
  band No.  band energies     occupation 
      1     -11.2077      2.00000
      2     -11.2068      2.00000
      3     -11.0469      2.00000
      4     -11.0408      2.00000
      5     -10.9966      2.00000
      6     -10.9961      2.00000
      7     -10.8555      2.00000
      8     -10.8541      2.00000
      9     -10.8425      2.00000
     10     -10.8422      2.00000
     11     -10.0323      2.00000
     12     -10.0317      2.00000
     13      -9.9515      2.00000
     14      -9.9515      2.00000
     15      -9.9227      2.00000
     16      -9.9198      2.00000
     17      -9.8284      2.00000
     18      -9.8196      2.00000
     19      -9.8087      2.00000
     20      -9.8087      2.00000
     21      -9.8053      2.00000
     22      -9.5818      2.00000
     23      -8.7944      2.00000
     24      -8.7431      2.00000
     25      -8.5590      2.00000
     26      -7.9605      2.00000
     27      -7.6713      2.00000
     28      -7.6153      2.00000
     29      -2.2305      2.00000
     30      -2.1907      2.00000
     31      -2.1205      2.00000
     32      -2.0946      2.00000
     33      -2.0242      2.00000
     34      -1.8667      2.00000
     35      -1.7620      2.00000
     36      -1.7325      2.00000
     37      -1.6066      2.00000
     38      -1.5822      2.00000
     39      -1.4890      2.00000
     40      -1.4586      2.00000
     41      -0.0113      2.00000
     42       0.3456      2.00000
     43       0.5584      2.00000
     44       1.1864      2.00000
     45       1.3783      2.00000
     46       1.5949      2.00000
     47       1.7919      2.00000
     48       2.1268      2.00000
     49       2.3996      2.00000
     50       2.4273      2.00000
     51       2.6334      2.00000
     52       2.7513      2.00000
     53       2.7542      2.00000
     54       2.9455      2.00000
     55       2.9644      2.00000
     56       3.0462      2.00000
     57       3.2448      2.00000
     58       3.3805      2.00000
     59       3.4482      2.00000
     60       3.6108      2.00000
     61       3.9848      2.00000
     62       4.1322      2.00000
     63       5.0336      0.00000
     64       5.5276      0.00000
     65       6.6151      0.00000
     66       6.6812      0.00000
     67       7.3680      0.00000
     68       7.9026      0.00000
     69       7.9827      0.00000
     70       8.1001      0.00000
     71       8.2853      0.00000
     72       8.4088      0.00000
     73       8.9281      0.00000
     74       8.9511      0.00000
     75       9.1522      0.00000
     76       9.1626      0.00000
     77       9.9346      0.00000
     78      10.0971      0.00000
     79      10.1852      0.00000
     80      10.2207      0.00000

 k-point    41 :       0.1667    0.0000    0.1667
  band No.  band energies     occupation 
      1     -11.2272      2.00000
      2     -11.2233      2.00000
      3     -11.0748      2.00000
      4     -11.0664      2.00000
      5     -10.9849      2.00000
      6     -10.9844      2.00000
      7     -10.8650      2.00000
      8     -10.8632      2.00000
      9     -10.8416      2.00000
     10     -10.8413      2.00000
     11     -10.0904      2.00000
     12     -10.0900      2.00000
     13      -9.9430      2.00000
     14      -9.9430      2.00000
     15      -9.8986      2.00000
     16      -9.8982      2.00000
     17      -9.8256      2.00000
     18      -9.8252      2.00000
     19      -9.8043      2.00000
     20      -9.8043      2.00000
     21      -9.6410      2.00000
     22      -9.4202      2.00000
     23      -8.6906      2.00000
     24      -8.6411      2.00000
     25      -8.4648      2.00000
     26      -7.8876      2.00000
     27      -7.5492      2.00000
     28      -7.5076      2.00000
     29      -2.2366      2.00000
     30      -2.1555      2.00000
     31      -2.1109      2.00000
     32      -2.0583      2.00000
     33      -1.9521      2.00000
     34      -1.8720      2.00000
     35      -1.7756      2.00000
     36      -1.7418      2.00000
     37      -1.6196      2.00000
     38      -1.5549      2.00000
     39      -1.5046      2.00000
     40      -1.4583      2.00000
     41      -0.0146      2.00000
     42       0.0829      2.00000
     43       0.5307      2.00000
     44       0.6140      2.00000
     45       1.0668      2.00000
     46       1.4404      2.00000
     47       1.6538      2.00000
     48       1.7024      2.00000
     49       1.9014      2.00000
     50       2.0204      2.00000
     51       2.3195      2.00000
     52       2.5402      2.00000
     53       2.5444      2.00000
     54       2.6382      2.00000
     55       2.6906      2.00000
     56       2.8306      2.00000
     57       3.0530      2.00000
     58       3.3757      2.00000
     59       3.3793      2.00000
     60       3.4309      2.00000
     61       3.8384      2.00000
     62       4.1407      2.00000
     63       5.4126      0.00000
     64       5.7367      0.00000
     65       6.8069      0.00000
     66       6.8532      0.00000
     67       7.6410      0.00000
     68       7.7885      0.00000
     69       7.9237      0.00000
     70       8.2523      0.00000
     71       8.5535      0.00000
     72       8.6730      0.00000
     73       9.0005      0.00000
     74       9.1629      0.00000
     75       9.3016      0.00000
     76       9.3117      0.00000
     77       9.9490      0.00000
     78      10.1888      0.00000
     79      10.3825      0.00000
     80      10.5070      0.00000

 k-point    42 :       0.2222   -0.0000    0.1667
  band No.  band energies     occupation 
      1     -11.2617      2.00000
      2     -11.2539      2.00000
      3     -11.0895      2.00000
      4     -11.0820      2.00000
      5     -10.9714      2.00000
      6     -10.9707      2.00000
      7     -10.8736      2.00000
      8     -10.8719      2.00000
      9     -10.8396      2.00000
     10     -10.8393      2.00000
     11     -10.1545      2.00000
     12     -10.1544      2.00000
     13      -9.9342      2.00000
     14      -9.9342      2.00000
     15      -9.8794      2.00000
     16      -9.8793      2.00000
     17      -9.8281      2.00000
     18      -9.8280      2.00000
     19      -9.7971      2.00000
     20      -9.7971      2.00000
     21      -9.4260      2.00000
     22      -9.2191      2.00000
     23      -8.5519      2.00000
     24      -8.5059      2.00000
     25      -8.3425      2.00000
     26      -7.8027      2.00000
     27      -7.4041      2.00000
     28      -7.3759      2.00000
     29      -2.2352      2.00000
     30      -2.1106      2.00000
     31      -2.0926      2.00000
     32      -2.0121      2.00000
     33      -1.9123      2.00000
     34      -1.8678      2.00000
     35      -1.8236      2.00000
     36      -1.7528      2.00000
     37      -1.6639      2.00000
     38      -1.5235      2.00000
     39      -1.5009      2.00000
     40      -1.4585      2.00000
     41      -0.3170      2.00000
     42      -0.1860      2.00000
     43       0.1367      2.00000
     44       0.5591      2.00000
     45       0.7837      2.00000
     46       1.2167      2.00000
     47       1.2648      2.00000
     48       1.3603      2.00000
     49       1.4916      2.00000
     50       1.5641      2.00000
     51       2.0484      2.00000
     52       2.2481      2.00000
     53       2.3173      2.00000
     54       2.3263      2.00000
     55       2.3832      2.00000
     56       2.7891      2.00000
     57       2.8113      2.00000
     58       3.2805      2.00000
     59       3.3458      2.00000
     60       3.4078      2.00000
     61       3.6748      2.00000
     62       4.0770      2.00000
     63       5.6976      0.00000
     64       5.8321      0.00000
     65       6.6869      0.00000
     66       6.7958      0.00000
     67       7.3603      0.00000
     68       7.6957      0.00000
     69       7.9912      0.00000
     70       8.5039      0.00000
     71       8.7567      0.00000
     72       8.8627      0.00000
     73       9.3768      0.00000
     74       9.3842      0.00000
     75       9.4344      0.00000
     76       9.7440      0.00000
     77       9.7903      0.00000
     78      10.5741      0.00000
     79      10.7116      0.00000
     80      10.8297      0.00000

 k-point    43 :       0.2778    0.0000    0.1667
  band No.  band energies     occupation 
      1     -11.3030      2.00000
      2     -11.2929      2.00000
      3     -11.0925      2.00000
      4     -11.0867      2.00000
      5     -10.9583      2.00000
      6     -10.9576      2.00000
      7     -10.8813      2.00000
      8     -10.8797      2.00000
      9     -10.8359      2.00000
     10     -10.8356      2.00000
     11     -10.2170      2.00000
     12     -10.2170      2.00000
     13      -9.9272      2.00000
     14      -9.9272      2.00000
     15      -9.8693      2.00000
     16      -9.8693      2.00000
     17      -9.8235      2.00000
     18      -9.8235      2.00000
     19      -9.7870      2.00000
     20      -9.7870      2.00000
     21      -9.1861      2.00000
     22      -8.9953      2.00000
     23      -8.3895      2.00000
     24      -8.3495      2.00000
     25      -8.2024      2.00000
     26      -7.7170      2.00000
     27      -7.2547      2.00000
     28      -7.2379      2.00000
     29      -2.2191      2.00000
     30      -2.0636      2.00000
     31      -2.0596      2.00000
     32      -1.9890      2.00000
     33      -1.9615      2.00000
     34      -1.8998      2.00000
     35      -1.8835      2.00000
     36      -1.7641      2.00000
     37      -1.7083      2.00000
     38      -1.5293      2.00000
     39      -1.4601      2.00000
     40      -1.4593      2.00000
     41      -0.7072      2.00000
     42      -0.6142      2.00000
     43      -0.0861      2.00000
     44       0.4067      2.00000
     45       0.6544      2.00000
     46       0.7060      2.00000
     47       0.9857      2.00000
     48       1.0913      2.00000
     49       1.1451      2.00000
     50       1.3273      2.00000
     51       1.8419      2.00000
     52       1.8699      2.00000
     53       2.1062      2.00000
     54       2.1205      2.00000
     55       2.1647      2.00000
     56       2.5654      2.00000
     57       2.7973      2.00000
     58       3.2322      2.00000
     59       3.2784      2.00000
     60       3.3740      2.00000
     61       3.5286      2.00000
     62       3.9583      2.00000
     63       5.7780      0.00000
     64       5.8277      0.00000
     65       6.4660      0.00000
     66       6.5997      0.00000
     67       7.1379      0.00000
     68       7.4654      0.00000
     69       7.9690      0.00000
     70       8.6163      0.00000
     71       8.8909      0.00000
     72       8.9287      0.00000
     73       9.4821      0.00000
     74       9.5645      0.00000
     75       9.6919      0.00000
     76       9.7456      0.00000
     77      10.1713      0.00000
     78      10.6557      0.00000
     79      10.7266      0.00000
     80      10.9059      0.00000

 k-point    44 :       0.3333   -0.0000    0.1667
  band No.  band energies     occupation 
      1     -11.3414      2.00000
      2     -11.3312      2.00000
      3     -11.0905      2.00000
      4     -11.0859      2.00000
      5     -10.9477      2.00000
      6     -10.9470      2.00000
      7     -10.8877      2.00000
      8     -10.8862      2.00000
      9     -10.8306      2.00000
     10     -10.8304      2.00000
     11     -10.2714      2.00000
     12     -10.2713      2.00000
     13      -9.9225      2.00000
     14      -9.9225      2.00000
     15      -9.8688      2.00000
     16      -9.8688      2.00000
     17      -9.8122      2.00000
     18      -9.8122      2.00000
     19      -9.7753      2.00000
     20      -9.7753      2.00000
     21      -8.9411      2.00000
     22      -8.7694      2.00000
     23      -8.2218      2.00000
     24      -8.1906      2.00000
     25      -8.0590      2.00000
     26      -7.6422      2.00000
     27      -7.1193      2.00000
     28      -7.1113      2.00000
     29      -2.2218      2.00000
     30      -2.1838      2.00000
     31      -2.0285      2.00000
     32      -2.0127      2.00000
     33      -2.0076      2.00000
     34      -1.9192      2.00000
     35      -1.9137      2.00000
     36      -1.7741      2.00000
     37      -1.7419      2.00000
     38      -1.5435      2.00000
     39      -1.4601      2.00000
     40      -1.4177      2.00000
     41      -1.0605      2.00000
     42      -1.0193      2.00000
     43      -0.1764      2.00000
     44       0.1592      2.00000
     45       0.2553      2.00000
     46       0.4912      2.00000
     47       0.7750      2.00000
     48       0.8122      2.00000
     49       0.9383      2.00000
     50       1.1799      2.00000
     51       1.6490      2.00000
     52       1.7807      2.00000
     53       1.9242      2.00000
     54       1.9440      2.00000
     55       1.9509      2.00000
     56       2.3442      2.00000
     57       2.8269      2.00000
     58       3.1802      2.00000
     59       3.1925      2.00000
     60       3.3367      2.00000
     61       3.4278      2.00000
     62       3.8026      2.00000
     63       5.6374      0.00000
     64       5.8002      0.00000
     65       6.2762      0.00000
     66       6.4215      0.00000
     67       6.9552      0.00000
     68       7.2720      0.00000
     69       7.8554      0.00000
     70       8.5651      0.00000
     71       8.8696      0.00000
     72       8.9226      0.00000
     73       9.4658      0.00000
     74       9.6742      0.00000
     75       9.6787      0.00000
     76       9.7963      0.00000
     77      10.2285      0.00000
     78      10.4859      0.00000
     79      10.6864      0.00000
     80      11.0480      0.00000

 k-point    45 :       0.3889    0.0000    0.1667
  band No.  band energies     occupation 
      1     -11.3711      2.00000
      2     -11.3624      2.00000
      3     -11.0874      2.00000
      4     -11.0834      2.00000
      5     -10.9405      2.00000
      6     -10.9396      2.00000
      7     -10.8925      2.00000
      8     -10.8912      2.00000
      9     -10.8248      2.00000
     10     -10.8246      2.00000
     11     -10.3130      2.00000
     12     -10.3129      2.00000
     13      -9.9200      2.00000
     14      -9.9200      2.00000
     15      -9.8716      2.00000
     16      -9.8716      2.00000
     17      -9.8007      2.00000
     18      -9.8007      2.00000
     19      -9.7644      2.00000
     20      -9.7644      2.00000
     21      -8.7174      2.00000
     22      -8.5689      2.00000
     23      -8.0742      2.00000
     24      -8.0535      2.00000
     25      -7.9298      2.00000
     26      -7.5890      2.00000
     27      -7.0137      2.00000
     28      -7.0113      2.00000
     29      -2.4672      2.00000
     30      -2.2666      2.00000
     31      -2.1320      2.00000
     32      -1.9602      2.00000
     33      -1.9528      2.00000
     34      -1.9322      2.00000
     35      -1.8775      2.00000
     36      -1.7812      2.00000
     37      -1.7565      2.00000
     38      -1.5644      2.00000
     39      -1.4603      2.00000
     40      -1.4042      2.00000
     41      -1.3493      2.00000
     42      -1.3176      2.00000
     43      -0.3170      2.00000
     44      -0.0679      2.00000
     45       0.1168      2.00000
     46       0.2815      2.00000
     47       0.5033      2.00000
     48       0.6694      2.00000
     49       0.8196      2.00000
     50       1.0643      2.00000
     51       1.5672      2.00000
     52       1.7274      2.00000
     53       1.7843      2.00000
     54       1.8093      2.00000
     55       1.8618      2.00000
     56       2.1695      2.00000
     57       2.8579      2.00000
     58       3.0796      2.00000
     59       3.1524      2.00000
     60       3.3039      2.00000
     61       3.3686      2.00000
     62       3.6388      2.00000
     63       5.5025      0.00000
     64       5.6925      0.00000
     65       6.1308      0.00000
     66       6.2880      0.00000
     67       6.8326      0.00000
     68       7.1261      0.00000
     69       7.7360      0.00000
     70       8.4977      0.00000
     71       8.7415      0.00000
     72       8.8794      0.00000
     73       9.4225      0.00000
     74       9.5248      0.00000
     75       9.7348      0.00000
     76       9.7911      0.00000
     77      10.1336      0.00000
     78      10.3385      0.00000
     79      10.6597      0.00000
     80      11.0564      0.00000

 k-point    46 :       0.4444   -0.0000    0.1667
  band No.  band energies     occupation 
      1     -11.3895      2.00000
      2     -11.3825      2.00000
      3     -11.0850      2.00000
      4     -11.0815      2.00000
      5     -10.9365      2.00000
      6     -10.9356      2.00000
      7     -10.8956      2.00000
      8     -10.8943      2.00000
      9     -10.8203      2.00000
     10     -10.8201      2.00000
     11     -10.3389      2.00000
     12     -10.3389      2.00000
     13      -9.9189      2.00000
     14      -9.9189      2.00000
     15      -9.8741      2.00000
     16      -9.8741      2.00000
     17      -9.7930      2.00000
     18      -9.7930      2.00000
     19      -9.7567      2.00000
     20      -9.7567      2.00000
     21      -8.5515      2.00000
     22      -8.4280      2.00000
     23      -7.9744      2.00000
     24      -7.9621      2.00000
     25      -7.8346      2.00000
     26      -7.5626      2.00000
     27      -6.9481      2.00000
     28      -6.9478      2.00000
     29      -2.6442      2.00000
     30      -2.4728      2.00000
     31      -2.0884      2.00000
     32      -1.9487      2.00000
     33      -1.9243      2.00000
     34      -1.8737      2.00000
     35      -1.8591      2.00000
     36      -1.7841      2.00000
     37      -1.7518      2.00000
     38      -1.5960      2.00000
     39      -1.5489      2.00000
     40      -1.5361      2.00000
     41      -1.4598      2.00000
     42      -1.3790      2.00000
     43      -0.5636      2.00000
     44      -0.0535      2.00000
     45       0.0013      2.00000
     46       0.1873      2.00000
     47       0.3215      2.00000
     48       0.6329      2.00000
     49       0.7447      2.00000
     50       0.9909      2.00000
     51       1.4938      2.00000
     52       1.5582      2.00000
     53       1.6960      2.00000
     54       1.7254      2.00000
     55       1.9994      2.00000
     56       2.0577      2.00000
     57       2.8682      2.00000
     58       3.0087      2.00000
     59       3.1177      2.00000
     60       3.2816      2.00000
     61       3.3366      2.00000
     62       3.5116      2.00000
     63       5.4250      0.00000
     64       5.5862      0.00000
     65       6.0352      0.00000
     66       6.2002      0.00000
     67       6.7782      0.00000
     68       7.0218      0.00000
     69       7.6525      0.00000
     70       8.4626      0.00000
     71       8.6317      0.00000
     72       8.8279      0.00000
     73       9.3791      0.00000
     74       9.3841      0.00000
     75       9.7558      0.00000
     76       9.7766      0.00000
     77      10.0553      0.00000
     78      10.2499      0.00000
     79      10.6723      0.00000
     80      11.0134      0.00000

 k-point    47 :       0.5000    0.0000    0.1667
  band No.  band energies     occupation 
      1     -11.3957      2.00000
      2     -11.3896      2.00000
      3     -11.0841      2.00000
      4     -11.0807      2.00000
      5     -10.9352      2.00000
      6     -10.9343      2.00000
      7     -10.8966      2.00000
      8     -10.8953      2.00000
      9     -10.8186      2.00000
     10     -10.8184      2.00000
     11     -10.3477      2.00000
     12     -10.3477      2.00000
     13      -9.9186      2.00000
     14      -9.9186      2.00000
     15      -9.8751      2.00000
     16      -9.8751      2.00000
     17      -9.7903      2.00000
     18      -9.7903      2.00000
     19      -9.7539      2.00000
     20      -9.7539      2.00000
     21      -8.4878      2.00000
     22      -8.3774      2.00000
     23      -7.9403      2.00000
     24      -7.9301      2.00000
     25      -7.7976      2.00000
     26      -7.5566      2.00000
     27      -6.9263      2.00000
     28      -6.9258      2.00000
     29      -2.7067      2.00000
     30      -2.5539      2.00000
     31      -2.0720      2.00000
     32      -1.9556      2.00000
     33      -1.9099      2.00000
     34      -1.8552      2.00000
     35      -1.8259      2.00000
     36      -1.7843      2.00000
     37      -1.7471      2.00000
     38      -1.6295      2.00000
     39      -1.6182      2.00000
     40      -1.5833      2.00000
     41      -1.4595      2.00000
     42      -1.3999      2.00000
     43      -0.6457      2.00000
     44      -0.1343      2.00000
     45       0.0328      2.00000
     46       0.1611      2.00000
     47       0.2710      2.00000
     48       0.6383      2.00000
     49       0.7191      2.00000
     50       0.9658      2.00000
     51       1.4326      2.00000
     52       1.5155      2.00000
     53       1.6654      2.00000
     54       1.6974      2.00000
     55       2.0191      2.00000
     56       2.0680      2.00000
     57       2.8618      2.00000
     58       2.9836      2.00000
     59       3.1042      2.00000
     60       3.2734      2.00000
     61       3.3266      2.00000
     62       3.4652      2.00000
     63       5.4071      0.00000
     64       5.5394      0.00000
     65       5.9937      0.00000
     66       6.1711      0.00000
     67       6.7805      0.00000
     68       6.9716      0.00000
     69       7.6229      0.00000
     70       8.4527      0.00000
     71       8.5905      0.00000
     72       8.8117      0.00000
     73       9.3034      0.00000
     74       9.3693      0.00000
     75       9.7608      0.00000
     76       9.7927      0.00000
     77      10.0264      0.00000
     78      10.2135      0.00000
     79      10.6646      0.00000
     80      11.0268      0.00000

 k-point    48 :      -0.4444    0.0000    0.1667
  band No.  band energies     occupation 
      1     -11.3895      2.00000
      2     -11.3825      2.00000
      3     -11.0850      2.00000
      4     -11.0815      2.00000
      5     -10.9365      2.00000
      6     -10.9356      2.00000
      7     -10.8956      2.00000
      8     -10.8943      2.00000
      9     -10.8203      2.00000
     10     -10.8201      2.00000
     11     -10.3389      2.00000
     12     -10.3389      2.00000
     13      -9.9189      2.00000
     14      -9.9189      2.00000
     15      -9.8741      2.00000
     16      -9.8741      2.00000
     17      -9.7930      2.00000
     18      -9.7930      2.00000
     19      -9.7567      2.00000
     20      -9.7567      2.00000
     21      -8.5515      2.00000
     22      -8.4280      2.00000
     23      -7.9764      2.00000
     24      -7.9598      2.00000
     25      -7.8349      2.00000
     26      -7.5626      2.00000
     27      -6.9482      2.00000
     28      -6.9477      2.00000
     29      -2.6442      2.00000
     30      -2.4728      2.00000
     31      -2.0883      2.00000
     32      -1.9488      2.00000
     33      -1.9243      2.00000
     34      -1.8738      2.00000
     35      -1.8591      2.00000
     36      -1.7841      2.00000
     37      -1.7518      2.00000
     38      -1.5947      2.00000
     39      -1.5576      2.00000
     40      -1.5281      2.00000
     41      -1.4598      2.00000
     42      -1.3797      2.00000
     43      -0.5611      2.00000
     44      -0.0965      2.00000
     45       0.0892      2.00000
     46       0.1279      2.00000
     47       0.3362      2.00000
     48       0.6302      2.00000
     49       0.7447      2.00000
     50       0.9910      2.00000
     51       1.4959      2.00000
     52       1.5546      2.00000
     53       1.6947      2.00000
     54       1.7269      2.00000
     55       2.0024      2.00000
     56       2.0575      2.00000
     57       2.8661      2.00000
     58       3.0090      2.00000
     59       3.1161      2.00000
     60       3.2805      2.00000
     61       3.3375      2.00000
     62       3.5141      2.00000
     63       5.4338      0.00000
     64       5.5831      0.00000
     65       6.0131      0.00000
     66       6.2058      0.00000
     67       6.8078      0.00000
     68       7.0047      0.00000
     69       7.6521      0.00000
     70       8.4574      0.00000
     71       8.6319      0.00000
     72       8.8453      0.00000
     73       9.3238      0.00000
     74       9.3838      0.00000
     75       9.7565      0.00000
     76       9.8443      0.00000
     77      10.0589      0.00000
     78      10.2239      0.00000
     79      10.6320      0.00000
     80      11.0864      0.00000

 k-point    49 :      -0.3889    0.0000    0.1667
  band No.  band energies     occupation 
      1     -11.3711      2.00000
      2     -11.3624      2.00000
      3     -11.0873      2.00000
      4     -11.0834      2.00000
      5     -10.9405      2.00000
      6     -10.9396      2.00000
      7     -10.8926      2.00000
      8     -10.8912      2.00000
      9     -10.8248      2.00000
     10     -10.8246      2.00000
     11     -10.3130      2.00000
     12     -10.3129      2.00000
     13      -9.9200      2.00000
     14      -9.9200      2.00000
     15      -9.8716      2.00000
     16      -9.8716      2.00000
     17      -9.8007      2.00000
     18      -9.8007      2.00000
     19      -9.7644      2.00000
     20      -9.7644      2.00000
     21      -8.7174      2.00000
     22      -8.5689      2.00000
     23      -8.0783      2.00000
     24      -8.0485      2.00000
     25      -7.9309      2.00000
     26      -7.5889      2.00000
     27      -7.0144      2.00000
     28      -7.0106      2.00000
     29      -2.4671      2.00000
     30      -2.2668      2.00000
     31      -2.1318      2.00000
     32      -1.9602      2.00000
     33      -1.9527      2.00000
     34      -1.9323      2.00000
     35      -1.8775      2.00000
     36      -1.7812      2.00000
     37      -1.7565      2.00000
     38      -1.5645      2.00000
     39      -1.4603      2.00000
     40      -1.3999      2.00000
     41      -1.3596      2.00000
     42      -1.3112      2.00000
     43      -0.3054      2.00000
     44      -0.1142      2.00000
     45       0.1954      2.00000
     46       0.2463      2.00000
     47       0.4938      2.00000
     48       0.6691      2.00000
     49       0.8196      2.00000
     50       1.0644      2.00000
     51       1.5654      2.00000
     52       1.7165      2.00000
     53       1.7817      2.00000
     54       1.8122      2.00000
     55       1.8794      2.00000
     56       2.1691      2.00000
     57       2.8490      2.00000
     58       3.0804      2.00000
     59       3.1560      2.00000
     60       3.3017      2.00000
     61       3.3701      2.00000
     62       3.6397      2.00000
     63       5.5147      0.00000
     64       5.6895      0.00000
     65       6.1004      0.00000
     66       6.2971      0.00000
     67       6.8590      0.00000
     68       7.1151      0.00000
     69       7.7358      0.00000
     70       8.4922      0.00000
     71       8.7297      0.00000
     72       8.9146      0.00000
     73       9.4219      0.00000
     74       9.4283      0.00000
     75       9.7359      0.00000
     76       9.9035      0.00000
     77      10.1362      0.00000
     78      10.3022      0.00000
     79      10.6370      0.00000
     80      11.1222      0.00000

 k-point    50 :      -0.3333    0.0000    0.1667
  band No.  band energies     occupation 
      1     -11.3414      2.00000
      2     -11.3312      2.00000
      3     -11.0905      2.00000
      4     -11.0859      2.00000
      5     -10.9477      2.00000
      6     -10.9470      2.00000
      7     -10.8877      2.00000
      8     -10.8862      2.00000
      9     -10.8306      2.00000
     10     -10.8304      2.00000
     11     -10.2714      2.00000
     12     -10.2713      2.00000
     13      -9.9225      2.00000
     14      -9.9225      2.00000
     15      -9.8688      2.00000
     16      -9.8688      2.00000
     17      -9.8122      2.00000
     18      -9.8122      2.00000
     19      -9.7753      2.00000
     20      -9.7753      2.00000
     21      -8.9411      2.00000
     22      -8.7693      2.00000
     23      -8.2266      2.00000
     24      -8.1842      2.00000
     25      -8.0609      2.00000
     26      -7.6419      2.00000
     27      -7.1205      2.00000
     28      -7.1102      2.00000
     29      -2.2222      2.00000
     30      -2.1825      2.00000
     31      -2.0338      2.00000
     32      -2.0093      2.00000
     33      -2.0076      2.00000
     34      -1.9184      2.00000
     35      -1.9137      2.00000
     36      -1.7741      2.00000
     37      -1.7421      2.00000
     38      -1.5437      2.00000
     39      -1.4601      2.00000
     40      -1.4161      2.00000
     41      -1.0658      2.00000
     42      -1.0147      2.00000
     43      -0.1800      2.00000
     44       0.1228      2.00000
     45       0.3203      2.00000
     46       0.5264      2.00000
     47       0.6348      2.00000
     48       0.8917      2.00000
     49       0.9383      2.00000
     50       1.1799      2.00000
     51       1.6500      2.00000
     52       1.7691      2.00000
     53       1.9206      2.00000
     54       1.9479      2.00000
     55       1.9671      2.00000
     56       2.3437      2.00000
     57       2.8130      2.00000
     58       3.1819      2.00000
     59       3.2021      2.00000
     60       3.3335      2.00000
     61       3.4296      2.00000
     62       3.8009      2.00000
     63       5.6477      0.00000
     64       5.7981      0.00000
     65       6.2500      0.00000
     66       6.4336      0.00000
     67       6.9628      0.00000
     68       7.2735      0.00000
     69       7.8558      0.00000
     70       8.5600      0.00000
     71       8.8373      0.00000
     72       8.9748      0.00000
     73       9.4651      0.00000
     74       9.5617      0.00000
     75       9.6798      0.00000
     76       9.9144      0.00000
     77      10.2277      0.00000
     78      10.4620      0.00000
     79      10.6688      0.00000
     80      11.0941      0.00000

 k-point    51 :      -0.2778    0.0000    0.1667
  band No.  band energies     occupation 
      1     -11.3030      2.00000
      2     -11.2929      2.00000
      3     -11.0925      2.00000
      4     -11.0867      2.00000
      5     -10.9583      2.00000
      6     -10.9576      2.00000
      7     -10.8813      2.00000
      8     -10.8797      2.00000
      9     -10.8359      2.00000
     10     -10.8356      2.00000
     11     -10.2170      2.00000
     12     -10.2170      2.00000
     13      -9.9272      2.00000
     14      -9.9272      2.00000
     15      -9.8694      2.00000
     16      -9.8693      2.00000
     17      -9.8235      2.00000
     18      -9.8235      2.00000
     19      -9.7870      2.00000
     20      -9.7870      2.00000
     21      -9.1861      2.00000
     22      -8.9952      2.00000
     23      -8.3937      2.00000
     24      -8.3437      2.00000
     25      -8.2043      2.00000
     26      -7.7167      2.00000
     27      -7.2560      2.00000
     28      -7.2367      2.00000
     29      -2.2192      2.00000
     30      -2.0626      2.00000
     31      -2.0596      2.00000
     32      -1.9878      2.00000
     33      -1.9615      2.00000
     34      -1.9119      2.00000
     35      -1.8738      2.00000
     36      -1.7641      2.00000
     37      -1.7086      2.00000
     38      -1.5293      2.00000
     39      -1.4593      2.00000
     40      -1.4586      2.00000
     41      -0.7132      2.00000
     42      -0.6096      2.00000
     43      -0.0892      2.00000
     44       0.4324      2.00000
     45       0.6131      2.00000
     46       0.7730      2.00000
     47       0.8753      2.00000
     48       1.0913      2.00000
     49       1.2190      2.00000
     50       1.3273      2.00000
     51       1.8347      2.00000
     52       1.8582      2.00000
     53       2.1019      2.00000
     54       2.1251      2.00000
     55       2.1766      2.00000
     56       2.5649      2.00000
     57       2.7864      2.00000
     58       3.2404      2.00000
     59       3.2815      2.00000
     60       3.3701      2.00000
     61       3.5297      2.00000
     62       3.9562      2.00000
     63       5.7831      0.00000
     64       5.8266      0.00000
     65       6.4507      0.00000
     66       6.6114      0.00000
     67       7.1321      0.00000
     68       7.4733      0.00000
     69       7.9694      0.00000
     70       8.6128      0.00000
     71       8.8663      0.00000
     72       8.9634      0.00000
     73       9.4815      0.00000
     74       9.5651      0.00000
     75       9.6138      0.00000
     76       9.8226      0.00000
     77      10.1640      0.00000
     78      10.6164      0.00000
     79      10.7254      0.00000
     80      10.9869      0.00000

 k-point    52 :      -0.2222    0.0000    0.1667
  band No.  band energies     occupation 
      1     -11.2617      2.00000
      2     -11.2539      2.00000
      3     -11.0895      2.00000
      4     -11.0820      2.00000
      5     -10.9714      2.00000
      6     -10.9707      2.00000
      7     -10.8736      2.00000
      8     -10.8719      2.00000
      9     -10.8396      2.00000
     10     -10.8393      2.00000
     11     -10.1546      2.00000
     12     -10.1544      2.00000
     13      -9.9343      2.00000
     14      -9.9342      2.00000
     15      -9.8794      2.00000
     16      -9.8793      2.00000
     17      -9.8281      2.00000
     18      -9.8280      2.00000
     19      -9.7971      2.00000
     20      -9.7971      2.00000
     21      -9.4260      2.00000
     22      -9.2191      2.00000
     23      -8.5548      2.00000
     24      -8.5019      2.00000
     25      -8.3439      2.00000
     26      -7.8024      2.00000
     27      -7.4053      2.00000
     28      -7.3750      2.00000
     29      -2.2351      2.00000
     30      -2.1106      2.00000
     31      -2.0926      2.00000
     32      -2.0121      2.00000
     33      -1.9077      2.00000
     34      -1.8764      2.00000
     35      -1.8198      2.00000
     36      -1.7528      2.00000
     37      -1.6638      2.00000
     38      -1.5239      2.00000
     39      -1.5001      2.00000
     40      -1.4585      2.00000
     41      -0.3312      2.00000
     42      -0.1685      2.00000
     43       0.1406      2.00000
     44       0.5385      2.00000
     45       0.7955      2.00000
     46       1.2604      2.00000
     47       1.2648      2.00000
     48       1.2966      2.00000
     49       1.4916      2.00000
     50       1.5929      2.00000
     51       2.0439      2.00000
     52       2.2311      2.00000
     53       2.3127      2.00000
     54       2.3311      2.00000
     55       2.4002      2.00000
     56       2.7839      2.00000
     57       2.8108      2.00000
     58       3.2827      2.00000
     59       3.3494      2.00000
     60       3.4042      2.00000
     61       3.6751      2.00000
     62       4.0769      2.00000
     63       5.6980      0.00000
     64       5.8315      0.00000
     65       6.6841      0.00000
     66       6.8000      0.00000
     67       7.3568      0.00000
     68       7.6973      0.00000
     69       7.9901      0.00000
     70       8.5136      0.00000
     71       8.7461      0.00000
     72       8.8655      0.00000
     73       9.3783      0.00000
     74       9.3843      0.00000
     75       9.4344      0.00000
     76       9.7375      0.00000
     77       9.7928      0.00000
     78      10.5374      0.00000
     79      10.7444      0.00000
     80      10.8370      0.00000

 k-point    53 :      -0.1667   -0.0000    0.1667
  band No.  band energies     occupation 
      1     -11.2272      2.00000
      2     -11.2233      2.00000
      3     -11.0748      2.00000
      4     -11.0664      2.00000
      5     -10.9849      2.00000
      6     -10.9844      2.00000
      7     -10.8650      2.00000
      8     -10.8632      2.00000
      9     -10.8416      2.00000
     10     -10.8413      2.00000
     11     -10.0904      2.00000
     12     -10.0900      2.00000
     13      -9.9430      2.00000
     14      -9.9430      2.00000
     15      -9.8986      2.00000
     16      -9.8982      2.00000
     17      -9.8256      2.00000
     18      -9.8252      2.00000
     19      -9.8043      2.00000
     20      -9.8043      2.00000
     21      -9.6410      2.00000
     22      -9.4202      2.00000
     23      -8.6922      2.00000
     24      -8.6390      2.00000
     25      -8.4656      2.00000
     26      -7.8874      2.00000
     27      -7.5499      2.00000
     28      -7.5070      2.00000
     29      -2.2366      2.00000
     30      -2.1555      2.00000
     31      -2.1110      2.00000
     32      -2.0583      2.00000
     33      -1.9513      2.00000
     34      -1.8736      2.00000
     35      -1.7744      2.00000
     36      -1.7418      2.00000
     37      -1.6184      2.00000
     38      -1.5578      2.00000
     39      -1.5032      2.00000
     40      -1.4583      2.00000
     41      -0.0325      2.00000
     42       0.1134      2.00000
     43       0.5066      2.00000
     44       0.6136      2.00000
     45       1.0892      2.00000
     46       1.4404      2.00000
     47       1.6538      2.00000
     48       1.6958      2.00000
     49       1.8759      2.00000
     50       2.0239      2.00000
     51       2.3611      2.00000
     52       2.5358      2.00000
     53       2.5489      2.00000
     54       2.5993      2.00000
     55       2.7122      2.00000
     56       2.8242      2.00000
     57       3.0525      2.00000
     58       3.3743      2.00000
     59       3.3820      2.00000
     60       3.4285      2.00000
     61       3.8384      2.00000
     62       4.1436      2.00000
     63       5.4114      0.00000
     64       5.7359      0.00000
     65       6.8184      0.00000
     66       6.8440      0.00000
     67       7.6417      0.00000
     68       7.7938      0.00000
     69       7.9083      0.00000
     70       8.2586      0.00000
     71       8.5769      0.00000
     72       8.6500      0.00000
     73       8.9989      0.00000
     74       9.1627      0.00000
     75       9.3115      0.00000
     76       9.3121      0.00000
     77       9.9373      0.00000
     78      10.1733      0.00000
     79      10.4303      0.00000
     80      10.5337      0.00000

 k-point    54 :      -0.1111    0.0000    0.1667
  band No.  band energies     occupation 
      1     -11.2077      2.00000
      2     -11.2068      2.00000
      3     -11.0469      2.00000
      4     -11.0408      2.00000
      5     -10.9966      2.00000
      6     -10.9961      2.00000
      7     -10.8555      2.00000
      8     -10.8541      2.00000
      9     -10.8425      2.00000
     10     -10.8422      2.00000
     11     -10.0323      2.00000
     12     -10.0316      2.00000
     13      -9.9515      2.00000
     14      -9.9515      2.00000
     15      -9.9227      2.00000
     16      -9.9198      2.00000
     17      -9.8284      2.00000
     18      -9.8196      2.00000
     19      -9.8087      2.00000
     20      -9.8087      2.00000
     21      -9.8053      2.00000
     22      -9.5818      2.00000
     23      -8.7950      2.00000
     24      -8.7423      2.00000
     25      -8.5592      2.00000
     26      -7.9604      2.00000
     27      -7.6716      2.00000
     28      -7.6151      2.00000
     29      -2.2304      2.00000
     30      -2.1907      2.00000
     31      -2.1206      2.00000
     32      -2.0946      2.00000
     33      -2.0240      2.00000
     34      -1.8672      2.00000
     35      -1.7615      2.00000
     36      -1.7325      2.00000
     37      -1.6050      2.00000
     38      -1.5847      2.00000
     39      -1.4885      2.00000
     40      -1.4586      2.00000
     41      -0.0109      2.00000
     42       0.3471      2.00000
     43       0.5548      2.00000
     44       1.1836      2.00000
     45       1.3897      2.00000
     46       1.5949      2.00000
     47       1.7919      2.00000
     48       2.0989      2.00000
     49       2.3924      2.00000
     50       2.4487      2.00000
     51       2.6680      2.00000
     52       2.7489      2.00000
     53       2.7566      2.00000
     54       2.9135      2.00000
     55       2.9674      2.00000
     56       3.0441      2.00000
     57       3.2443      2.00000
     58       3.3814      2.00000
     59       3.4477      2.00000
     60       3.6109      2.00000
     61       3.9848      2.00000
     62       4.1376      2.00000
     63       5.0306      0.00000
     64       5.5278      0.00000
     65       6.6187      0.00000
     66       6.6790      0.00000
     67       7.3679      0.00000
     68       7.9001      0.00000
     69       7.9786      0.00000
     70       8.1042      0.00000
     71       8.2856      0.00000
     72       8.4111      0.00000
     73       8.9281      0.00000
     74       8.9509      0.00000
     75       9.1525      0.00000
     76       9.1628      0.00000
     77       9.9409      0.00000
     78      10.0727      0.00000
     79      10.1807      0.00000
     80      10.2382      0.00000

 k-point    55 :      -0.0556    0.0000    0.1667
  band No.  band energies     occupation 
      1     -11.2006      2.00000
      2     -11.2003      2.00000
      3     -11.0186      2.00000
      4     -11.0169      2.00000
      5     -11.0046      2.00000
      6     -11.0041      2.00000
      7     -10.8466      2.00000
      8     -10.8461      2.00000
      9     -10.8427      2.00000
     10     -10.8425      2.00000
     11      -9.9873      2.00000
     12      -9.9870      2.00000
     13      -9.9599      2.00000
     14      -9.9577      2.00000
     15      -9.9577      2.00000
     16      -9.9400      2.00000
     17      -9.9168      2.00000
     18      -9.8142      2.00000
     19      -9.8132      2.00000
     20      -9.8108      2.00000
     21      -9.8108      2.00000
     22      -9.6887      2.00000
     23      -8.8579      2.00000
     24      -8.8056      2.00000
     25      -8.6180      2.00000
     26      -8.0107      2.00000
     27      -7.7532      2.00000
     28      -7.6853      2.00000
     29      -2.2235      2.00000
     30      -2.2130      2.00000
     31      -2.1246      2.00000
     32      -2.1176      2.00000
     33      -2.0779      2.00000
     34      -1.8716      2.00000
     35      -1.7428      2.00000
     36      -1.7263      2.00000
     37      -1.6498      2.00000
     38      -1.5704      2.00000
     39      -1.4686      2.00000
     40      -1.4590      2.00000
     41      -0.0529      2.00000
     42       0.3907      2.00000
     43       0.6954      2.00000
     44       1.6228      2.00000
     45       1.7019      2.00000
     46       1.7028      2.00000
     47       1.8847      2.00000
     48       2.3221      2.00000
     49       2.6333      2.00000
     50       2.8151      2.00000
     51       2.9015      2.00000
     52       2.9210      2.00000
     53       2.9236      2.00000
     54       3.1936      2.00000
     55       3.2385      2.00000
     56       3.3110      2.00000
     57       3.3203      2.00000
     58       3.3531      2.00000
     59       3.5010      2.00000
     60       3.9432      2.00000
     61       4.0423      2.00000
     62       4.0854      2.00000
     63       4.6749      0.00000
     64       5.3087      0.00000
     65       6.2933      0.00000
     66       6.4351      0.00000
     67       6.9324      0.00000
     68       7.5845      0.00000
     69       7.8190      0.00000
     70       7.8491      0.00000
     71       8.5130      0.00000
     72       8.5980      0.00000
     73       8.8004      0.00000
     74       8.9903      0.00000
     75       9.0212      0.00000
     76       9.1863      0.00000
     77       9.8814      0.00000
     78       9.9141      0.00000
     79       9.9538      0.00000
     80       9.9770      0.00000

 k-point    56 :       0.0556    0.0556    0.1667
  band No.  band energies     occupation 
      1     -11.2048      2.00000
      2     -11.2044      2.00000
      3     -11.0385      2.00000
      4     -11.0335      2.00000
      5     -10.9992      2.00000
      6     -10.9988      2.00000
      7     -10.8529      2.00000
      8     -10.8517      2.00000
      9     -10.8426      2.00000
     10     -10.8424      2.00000
     11     -10.0175      2.00000
     12     -10.0170      2.00000
     13      -9.9569      2.00000
     14      -9.9560      2.00000
     15      -9.9281      2.00000
     16      -9.9240      2.00000
     17      -9.8539      2.00000
     18      -9.8180      2.00000
     19      -9.8143      2.00000
     20      -9.8095      2.00000
     21      -9.8094      2.00000
     22      -9.6164      2.00000
     23      -8.8156      2.00000
     24      -8.7636      2.00000
     25      -8.5785      2.00000
     26      -7.9766      2.00000
     27      -7.6979      2.00000
     28      -7.6382      2.00000
     29      -2.2284      2.00000
     30      -2.1981      2.00000
     31      -2.1220      2.00000
     32      -2.1022      2.00000
     33      -2.0413      2.00000
     34      -1.8673      2.00000
     35      -1.7578      2.00000
     36      -1.7308      2.00000
     37      -1.6171      2.00000
     38      -1.5790      2.00000
     39      -1.4834      2.00000
     40      -1.4586      2.00000
     41      -0.0215      2.00000
     42       0.3712      2.00000
     43       0.5945      2.00000
     44       1.3449      2.00000
     45       1.4485      2.00000
     46       1.6315      2.00000
     47       1.8143      2.00000
     48       2.2073      2.00000
     49       2.5142      2.00000
     50       2.5691      2.00000
     51       2.6805      2.00000
     52       2.6857      2.00000
     53       2.8127      2.00000
     54       3.0340      2.00000
     55       3.1563      2.00000
     56       3.1586      2.00000
     57       3.2834      2.00000
     58       3.3127      2.00000
     59       3.4117      2.00000
     60       3.7128      2.00000
     61       4.0044      2.00000
     62       4.1231      2.00000
     63       4.9304      0.00000
     64       5.4663      0.00000
     65       6.5323      0.00000
     66       6.6152      0.00000
     67       7.2462      0.00000
     68       7.8159      0.00000
     69       8.0293      0.00000
     70       8.0596      0.00000
     71       8.3211      0.00000
     72       8.3485      0.00000
     73       8.8999      0.00000
     74       8.9614      0.00000
     75       9.0115      0.00000
     76       9.2550      0.00000
     77       9.8854      0.00000
     78      10.0041      0.00000
     79      10.1059      0.00000
     80      10.1413      0.00000

 k-point    57 :       0.1111    0.0556    0.1667
  band No.  band energies     occupation 
      1     -11.2183      2.00000
      2     -11.2157      2.00000
      3     -11.0661      2.00000
      4     -11.0580      2.00000
      5     -10.9896      2.00000
      6     -10.9891      2.00000
      7     -10.8614      2.00000
      8     -10.8597      2.00000
      9     -10.8422      2.00000
     10     -10.8420      2.00000
     11     -10.0659      2.00000
     12     -10.0654      2.00000
     13      -9.9528      2.00000
     14      -9.9524      2.00000
     15      -9.9031      2.00000
     16      -9.9026      2.00000
     17      -9.8242      2.00000
     18      -9.8234      2.00000
     19      -9.8062      2.00000
     20      -9.8062      2.00000
     21      -9.7074      2.00000
     22      -9.4826      2.00000
     23      -8.7316      2.00000
     24      -8.6807      2.00000
     25      -8.5019      2.00000
     26      -7.9153      2.00000
     27      -7.5963      2.00000
     28      -7.5493      2.00000
     29      -2.2349      2.00000
     30      -2.1696      2.00000
     31      -2.1148      2.00000
     32      -2.0724      2.00000
     33      -1.9776      2.00000
     34      -1.8691      2.00000
     35      -1.7687      2.00000
     36      -1.7394      2.00000
     37      -1.6047      2.00000
     38      -1.5722      2.00000
     39      -1.5005      2.00000
     40      -1.4580      2.00000
     41       0.0000      2.00000
     42       0.2063      2.00000
     43       0.5218      2.00000
     44       0.8365      2.00000
     45       1.1769      2.00000
     46       1.4825      2.00000
     47       1.6845      2.00000
     48       1.9162      2.00000
     49       2.1356      2.00000
     50       2.2001      2.00000
     51       2.3014      2.00000
     52       2.4197      2.00000
     53       2.6145      2.00000
     54       2.8464      2.00000
     55       2.9622      2.00000
     56       2.9926      2.00000
     57       3.1255      2.00000
     58       3.2985      2.00000
     59       3.3269      2.00000
     60       3.4746      2.00000
     61       3.8600      2.00000
     62       4.1602      2.00000
     63       5.2971      0.00000
     64       5.6830      0.00000
     65       6.8029      0.00000
     66       6.8313      0.00000
     67       7.6945      0.00000
     68       7.8565      0.00000
     69       8.0029      0.00000
     70       8.1609      0.00000
     71       8.4765      0.00000
     72       8.5428      0.00000
     73       8.7974      0.00000
     74       8.9459      0.00000
     75       9.2129      0.00000
     76       9.3922      0.00000
     77      10.0140      0.00000
     78      10.0439      0.00000
     79      10.2276      0.00000
     80      10.4014      0.00000

 k-point    58 :       0.1667    0.0556    0.1667
  band No.  band energies     occupation 
      1     -11.2461      2.00000
      2     -11.2398      2.00000
      3     -11.0856      2.00000
      4     -11.0775      2.00000
      5     -10.9772      2.00000
      6     -10.9766      2.00000
      7     -10.8698      2.00000
      8     -10.8681      2.00000
      9     -10.8410      2.00000
     10     -10.8408      2.00000
     11     -10.1248      2.00000
     12     -10.1247      2.00000
     13      -9.9465      2.00000
     14      -9.9464      2.00000
     15      -9.8821      2.00000
     16      -9.8820      2.00000
     17      -9.8282      2.00000
     18      -9.8280      2.00000
     19      -9.8002      2.00000
     20      -9.8002      2.00000
     21      -9.5142      2.00000
     22      -9.3015      2.00000
     23      -8.6092      2.00000
     24      -8.5608      2.00000
     25      -8.3934      2.00000
     26      -7.8369      2.00000
     27      -7.4634      2.00000
     28      -7.4298      2.00000
     29      -2.2372      2.00000
     30      -2.1304      2.00000
     31      -2.0999      2.00000
     32      -2.0305      2.00000
     33      -1.9164      2.00000
     34      -1.8730      2.00000
     35      -1.7947      2.00000
     36      -1.7507      2.00000
     37      -1.6439      2.00000
     38      -1.5306      2.00000
     39      -1.5096      2.00000
     40      -1.4572      2.00000
     41      -0.1421      2.00000
     42      -0.0774      2.00000
     43       0.3159      2.00000
     44       0.5607      2.00000
     45       0.8791      2.00000
     46       1.2947      2.00000
     47       1.4685      2.00000
     48       1.5159      2.00000
     49       1.6044      2.00000
     50       1.7633      2.00000
     51       2.0025      2.00000
     52       2.2090      2.00000
     53       2.3114      2.00000
     54       2.6644      2.00000
     55       2.6871      2.00000
     56       2.7980      2.00000
     57       2.8950      2.00000
     58       3.2355      2.00000
     59       3.3177      2.00000
     60       3.3812      2.00000
     61       3.6861      2.00000
     62       4.1276      2.00000
     63       5.6359      0.00000
     64       5.8444      0.00000
     65       6.8207      0.00000
     66       6.9014      0.00000
     67       7.5416      0.00000
     68       7.8324      0.00000
     69       8.0418      0.00000
     70       8.4539      0.00000
     71       8.6666      0.00000
     72       8.8308      0.00000
     73       8.9711      0.00000
     74       9.1353      0.00000
     75       9.4802      0.00000
     76       9.6094      0.00000
     77       9.8301      0.00000
     78      10.3113      0.00000
     79      10.4234      0.00000
     80      10.6378      0.00000

 k-point    59 :       0.2222    0.0556    0.1667
  band No.  band energies     occupation 
      1     -11.2848      2.00000
      2     -11.2753      2.00000
      3     -11.0925      2.00000
      4     -11.0860      2.00000
      5     -10.9643      2.00000
      6     -10.9637      2.00000
      7     -10.8774      2.00000
      8     -10.8759      2.00000
      9     -10.8385      2.00000
     10     -10.8382      2.00000
     11     -10.1865      2.00000
     12     -10.1865      2.00000
     13      -9.9399      2.00000
     14      -9.9399      2.00000
     15      -9.8679      2.00000
     16      -9.8679      2.00000
     17      -9.8281      2.00000
     18      -9.8281      2.00000
     19      -9.7912      2.00000
     20      -9.7912      2.00000
     21      -9.2870      2.00000
     22      -9.0890      2.00000
     23      -8.4565      2.00000
     24      -8.4128      2.00000
     25      -8.2617      2.00000
     26      -7.7520      2.00000
     27      -7.3171      2.00000
     28      -7.2955      2.00000
     29      -2.2282      2.00000
     30      -2.0872      2.00000
     31      -2.0709      2.00000
     32      -1.9807      2.00000
     33      -1.9290      2.00000
     34      -1.8734      2.00000
     35      -1.8611      2.00000
     36      -1.7631      2.00000
     37      -1.6889      2.00000
     38      -1.5241      2.00000
     39      -1.4842      2.00000
     40      -1.4541      2.00000
     41      -0.5273      2.00000
     42      -0.4067      2.00000
     43      -0.0069      2.00000
     44       0.5104      2.00000
     45       0.6994      2.00000
     46       0.9435      2.00000
     47       1.0862      2.00000
     48       1.1607      2.00000
     49       1.2962      2.00000
     50       1.3785      2.00000
     51       1.7858      2.00000
     52       1.9677      2.00000
     53       2.0310      2.00000
     54       2.3596      2.00000
     55       2.4250      2.00000
     56       2.5987      2.00000
     57       2.8173      2.00000
     58       3.1568      2.00000
     59       3.2928      2.00000
     60       3.3518      2.00000
     61       3.5144      2.00000
     62       4.0356      2.00000
     63       5.8512      0.00000
     64       5.8850      0.00000
     65       6.6258      0.00000
     66       6.7528      0.00000
     67       7.3090      0.00000
     68       7.6341      0.00000
     69       8.1384      0.00000
     70       8.6750      0.00000
     71       8.8517      0.00000
     72       8.9703      0.00000
     73       9.1622      0.00000
     74       9.3475      0.00000
     75       9.7052      0.00000
     76       9.7852      0.00000
     77       9.9958      0.00000
     78      10.6346      0.00000
     79      10.7081      0.00000
     80      10.7919      0.00000

 k-point    60 :       0.2778    0.0556    0.1667
  band No.  band energies     occupation 
      1     -11.3246      2.00000
      2     -11.3142      2.00000
      3     -11.0919      2.00000
      4     -11.0869      2.00000
      5     -10.9530      2.00000
      6     -10.9523      2.00000
      7     -10.8841      2.00000
      8     -10.8826      2.00000
      9     -10.8342      2.00000
     10     -10.8339      2.00000
     11     -10.2436      2.00000
     12     -10.2435      2.00000
     13      -9.9348      2.00000
     14      -9.9348      2.00000
     15      -9.8643      2.00000
     16      -9.8643      2.00000
     17      -9.8197      2.00000
     18      -9.8197      2.00000
     19      -9.7804      2.00000
     20      -9.7804      2.00000
     21      -9.0441      2.00000
     22      -8.8634      2.00000
     23      -8.2883      2.00000
     24      -8.2522      2.00000
     25      -8.1190      2.00000
     26      -7.6720      2.00000
     27      -7.1760      2.00000
     28      -7.1643      2.00000
     29      -2.2016      2.00000
     30      -2.1031      2.00000
     31      -2.0406      2.00000
     32      -2.0231      2.00000
     33      -1.9397      2.00000
     34      -1.9293      2.00000
     35      -1.9088      2.00000
     36      -1.7748      2.00000
     37      -1.7283      2.00000
     38      -1.5352      2.00000
     39      -1.4664      2.00000
     40      -1.4290      2.00000
     41      -0.8925      2.00000
     42      -0.8329      2.00000
     43      -0.1498      2.00000
     44       0.3226      2.00000
     45       0.4051      2.00000
     46       0.6016      2.00000
     47       0.8328      2.00000
     48       0.9161      2.00000
     49       0.9951      2.00000
     50       1.1843      2.00000
     51       1.6081      2.00000
     52       1.7539      2.00000
     53       1.8823      2.00000
     54       2.1031      2.00000
     55       2.1853      2.00000
     56       2.3508      2.00000
     57       2.8316      2.00000
     58       3.0650      2.00000
     59       3.2542      2.00000
     60       3.3199      2.00000
     61       3.3847      2.00000
     62       3.8980      2.00000
     63       5.7895      0.00000
     64       5.9198      0.00000
     65       6.4149      0.00000
     66       6.5595      0.00000
     67       7.1114      0.00000
     68       7.4268      0.00000
     69       8.0704      0.00000
     70       8.7021      0.00000
     71       8.9532      0.00000
     72       9.0029      0.00000
     73       9.2486      0.00000
     74       9.4693      0.00000
     75       9.7049      0.00000
     76       9.9061      0.00000
     77      10.2494      0.00000
     78      10.5656      0.00000
     79      10.8217      0.00000
     80      10.8872      0.00000

 k-point    61 :       0.3333    0.0556    0.1667
  band No.  band energies     occupation 
      1     -11.3582      2.00000
      2     -11.3487      2.00000
      3     -11.0888      2.00000
      4     -11.0847      2.00000
      5     -10.9446      2.00000
      6     -10.9438      2.00000
      7     -10.8894      2.00000
      8     -10.8881      2.00000
      9     -10.8288      2.00000
     10     -10.8285      2.00000
     11     -10.2905      2.00000
     12     -10.2905      2.00000
     13      -9.9315      2.00000
     14      -9.9315      2.00000
     15      -9.8667      2.00000
     16      -9.8667      2.00000
     17      -9.8076      2.00000
     18      -9.8076      2.00000
     19      -9.7698      2.00000
     20      -9.7698      2.00000
     21      -8.8081      2.00000
     22      -8.6487      2.00000
     23      -8.1265      2.00000
     24      -8.1007      2.00000
     25      -7.9815      2.00000
     26      -7.6084      2.00000
     27      -7.0571      2.00000
     28      -7.0525      2.00000
     29      -2.3449      2.00000
     30      -2.1619      2.00000
     31      -2.1344      2.00000
     32      -1.9925      2.00000
     33      -1.9727      2.00000
     34      -1.9232      2.00000
     35      -1.8830      2.00000
     36      -1.7832      2.00000
     37      -1.7538      2.00000
     38      -1.5515      2.00000
     39      -1.4653      2.00000
     40      -1.3954      2.00000
     41      -1.2139      2.00000
     42      -1.1847      2.00000
     43      -0.1982      2.00000
     44      -0.0251      2.00000
     45       0.1955      2.00000
     46       0.3771      2.00000
     47       0.6202      2.00000
     48       0.6473      2.00000
     49       0.8642      2.00000
     50       1.0391      2.00000
     51       1.5054      2.00000
     52       1.6510      2.00000
     53       1.8252      2.00000
     54       1.9071      2.00000
     55       1.9841      2.00000
     56       2.1398      2.00000
     57       2.8524      2.00000
     58       2.9657      2.00000
     59       3.2053      2.00000
     60       3.2639      2.00000
     61       3.3340      2.00000
     62       3.7352      2.00000
     63       5.6563      0.00000
     64       5.8501      0.00000
     65       6.2501      0.00000
     66       6.4099      0.00000
     67       6.9580      0.00000
     68       7.2581      0.00000
     69       7.9535      0.00000
     70       8.6272      0.00000
     71       8.8468      0.00000
     72       9.0016      0.00000
     73       9.3087      0.00000
     74       9.5218      0.00000
     75       9.6148      0.00000
     76       9.8874      0.00000
     77      10.2075      0.00000
     78      10.4368      0.00000
     79      10.8270      0.00000
     80      10.9767      0.00000

 k-point    62 :       0.3889    0.0556    0.1667
  band No.  band energies     occupation 
      1     -11.3818      2.00000
      2     -11.3740      2.00000
      3     -11.0859      2.00000
      4     -11.0823      2.00000
      5     -10.9394      2.00000
      6     -10.9385      2.00000
      7     -10.8931      2.00000
      8     -10.8918      2.00000
      9     -10.8237      2.00000
     10     -10.8235      2.00000
     11     -10.3236      2.00000
     12     -10.3236      2.00000
     13      -9.9299      2.00000
     14      -9.9299      2.00000
     15      -9.8698      2.00000
     16      -9.8698      2.00000
     17      -9.7972      2.00000
     18      -9.7972      2.00000
     19      -9.7617      2.00000
     20      -9.7617      2.00000
     21      -8.6099      2.00000
     22      -8.4758      2.00000
     23      -7.9989      2.00000
     24      -7.9834      2.00000
     25      -7.8676      2.00000
     26      -7.5700      2.00000
     27      -6.9733      2.00000
     28      -6.9725      2.00000
     29      -2.5586      2.00000
     30      -2.3732      2.00000
     31      -2.1028      2.00000
     32      -1.9479      2.00000
     33      -1.9327      2.00000
     34      -1.9192      2.00000
     35      -1.8459      2.00000
     36      -1.7865      2.00000
     37      -1.7587      2.00000
     38      -1.5742      2.00000
     39      -1.4686      2.00000
     40      -1.4647      2.00000
     41      -1.4508      2.00000
     42      -1.3608      2.00000
     43      -0.4438      2.00000
     44      -0.0397      2.00000
     45       0.0341      2.00000
     46       0.2297      2.00000
     47       0.3969      2.00000
     48       0.5282      2.00000
     49       0.7883      2.00000
     50       0.9343      2.00000
     51       1.4598      2.00000
     52       1.5527      2.00000
     53       1.7187      2.00000
     54       1.7593      2.00000
     55       1.9873      2.00000
     56       2.0083      2.00000
     57       2.8544      2.00000
     58       2.8830      2.00000
     59       3.1557      2.00000
     60       3.2339      2.00000
     61       3.3104      2.00000
     62       3.5826      2.00000
     63       5.5524      0.00000
     64       5.7379      0.00000
     65       6.1336      0.00000
     66       6.3054      0.00000
     67       6.8669      0.00000
     68       7.1333      0.00000
     69       7.8519      0.00000
     70       8.5753      0.00000
     71       8.7089      0.00000
     72       8.9503      0.00000
     73       9.3299      0.00000
     74       9.4570      0.00000
     75       9.5637      0.00000
     76       9.8425      0.00000
     77      10.1269      0.00000
     78      10.3388      0.00000
     79      10.7834      0.00000
     80      11.0101      0.00000

 k-point    63 :       0.4444    0.0556    0.1667
  band No.  band energies     occupation 
      1     -11.3938      2.00000
      2     -11.3875      2.00000
      3     -11.0842      2.00000
      4     -11.0808      2.00000
      5     -10.9370      2.00000
      6     -10.9361      2.00000
      7     -10.8951      2.00000
      8     -10.8938      2.00000
      9     -10.8206      2.00000
     10     -10.8204      2.00000
     11     -10.3407      2.00000
     12     -10.3406      2.00000
     13      -9.9292      2.00000
     14      -9.9292      2.00000
     15      -9.8717      2.00000
     16      -9.8717      2.00000
     17      -9.7915      2.00000
     18      -9.7915      2.00000
     19      -9.7573      2.00000
     20      -9.7573      2.00000
     21      -8.4909      2.00000
     22      -8.3790      2.00000
     23      -7.9301      2.00000
     24      -7.9203      2.00000
     25      -7.7988      2.00000
     26      -7.5563      2.00000
     27      -6.9311      2.00000
     28      -6.9306      2.00000
     29      -2.6777      2.00000
     30      -2.5225      2.00000
     31      -2.0697      2.00000
     32      -1.9507      2.00000
     33      -1.9104      2.00000
     34      -1.8851      2.00000
     35      -1.8071      2.00000
     36      -1.7851      2.00000
     37      -1.7509      2.00000
     38      -1.6125      2.00000
     39      -1.5919      2.00000
     40      -1.5670      2.00000
     41      -1.4672      2.00000
     42      -1.3877      2.00000
     43      -0.6105      2.00000
     44      -0.1037      2.00000
     45       0.0237      2.00000
     46       0.1729      2.00000
     47       0.2843      2.00000
     48       0.4861      2.00000
     49       0.7655      2.00000
     50       0.8798      2.00000
     51       1.4328      2.00000
     52       1.4870      2.00000
     53       1.6197      2.00000
     54       1.6682      2.00000
     55       1.9078      2.00000
     56       2.1146      2.00000
     57       2.8317      2.00000
     58       2.8404      2.00000
     59       3.1290      2.00000
     60       3.2227      2.00000
     61       3.2977      2.00000
     62       3.4893      2.00000
     63       5.5062      0.00000
     64       5.6578      0.00000
     65       6.0673      0.00000
     66       6.2503      0.00000
     67       6.8397      0.00000
     68       7.0553      0.00000
     69       7.7952      0.00000
     70       8.5598      0.00000
     71       8.6228      0.00000
     72       8.9083      0.00000
     73       9.3139      0.00000
     74       9.3660      0.00000
     75       9.5797      0.00000
     76       9.8285      0.00000
     77      10.0801      0.00000
     78      10.2916      0.00000
     79      10.7297      0.00000
     80      11.1288      0.00000

 k-point    64 :       0.5000    0.0556    0.1667
  band No.  band energies     occupation 
      1     -11.3938      2.00000
      2     -11.3875      2.00000
      3     -11.0842      2.00000
      4     -11.0808      2.00000
      5     -10.9370      2.00000
      6     -10.9361      2.00000
      7     -10.8951      2.00000
      8     -10.8938      2.00000
      9     -10.8206      2.00000
     10     -10.8204      2.00000
     11     -10.3407      2.00000
     12     -10.3407      2.00000
     13      -9.9292      2.00000
     14      -9.9292      2.00000
     15      -9.8717      2.00000
     16      -9.8717      2.00000
     17      -9.7915      2.00000
     18      -9.7915      2.00000
     19      -9.7573      2.00000
     20      -9.7573      2.00000
     21      -8.4909      2.00000
     22      -8.3790      2.00000
     23      -7.9311      2.00000
     24      -7.9192      2.00000
     25      -7.7989      2.00000
     26      -7.5563      2.00000
     27      -6.9311      2.00000
     28      -6.9306      2.00000
     29      -2.6777      2.00000
     30      -2.5225      2.00000
     31      -2.0696      2.00000
     32      -1.9508      2.00000
     33      -1.9104      2.00000
     34      -1.8851      2.00000
     35      -1.8071      2.00000
     36      -1.7851      2.00000
     37      -1.7508      2.00000
     38      -1.6079      2.00000
     39      -1.6009      2.00000
     40      -1.5623      2.00000
     41      -1.4673      2.00000
     42      -1.3882      2.00000
     43      -0.6094      2.00000
     44      -0.1180      2.00000
     45       0.0622      2.00000
     46       0.1373      2.00000
     47       0.2959      2.00000
     48       0.4858      2.00000
     49       0.7635      2.00000
     50       0.8801      2.00000
     51       1.4283      2.00000
     52       1.4994      2.00000
     53       1.6285      2.00000
     54       1.6506      2.00000
     55       1.9077      2.00000
     56       2.1172      2.00000
     57       2.8289      2.00000
     58       2.8410      2.00000
     59       3.1330      2.00000
     60       3.2192      2.00000
     61       3.2977      2.00000
     62       3.4905      2.00000
     63       5.5098      0.00000
     64       5.6572      0.00000
     65       6.0557      0.00000
     66       6.2535      0.00000
     67       6.8579      0.00000
     68       7.0434      0.00000
     69       7.7950      0.00000
     70       8.5455      0.00000
     71       8.6413      0.00000
     72       8.9098      0.00000
     73       9.3030      0.00000
     74       9.3458      0.00000
     75       9.5875      0.00000
     76       9.8595      0.00000
     77      10.0839      0.00000
     78      10.2772      0.00000
     79      10.7065      0.00000
     80      11.1082      0.00000

 k-point    65 :      -0.4444    0.0556    0.1667
  band No.  band energies     occupation 
      1     -11.3818      2.00000
      2     -11.3740      2.00000
      3     -11.0859      2.00000
      4     -11.0823      2.00000
      5     -10.9394      2.00000
      6     -10.9385      2.00000
      7     -10.8931      2.00000
      8     -10.8918      2.00000
      9     -10.8237      2.00000
     10     -10.8235      2.00000
     11     -10.3236      2.00000
     12     -10.3236      2.00000
     13      -9.9299      2.00000
     14      -9.9299      2.00000
     15      -9.8698      2.00000
     16      -9.8698      2.00000
     17      -9.7972      2.00000
     18      -9.7972      2.00000
     19      -9.7617      2.00000
     20      -9.7617      2.00000
     21      -8.6099      2.00000
     22      -8.4758      2.00000
     23      -8.0020      2.00000
     24      -7.9798      2.00000
     25      -7.8683      2.00000
     26      -7.5700      2.00000
     27      -6.9736      2.00000
     28      -6.9721      2.00000
     29      -2.5585      2.00000
     30      -2.3733      2.00000
     31      -2.1026      2.00000
     32      -1.9479      2.00000
     33      -1.9328      2.00000
     34      -1.9192      2.00000
     35      -1.8459      2.00000
     36      -1.7865      2.00000
     37      -1.7587      2.00000
     38      -1.5741      2.00000
     39      -1.4713      2.00000
     40      -1.4640      2.00000
     41      -1.4488      2.00000
     42      -1.3608      2.00000
     43      -0.4391      2.00000
     44      -0.0911      2.00000
     45       0.1458      2.00000
     46       0.1566      2.00000
     47       0.4099      2.00000
     48       0.5272      2.00000
     49       0.7814      2.00000
     50       0.9347      2.00000
     51       1.4640      2.00000
     52       1.5685      2.00000
     53       1.6969      2.00000
     54       1.7527      2.00000
     55       1.9869      2.00000
     56       2.0230      2.00000
     57       2.8399      2.00000
     58       2.8910      2.00000
     59       3.1649      2.00000
     60       3.2273      2.00000
     61       3.3091      2.00000
     62       3.5847      2.00000
     63       5.5610      0.00000
     64       5.7370      0.00000
     65       6.1072      0.00000
     66       6.3125      0.00000
     67       6.8990      0.00000
     68       7.1148      0.00000
     69       7.8514      0.00000
     70       8.5620      0.00000
     71       8.7279      0.00000
     72       8.9588      0.00000
     73       9.3369      0.00000
     74       9.3670      0.00000
     75       9.5858      0.00000
     76       9.9213      0.00000
     77      10.1301      0.00000
     78      10.3116      0.00000
     79      10.7338      0.00000
     80      11.0544      0.00000

 k-point    66 :      -0.3889    0.0556    0.1667
  band No.  band energies     occupation 
      1     -11.3582      2.00000
      2     -11.3487      2.00000
      3     -11.0888      2.00000
      4     -11.0847      2.00000
      5     -10.9446      2.00000
      6     -10.9438      2.00000
      7     -10.8894      2.00000
      8     -10.8881      2.00000
      9     -10.8288      2.00000
     10     -10.8285      2.00000
     11     -10.2905      2.00000
     12     -10.2905      2.00000
     13      -9.9315      2.00000
     14      -9.9315      2.00000
     15      -9.8667      2.00000
     16      -9.8667      2.00000
     17      -9.8076      2.00000
     18      -9.8076      2.00000
     19      -9.7698      2.00000
     20      -9.7698      2.00000
     21      -8.8081      2.00000
     22      -8.6486      2.00000
     23      -8.1309      2.00000
     24      -8.0949      2.00000
     25      -7.9831      2.00000
     26      -7.6083      2.00000
     27      -7.0580      2.00000
     28      -7.0517      2.00000
     29      -2.3447      2.00000
     30      -2.1617      2.00000
     31      -2.1351      2.00000
     32      -1.9924      2.00000
     33      -1.9726      2.00000
     34      -1.9231      2.00000
     35      -1.8830      2.00000
     36      -1.7832      2.00000
     37      -1.7539      2.00000
     38      -1.5517      2.00000
     39      -1.4653      2.00000
     40      -1.3940      2.00000
     41      -1.2203      2.00000
     42      -1.1792      2.00000
     43      -0.1857      2.00000
     44      -0.0668      2.00000
     45       0.2516      2.00000
     46       0.3771      2.00000
     47       0.5545      2.00000
     48       0.6872      2.00000
     49       0.8575      2.00000
     50       1.0401      2.00000
     51       1.5229      2.00000
     52       1.6506      2.00000
     53       1.7723      2.00000
     54       1.9457      2.00000
     55       1.9927      2.00000
     56       2.1384      2.00000
     57       2.8316      2.00000
     58       2.9780      2.00000
     59       3.2109      2.00000
     60       3.2618      2.00000
     61       3.3329      2.00000
     62       3.7352      2.00000
     63       5.6659      0.00000
     64       5.8490      0.00000
     65       6.2238      0.00000
     66       6.4186      0.00000
     67       6.9765      0.00000
     68       7.2509      0.00000
     69       7.9533      0.00000
     70       8.6215      0.00000
     71       8.8438      0.00000
     72       9.0257      0.00000
     73       9.3168      0.00000
     74       9.4633      0.00000
     75       9.5864      0.00000
     76       9.9789      0.00000
     77      10.2030      0.00000
     78      10.4244      0.00000
     79      10.7829      0.00000
     80      11.0353      0.00000

 k-point    67 :      -0.3333    0.0556    0.1667
  band No.  band energies     occupation 
      1     -11.3246      2.00000
      2     -11.3142      2.00000
      3     -11.0919      2.00000
      4     -11.0869      2.00000
      5     -10.9530      2.00000
      6     -10.9523      2.00000
      7     -10.8841      2.00000
      8     -10.8826      2.00000
      9     -10.8342      2.00000
     10     -10.8339      2.00000
     11     -10.2436      2.00000
     12     -10.2436      2.00000
     13      -9.9348      2.00000
     14      -9.9348      2.00000
     15      -9.8643      2.00000
     16      -9.8643      2.00000
     17      -9.8197      2.00000
     18      -9.8197      2.00000
     19      -9.7804      2.00000
     20      -9.7804      2.00000
     21      -9.0441      2.00000
     22      -8.8634      2.00000
     23      -8.2925      2.00000
     24      -8.2462      2.00000
     25      -8.1209      2.00000
     26      -7.6717      2.00000
     27      -7.1771      2.00000
     28      -7.1632      2.00000
     29      -2.2019      2.00000
     30      -2.1005      2.00000
     31      -2.0424      2.00000
     32      -2.0237      2.00000
     33      -1.9441      2.00000
     34      -1.9293      2.00000
     35      -1.9044      2.00000
     36      -1.7748      2.00000
     37      -1.7286      2.00000
     38      -1.5354      2.00000
     39      -1.4662      2.00000
     40      -1.4276      2.00000
     41      -0.8972      2.00000
     42      -0.8291      2.00000
     43      -0.1544      2.00000
     44       0.3139      2.00000
     45       0.4359      2.00000
     46       0.6560      2.00000
     47       0.7129      2.00000
     48       0.9074      2.00000
     49       1.0495      2.00000
     50       1.1911      2.00000
     51       1.6187      2.00000
     52       1.7279      2.00000
     53       1.8882      2.00000
     54       2.1092      2.00000
     55       2.1916      2.00000
     56       2.3487      2.00000
     57       2.8143      2.00000
     58       3.0766      2.00000
     59       3.2542      2.00000
     60       3.3212      2.00000
     61       3.3847      2.00000
     62       3.8964      2.00000
     63       5.7963      0.00000
     64       5.9185      0.00000
     65       6.3974      0.00000
     66       6.5694      0.00000
     67       7.1112      0.00000
     68       7.4315      0.00000
     69       8.0705      0.00000
     70       8.6990      0.00000
     71       8.9165      0.00000
     72       9.0573      0.00000
     73       9.2527      0.00000
     74       9.4554      0.00000
     75       9.6453      0.00000
     76       9.9691      0.00000
     77      10.2450      0.00000
     78      10.5482      0.00000
     79      10.8453      0.00000
     80      10.9727      0.00000

 k-point    68 :      -0.2778    0.0556    0.1667
  band No.  band energies     occupation 
      1     -11.2848      2.00000
      2     -11.2753      2.00000
      3     -11.0925      2.00000
      4     -11.0860      2.00000
      5     -10.9643      2.00000
      6     -10.9637      2.00000
      7     -10.8774      2.00000
      8     -10.8759      2.00000
      9     -10.8385      2.00000
     10     -10.8382      2.00000
     11     -10.1865      2.00000
     12     -10.1864      2.00000
     13      -9.9399      2.00000
     14      -9.9399      2.00000
     15      -9.8679      2.00000
     16      -9.8679      2.00000
     17      -9.8281      2.00000
     18      -9.8281      2.00000
     19      -9.7912      2.00000
     20      -9.7912      2.00000
     21      -9.2870      2.00000
     22      -9.0890      2.00000
     23      -8.4596      2.00000
     24      -8.4084      2.00000
     25      -8.2632      2.00000
     26      -7.7517      2.00000
     27      -7.3182      2.00000
     28      -7.2945      2.00000
     29      -2.2282      2.00000
     30      -2.0871      2.00000
     31      -2.0708      2.00000
     32      -1.9807      2.00000
     33      -1.9235      2.00000
     34      -1.8902      2.00000
     35      -1.8502      2.00000
     36      -1.7631      2.00000
     37      -1.6890      2.00000
     38      -1.5239      2.00000
     39      -1.4836      2.00000
     40      -1.4539      2.00000
     41      -0.5350      2.00000
     42      -0.3998      2.00000
     43      -0.0053      2.00000
     44       0.5209      2.00000
     45       0.6792      2.00000
     46       0.9855      2.00000
     47       1.0702      2.00000
     48       1.0981      2.00000
     49       1.3227      2.00000
     50       1.4141      2.00000
     51       1.7658      2.00000
     52       1.9480      2.00000
     53       2.0604      2.00000
     54       2.3423      2.00000
     55       2.4384      2.00000
     56       2.5973      2.00000
     57       2.8110      2.00000
     58       3.1599      2.00000
     59       3.2936      2.00000
     60       3.3537      2.00000
     61       3.5141      2.00000
     62       4.0344      2.00000
     63       5.8543      0.00000
     64       5.8832      0.00000
     65       6.6181      0.00000
     66       6.7603      0.00000
     67       7.3035      0.00000
     68       7.6399      0.00000
     69       8.1380      0.00000
     70       8.6752      0.00000
     71       8.8389      0.00000
     72       8.9937      0.00000
     73       9.1559      0.00000
     74       9.3464      0.00000
     75       9.6805      0.00000
     76       9.7946      0.00000
     77      10.0034      0.00000
     78      10.6192      0.00000
     79      10.7188      0.00000
     80      10.8183      0.00000

 k-point    69 :      -0.2222    0.0556    0.1667
  band No.  band energies     occupation 
      1     -11.2461      2.00000
      2     -11.2398      2.00000
      3     -11.0856      2.00000
      4     -11.0775      2.00000
      5     -10.9772      2.00000
      6     -10.9767      2.00000
      7     -10.8698      2.00000
      8     -10.8681      2.00000
      9     -10.8410      2.00000
     10     -10.8408      2.00000
     11     -10.1249      2.00000
     12     -10.1246      2.00000
     13      -9.9465      2.00000
     14      -9.9464      2.00000
     15      -9.8821      2.00000
     16      -9.8820      2.00000
     17      -9.8282      2.00000
     18      -9.8280      2.00000
     19      -9.8002      2.00000
     20      -9.8002      2.00000
     21      -9.5142      2.00000
     22      -9.3015      2.00000
     23      -8.6109      2.00000
     24      -8.5583      2.00000
     25      -8.3943      2.00000
     26      -7.8366      2.00000
     27      -7.4641      2.00000
     28      -7.4291      2.00000
     29      -2.2372      2.00000
     30      -2.1304      2.00000
     31      -2.0999      2.00000
     32      -2.0305      2.00000
     33      -1.9145      2.00000
     34      -1.8762      2.00000
     35      -1.7934      2.00000
     36      -1.7507      2.00000
     37      -1.6436      2.00000
     38      -1.5322      2.00000
     39      -1.5083      2.00000
     40      -1.4572      2.00000
     41      -0.1660      2.00000
     42      -0.0459      2.00000
     43       0.3167      2.00000
     44       0.5371      2.00000
     45       0.8989      2.00000
     46       1.2957      2.00000
     47       1.4834      2.00000
     48       1.5144      2.00000
     49       1.5682      2.00000
     50       1.7794      2.00000
     51       2.0029      2.00000
     52       2.2033      2.00000
     53       2.3270      2.00000
     54       2.6278      2.00000
     55       2.7110      2.00000
     56       2.8048      2.00000
     57       2.8925      2.00000
     58       3.2280      2.00000
     59       3.3222      2.00000
     60       3.3834      2.00000
     61       3.6858      2.00000
     62       4.1280      2.00000
     63       5.6360      0.00000
     64       5.8435      0.00000
     65       6.8229      0.00000
     66       6.9003      0.00000
     67       7.5424      0.00000
     68       7.8301      0.00000
     69       8.0410      0.00000
     70       8.4495      0.00000
     71       8.6907      0.00000
     72       8.8028      0.00000
     73       8.9852      0.00000
     74       9.1337      0.00000
     75       9.4804      0.00000
     76       9.6101      0.00000
     77       9.8259      0.00000
     78      10.2661      0.00000
     79      10.5996      0.00000
     80      10.7409      0.00000

 k-point    70 :      -0.1667    0.0556    0.1667
  band No.  band energies     occupation 
      1     -11.2183      2.00000
      2     -11.2157      2.00000
      3     -11.0661      2.00000
      4     -11.0580      2.00000
      5     -10.9896      2.00000
      6     -10.9891      2.00000
      7     -10.8614      2.00000
      8     -10.8597      2.00000
      9     -10.8422      2.00000
     10     -10.8420      2.00000
     11     -10.0659      2.00000
     12     -10.0654      2.00000
     13      -9.9528      2.00000
     14      -9.9524      2.00000
     15      -9.9031      2.00000
     16      -9.9026      2.00000
     17      -9.8242      2.00000
     18      -9.8234      2.00000
     19      -9.8062      2.00000
     20      -9.8062      2.00000
     21      -9.7074      2.00000
     22      -9.4826      2.00000
     23      -8.7322      2.00000
     24      -8.6798      2.00000
     25      -8.5022      2.00000
     26      -7.9152      2.00000
     27      -7.5966      2.00000
     28      -7.5490      2.00000
     29      -2.2349      2.00000
     30      -2.1696      2.00000
     31      -2.1149      2.00000
     32      -2.0724      2.00000
     33      -1.9773      2.00000
     34      -1.8696      2.00000
     35      -1.7682      2.00000
     36      -1.7394      2.00000
     37      -1.6033      2.00000
     38      -1.5743      2.00000
     39      -1.4999      2.00000
     40      -1.4580      2.00000
     41      -0.0026      2.00000
     42       0.2145      2.00000
     43       0.5126      2.00000
     44       0.8356      2.00000
     45       1.1867      2.00000
     46       1.4828      2.00000
     47       1.6845      2.00000
     48       1.9034      2.00000
     49       2.1161      2.00000
     50       2.2098      2.00000
     51       2.3291      2.00000
     52       2.4126      2.00000
     53       2.6212      2.00000
     54       2.8350      2.00000
     55       2.9615      2.00000
     56       2.9947      2.00000
     57       3.1247      2.00000
     58       3.2868      2.00000
     59       3.3380      2.00000
     60       3.4747      2.00000
     61       3.8599      2.00000
     62       4.1620      2.00000
     63       5.2961      0.00000
     64       5.6828      0.00000
     65       6.8116      0.00000
     66       6.8238      0.00000
     67       7.6942      0.00000
     68       7.8579      0.00000
     69       8.0003      0.00000
     70       8.1580      0.00000
     71       8.4896      0.00000
     72       8.5311      0.00000
     73       8.8017      0.00000
     74       8.9457      0.00000
     75       9.2120      0.00000
     76       9.3945      0.00000
     77       9.9720      0.00000
     78      10.0898      0.00000
     79      10.2225      0.00000
     80      10.4392      0.00000

 k-point    71 :       0.1111    0.1111    0.1667
  band No.  band energies     occupation 
      1     -11.2407      2.00000
      2     -11.2349      2.00000
      3     -11.0837      2.00000
      4     -11.0754      2.00000
      5     -10.9796      2.00000
      6     -10.9790      2.00000
      7     -10.8681      2.00000
      8     -10.8664      2.00000
      9     -10.8418      2.00000
     10     -10.8416      2.00000
     11     -10.1111      2.00000
     12     -10.1109      2.00000
     13      -9.9565      2.00000
     14      -9.9563      2.00000
     15      -9.8813      2.00000
     16      -9.8812      2.00000
     17      -9.8282      2.00000
     18      -9.8281      2.00000
     19      -9.8012      2.00000
     20      -9.8012      2.00000
     21      -9.5443      2.00000
     22      -9.3297      2.00000
     23      -8.6287      2.00000
     24      -8.5778      2.00000
     25      -8.4111      2.00000
     26      -7.8488      2.00000
     27      -7.4847      2.00000
     28      -7.4485      2.00000
     29      -2.2376      2.00000
     30      -2.1376      2.00000
     31      -2.1017      2.00000
     32      -2.0365      2.00000
     33      -1.9208      2.00000
     34      -1.8737      2.00000
     35      -1.7855      2.00000
     36      -1.7514      2.00000
     37      -1.6354      2.00000
     38      -1.5369      2.00000
     39      -1.5103      2.00000
     40      -1.4563      2.00000
     41      -0.0812      2.00000
     42      -0.0390      2.00000
     43       0.4112      2.00000
     44       0.5495      2.00000
     45       0.9229      2.00000
     46       1.2868      2.00000
     47       1.5021      2.00000
     48       1.6702      2.00000
     49       1.6975      2.00000
     50       1.8411      2.00000
     51       1.8878      2.00000
     52       2.0948      2.00000
     53       2.3606      2.00000
     54       2.7767      2.00000
     55       2.8228      2.00000
     56       2.9949      2.00000
     57       3.0022      2.00000
     58       3.0890      2.00000
     59       3.1265      2.00000
     60       3.4058      2.00000
     61       3.6523      2.00000
     62       4.1527      2.00000
     63       5.6258      0.00000
     64       5.8585      0.00000
     65       6.9061      0.00000
     66       6.9640      0.00000
     67       7.7763      0.00000
     68       7.8047      0.00000
     69       8.1148      0.00000
     70       8.4271      0.00000
     71       8.6704      0.00000
     72       8.7280      0.00000
     73       8.8793      0.00000
     74       8.9115      0.00000
     75       9.4872      0.00000
     76       9.5197      0.00000
     77       9.9289      0.00000
     78      10.0566      0.00000
     79      10.3256      0.00000
     80      10.5513      0.00000

 k-point    72 :       0.1667    0.1111    0.1667
  band No.  band energies     occupation 
      1     -11.2741      2.00000
      2     -11.2652      2.00000
      3     -11.0922      2.00000
      4     -11.0854      2.00000
      5     -10.9685      2.00000
      6     -10.9678      2.00000
      7     -10.8745      2.00000
      8     -10.8730      2.00000
      9     -10.8405      2.00000
     10     -10.8403      2.00000
     11     -10.1631      2.00000
     12     -10.1630      2.00000
     13      -9.9581      2.00000
     14      -9.9580      2.00000
     15      -9.8639      2.00000
     16      -9.8639      2.00000
     17      -9.8316      2.00000
     18      -9.8316      2.00000
     19      -9.7931      2.00000
     20      -9.7931      2.00000
     21      -9.3392      2.00000
     22      -9.1374      2.00000
     23      -8.4897      2.00000
     24      -8.4423      2.00000
     25      -8.2926      2.00000
     26      -7.7710      2.00000
     27      -7.3519      2.00000
     28      -7.3270      2.00000
     29      -2.2319      2.00000
     30      -2.1011      2.00000
     31      -2.0750      2.00000
     32      -1.9895      2.00000
     33      -1.9110      2.00000
     34      -1.8593      2.00000
     35      -1.8417      2.00000
     36      -1.7663      2.00000
     37      -1.6760      2.00000
     38      -1.5192      2.00000
     39      -1.4999      2.00000
     40      -1.4510      2.00000
     41      -0.4013      2.00000
     42      -0.2826      2.00000
     43       0.0652      2.00000
     44       0.5994      2.00000
     45       0.6673      2.00000
     46       1.0459      2.00000
     47       1.1646      2.00000
     48       1.2764      2.00000
     49       1.3497      2.00000
     50       1.4669      2.00000
     51       1.5621      2.00000
     52       1.9074      2.00000
     53       2.0664      2.00000
     54       2.5397      2.00000
     55       2.6575      2.00000
     56       2.6949      2.00000
     57       2.8829      2.00000
     58       3.0097      2.00000
     59       3.0752      2.00000
     60       3.3801      2.00000
     61       3.4281      2.00000
     62       4.0900      2.00000
     63       5.9146      0.00000
     64       5.9776      0.00000
     65       6.8187      0.00000
     66       6.9230      0.00000
     67       7.5828      0.00000
     68       7.7825      0.00000
     69       8.4240      0.00000
     70       8.6004      0.00000
     71       8.6666      0.00000
     72       8.9032      0.00000
     73       9.1684      0.00000
     74       9.2138      0.00000
     75       9.6524      0.00000
     76       9.7120      0.00000
     77       9.8104      0.00000
     78      10.1989      0.00000
     79      10.5233      0.00000
     80      10.6692      0.00000

 k-point    73 :       0.2222    0.1111    0.1667
  band No.  band energies     occupation 
      1     -11.3116      2.00000
      2     -11.3013      2.00000
      3     -11.0931      2.00000
      4     -11.0878      2.00000
      5     -10.9581      2.00000
      6     -10.9574      2.00000
      7     -10.8802      2.00000
      8     -10.8788      2.00000
      9     -10.8379      2.00000
     10     -10.8377      2.00000
     11     -10.2154      2.00000
     12     -10.2153      2.00000
     13      -9.9581      2.00000
     14      -9.9581      2.00000
     15      -9.8557      2.00000
     16      -9.8557      2.00000
     17      -9.8289      2.00000
     18      -9.8288      2.00000
     19      -9.7831      2.00000
     20      -9.7831      2.00000
     21      -9.1088      2.00000
     22      -8.9225      2.00000
     23      -8.3266      2.00000
     24      -8.2856      2.00000
     25      -8.1569      2.00000
     26      -7.6924      2.00000
     27      -7.2159      2.00000
     28      -7.2011      2.00000
     29      -2.2113      2.00000
     30      -2.0663      2.00000
     31      -2.0329      2.00000
     32      -2.0086      2.00000
     33      -1.9362      2.00000
     34      -1.9006      2.00000
     35      -1.8845      2.00000
     36      -1.7813      2.00000
     37      -1.7164      2.00000
     38      -1.5285      2.00000
     39      -1.4790      2.00000
     40      -1.4296      2.00000
     41      -0.7431      2.00000
     42      -0.6656      2.00000
     43      -0.1165      2.00000
     44       0.4102      2.00000
     45       0.6141      2.00000
     46       0.6608      2.00000
     47       0.7857      2.00000
     48       0.9956      2.00000
     49       1.0489      2.00000
     50       1.1468      2.00000
     51       1.4043      2.00000
     52       1.7338      2.00000
     53       1.8700      2.00000
     54       2.2402      2.00000
     55       2.3650      2.00000
     56       2.4205      2.00000
     57       2.8292      2.00000
     58       2.9173      2.00000
     59       3.0763      2.00000
     60       3.2298      2.00000
     61       3.3764      2.00000
     62       3.9775      2.00000
     63       5.9883      0.00000
     64       6.0962      0.00000
     65       6.6273      0.00000
     66       6.7523      0.00000
     67       7.4035      0.00000
     68       7.6753      0.00000
     69       8.4952      0.00000
     70       8.6989      0.00000
     71       8.8624      0.00000
     72       9.0359      0.00000
     73       9.2179      0.00000
     74       9.4521      0.00000
     75       9.6388      0.00000
     76       9.9062      0.00000
     77      10.0872      0.00000
     78      10.4688      0.00000
     79      10.6167      0.00000
     80      10.7927      0.00000

 k-point    74 :       0.2778    0.1111    0.1667
  band No.  band energies     occupation 
      1     -11.3459      2.00000
      2     -11.3359      2.00000
      3     -11.0903      2.00000
      4     -11.0862      2.00000
      5     -10.9499      2.00000
      6     -10.9491      2.00000
      7     -10.8849      2.00000
      8     -10.8836      2.00000
      9     -10.8340      2.00000
     10     -10.8337      2.00000
     11     -10.2619      2.00000
     12     -10.2619      2.00000
     13      -9.9578      2.00000
     14      -9.9578      2.00000
     15      -9.8569      2.00000
     16      -9.8569      2.00000
     17      -9.8181      2.00000
     18      -9.8181      2.00000
     19      -9.7740      2.00000
     20      -9.7740      2.00000
     21      -8.8730      2.00000
     22      -8.7059      2.00000
     23      -8.1578      2.00000
     24      -8.1264      2.00000
     25      -8.0181      2.00000
     26      -7.6243      2.00000
     27      -7.0941      2.00000
     28      -7.0871      2.00000
     29      -2.2256      2.00000
     30      -2.1713      2.00000
     31      -2.0329      2.00000
     32      -2.0177      2.00000
     33      -1.9823      2.00000
     34      -1.9099      2.00000
     35      -1.8825      2.00000
     36      -1.7926      2.00000
     37      -1.7495      2.00000
     38      -1.5403      2.00000
     39      -1.4758      2.00000
     40      -1.3935      2.00000
     41      -1.0670      2.00000
     42      -1.0317      2.00000
     43      -0.1805      2.00000
     44       0.1624      2.00000
     45       0.2597      2.00000
     46       0.4796      2.00000
     47       0.5402      2.00000
     48       0.7069      2.00000
     49       0.8779      2.00000
     50       0.9445      2.00000
     51       1.3167      2.00000
     52       1.5523      2.00000
     53       1.8426      2.00000
     54       1.9735      2.00000
     55       2.0911      2.00000
     56       2.1670      2.00000
     57       2.7571      2.00000
     58       2.8395      2.00000
     59       3.0765      2.00000
     60       3.1017      2.00000
     61       3.3711      2.00000
     62       3.8271      2.00000
     63       5.9215      0.00000
     64       6.1253      0.00000
     65       6.4383      0.00000
     66       6.5880      0.00000
     67       7.2455      0.00000
     68       7.5127      0.00000
     69       8.4327      0.00000
     70       8.8072      0.00000
     71       8.9079      0.00000
     72       9.0107      0.00000
     73       9.2502      0.00000
     74       9.4915      0.00000
     75       9.6524      0.00000
     76       9.9630      0.00000
     77      10.2593      0.00000
     78      10.4934      0.00000
     79      10.7595      0.00000
     80      10.9185      0.00000

 k-point    75 :       0.3333    0.1111    0.1667
  band No.  band energies     occupation 
      1     -11.3724      2.00000
      2     -11.3640      2.00000
      3     -11.0868      2.00000
      4     -11.0834      2.00000
      5     -10.9445      2.00000
      6     -10.9436      2.00000
      7     -10.8885      2.00000
      8     -10.8873      2.00000
      9     -10.8295      2.00000
     10     -10.8293      2.00000
     11     -10.2981      2.00000
     12     -10.2981      2.00000
     13      -9.9577      2.00000
     14      -9.9576      2.00000
     15      -9.8604      2.00000
     16      -9.8604      2.00000
     17      -9.8056      2.00000
     18      -9.8056      2.00000
     19      -9.7676      2.00000
     20      -9.7676      2.00000
     21      -8.6577      2.00000
     22      -8.5150      2.00000
     23      -8.0081      2.00000
     24      -7.9883      2.00000
     25      -7.8932      2.00000
     26      -7.5772      2.00000
     27      -7.0004      2.00000
     28      -6.9986      2.00000
     29      -2.4435      2.00000
     30      -2.2517      2.00000
     31      -2.1146      2.00000
     32      -1.9735      2.00000
     33      -1.9363      2.00000
     34      -1.9164      2.00000
     35      -1.8362      2.00000
     36      -1.7948      2.00000
     37      -1.7675      2.00000
     38      -1.5537      2.00000
     39      -1.4779      2.00000
     40      -1.3816      2.00000
     41      -1.3388      2.00000
     42      -1.3111      2.00000
     43      -0.2730      2.00000
     44      -0.0871      2.00000
     45       0.1259      2.00000
     46       0.2936      2.00000
     47       0.3596      2.00000
     48       0.4639      2.00000
     49       0.7561      2.00000
     50       0.8262      2.00000
     51       1.2837      2.00000
     52       1.4371      2.00000
     53       1.7477      2.00000
     54       1.8203      2.00000
     55       1.8782      2.00000
     56       2.0576      2.00000
     57       2.6527      2.00000
     58       2.7867      2.00000
     59       2.9902      2.00000
     60       3.1278      2.00000
     61       3.3601      2.00000
     62       3.6633      2.00000
     63       5.8286      0.00000
     64       6.0432      0.00000
     65       6.3025      0.00000
     66       6.4766      0.00000
     67       7.1284      0.00000
     68       7.3692      0.00000
     69       8.3392      0.00000
     70       8.7525      0.00000
     71       8.9006      0.00000
     72       9.0234      0.00000
     73       9.2360      0.00000
     74       9.4576      0.00000
     75       9.5650      0.00000
     76       9.9573      0.00000
     77      10.2319      0.00000
     78      10.4750      0.00000
     79      10.8529      0.00000
     80      11.0371      0.00000

 k-point    76 :       0.3889    0.1111    0.1667
  band No.  band energies     occupation 
      1     -11.3888      2.00000
      2     -11.3823      2.00000
      3     -11.0843      2.00000
      4     -11.0812      2.00000
      5     -10.9415      2.00000
      6     -10.9406      2.00000
      7     -10.8907      2.00000
      8     -10.8895      2.00000
      9     -10.8260      2.00000
     10     -10.8258      2.00000
     11     -10.3210      2.00000
     12     -10.3209      2.00000
     13      -9.9577      2.00000
     14      -9.9577      2.00000
     15      -9.8632      2.00000
     16      -9.8632      2.00000
     17      -9.7958      2.00000
     18      -9.7958      2.00000
     19      -9.7647      2.00000
     20      -9.7647      2.00000
     21      -8.4982      2.00000
     22      -8.3828      2.00000
     23      -7.9056      2.00000
     24      -7.8947      2.00000
     25      -7.8011      2.00000
     26      -7.5557      2.00000
     27      -6.9435      2.00000
     28      -6.9431      2.00000
     29      -2.5993      2.00000
     30      -2.4390      2.00000
     31      -2.0652      2.00000
     32      -1.9469      2.00000
     33      -1.9140      2.00000
     34      -1.9036      2.00000
     35      -1.8077      2.00000
     36      -1.7795      2.00000
     37      -1.7637      2.00000
     38      -1.5701      2.00000
     39      -1.5266      2.00000
     40      -1.5178      2.00000
     41      -1.4802      2.00000
     42      -1.3619      2.00000
     43      -0.5045      2.00000
     44      -0.0348      2.00000
     45      -0.0149      2.00000
     46       0.1999      2.00000
     47       0.2390      2.00000
     48       0.3188      2.00000
     49       0.6810      2.00000
     50       0.7622      2.00000
     51       1.2934      2.00000
     52       1.4182      2.00000
     53       1.5870      2.00000
     54       1.6513      2.00000
     55       1.7189      2.00000
     56       2.1652      2.00000
     57       2.5868      2.00000
     58       2.7261      2.00000
     59       2.9419      2.00000
     60       3.1556      2.00000
     61       3.3437      2.00000
     62       3.5320      2.00000
     63       5.7626      0.00000
     64       5.9451      0.00000
     65       6.2168      0.00000
     66       6.4142      0.00000
     67       7.0665      0.00000
     68       7.2692      0.00000
     69       8.2661      0.00000
     70       8.6777      0.00000
     71       8.8293      0.00000
     72       9.0987      0.00000
     73       9.2304      0.00000
     74       9.4039      0.00000
     75       9.4518      0.00000
     76       9.9515      0.00000
     77      10.1954      0.00000
     78      10.4323      0.00000
     79      10.8032      0.00000
     80      11.0685      0.00000

 k-point    77 :       0.4444    0.1111    0.1667
  band No.  band energies     occupation 
      1     -11.3942      2.00000
      2     -11.3887      2.00000
      3     -11.0834      2.00000
      4     -11.0804      2.00000
      5     -10.9406      2.00000
      6     -10.9396      2.00000
      7     -10.8914      2.00000
      8     -10.8903      2.00000
      9     -10.8246      2.00000
     10     -10.8244      2.00000
     11     -10.3287      2.00000
     12     -10.3287      2.00000
     13      -9.9578      2.00000
     14      -9.9578      2.00000
     15      -9.8642      2.00000
     16      -9.8642      2.00000
     17      -9.7919      2.00000
     18      -9.7919      2.00000
     19      -9.7641      2.00000
     20      -9.7641      2.00000
     21      -8.4370      2.00000
     22      -8.3361      2.00000
     23      -7.8701      2.00000
     24      -7.8614      2.00000
     25      -7.7650      2.00000
     26      -7.5518      2.00000
     27      -6.9249      2.00000
     28      -6.9241      2.00000
     29      -2.6539      2.00000
     30      -2.5130      2.00000
     31      -2.0457      2.00000
     32      -1.9458      2.00000
     33      -1.9025      2.00000
     34      -1.8962      2.00000
     35      -1.8020      2.00000
     36      -1.7584      2.00000
     37      -1.7577      2.00000
     38      -1.6040      2.00000
     39      -1.5942      2.00000
     40      -1.5404      2.00000
     41      -1.4871      2.00000
     42      -1.3835      2.00000
     43      -0.5830      2.00000
     44      -0.1115      2.00000
     45       0.0524      2.00000
     46       0.1351      2.00000
     47       0.2017      2.00000
     48       0.2792      2.00000
     49       0.6565      2.00000
     50       0.7413      2.00000
     51       1.3489      2.00000
     52       1.3977      2.00000
     53       1.5327      2.00000
     54       1.5941      2.00000
     55       1.6148      2.00000
     56       2.2283      2.00000
     57       2.5786      2.00000
     58       2.6813      2.00000
     59       2.9324      2.00000
     60       3.1610      2.00000
     61       3.3356      2.00000
     62       3.4830      2.00000
     63       5.7412      0.00000
     64       5.9054      0.00000
     65       6.1804      0.00000
     66       6.3959      0.00000
     67       7.0592      0.00000
     68       7.2248      0.00000
     69       8.2390      0.00000
     70       8.6354      0.00000
     71       8.8297      0.00000
     72       9.0805      0.00000
     73       9.2945      0.00000
     74       9.3556      0.00000
     75       9.3857      0.00000
     76       9.9730      0.00000
     77      10.1905      0.00000
     78      10.3990      0.00000
     79      10.7562      0.00000
     80      11.0491      0.00000

 k-point    78 :       0.5000    0.1111    0.1667
  band No.  band energies     occupation 
      1     -11.3888      2.00000
      2     -11.3823      2.00000
      3     -11.0843      2.00000
      4     -11.0812      2.00000
      5     -10.9415      2.00000
      6     -10.9406      2.00000
      7     -10.8907      2.00000
      8     -10.8895      2.00000
      9     -10.8260      2.00000
     10     -10.8258      2.00000
     11     -10.3210      2.00000
     12     -10.3209      2.00000
     13      -9.9577      2.00000
     14      -9.9577      2.00000
     15      -9.8632      2.00000
     16      -9.8632      2.00000
     17      -9.7958      2.00000
     18      -9.7958      2.00000
     19      -9.7647      2.00000
     20      -9.7647      2.00000
     21      -8.4982      2.00000
     22      -8.3828      2.00000
     23      -7.9074      2.00000
     24      -7.8926      2.00000
     25      -7.8014      2.00000
     26      -7.5556      2.00000
     27      -6.9434      2.00000
     28      -6.9431      2.00000
     29      -2.5993      2.00000
     30      -2.4390      2.00000
     31      -2.0651      2.00000
     32      -1.9470      2.00000
     33      -1.9140      2.00000
     34      -1.9036      2.00000
     35      -1.8077      2.00000
     36      -1.7795      2.00000
     37      -1.7637      2.00000
     38      -1.5685      2.00000
     39      -1.5363      2.00000
     40      -1.5089      2.00000
     41      -1.4807      2.00000
     42      -1.3623      2.00000
     43      -0.5026      2.00000
     44      -0.0894      2.00000
     45       0.0971      2.00000
     46       0.1254      2.00000
     47       0.2354      2.00000
     48       0.3409      2.00000
     49       0.6788      2.00000
     50       0.7583      2.00000
     51       1.2779      2.00000
     52       1.4538      2.00000
     53       1.6149      2.00000
     54       1.6554      2.00000
     55       1.6611      2.00000
     56       2.1750      2.00000
     57       2.5986      2.00000
     58       2.7041      2.00000
     59       2.9518      2.00000
     60       3.1572      2.00000
     61       3.3403      2.00000
     62       3.5332      2.00000
     63       5.7638      0.00000
     64       5.9492      0.00000
     65       6.2008      0.00000
     66       6.4197      0.00000
     67       7.0916      0.00000
     68       7.2507      0.00000
     69       8.2654      0.00000
     70       8.6529      0.00000
     71       8.8742      0.00000
     72       9.0987      0.00000
     73       9.2188      0.00000
     74       9.3738      0.00000
     75       9.4373      0.00000
     76      10.0208      0.00000
     77      10.2033      0.00000
     78      10.3992      0.00000
     79      10.7666      0.00000
     80      11.0764      0.00000

 k-point    79 :      -0.4444    0.1111    0.1667
  band No.  band energies     occupation 
      1     -11.3724      2.00000
      2     -11.3640      2.00000
      3     -11.0868      2.00000
      4     -11.0834      2.00000
      5     -10.9445      2.00000
      6     -10.9436      2.00000
      7     -10.8885      2.00000
      8     -10.8873      2.00000
      9     -10.8295      2.00000
     10     -10.8293      2.00000
     11     -10.2981      2.00000
     12     -10.2981      2.00000
     13      -9.9577      2.00000
     14      -9.9576      2.00000
     15      -9.8604      2.00000
     16      -9.8604      2.00000
     17      -9.8056      2.00000
     18      -9.8056      2.00000
     19      -9.7676      2.00000
     20      -9.7676      2.00000
     21      -8.6577      2.00000
     22      -8.5150      2.00000
     23      -8.0115      2.00000
     24      -7.9839      2.00000
     25      -7.8943      2.00000
     26      -7.5771      2.00000
     27      -7.0009      2.00000
     28      -6.9981      2.00000
     29      -2.4434      2.00000
     30      -2.2518      2.00000
     31      -2.1144      2.00000
     32      -1.9735      2.00000
     33      -1.9363      2.00000
     34      -1.9165      2.00000
     35      -1.8362      2.00000
     36      -1.7949      2.00000
     37      -1.7675      2.00000
     38      -1.5537      2.00000
     39      -1.4779      2.00000
     40      -1.3780      2.00000
     41      -1.3465      2.00000
     42      -1.3069      2.00000
     43      -0.2621      2.00000
     44      -0.1205      2.00000
     45       0.1927      2.00000
     46       0.2518      2.00000
     47       0.3385      2.00000
     48       0.4949      2.00000
     49       0.7353      2.00000
     50       0.8283      2.00000
     51       1.2751      2.00000
     52       1.4803      2.00000
     53       1.7313      2.00000
     54       1.7852      2.00000
     55       1.8717      2.00000
     56       2.0929      2.00000
     57       2.6616      2.00000
     58       2.7601      2.00000
     59       2.9991      2.00000
     60       3.1350      2.00000
     61       3.3547      2.00000
     62       3.6646      2.00000
     63       5.8320      0.00000
     64       6.0479      0.00000
     65       6.2814      0.00000
     66       6.4833      0.00000
     67       7.1525      0.00000
     68       7.3524      0.00000
     69       8.3376      0.00000
     70       8.7219      0.00000
     71       8.9384      0.00000
     72       9.0741      0.00000
     73       9.1971      0.00000
     74       9.4483      0.00000
     75       9.4938      0.00000
     76      10.0673      0.00000
     77      10.2222      0.00000
     78      10.4529      0.00000
     79      10.8289      0.00000
     80      11.1130      0.00000

 k-point    80 :      -0.3889    0.1111    0.1667
  band No.  band energies     occupation 
      1     -11.3459      2.00000
      2     -11.3359      2.00000
      3     -11.0903      2.00000
      4     -11.0862      2.00000
      5     -10.9499      2.00000
      6     -10.9491      2.00000
      7     -10.8849      2.00000
      8     -10.8836      2.00000
      9     -10.8340      2.00000
     10     -10.8337      2.00000
     11     -10.2619      2.00000
     12     -10.2619      2.00000
     13      -9.9578      2.00000
     14      -9.9578      2.00000
     15      -9.8569      2.00000
     16      -9.8569      2.00000
     17      -9.8181      2.00000
     18      -9.8181      2.00000
     19      -9.7740      2.00000
     20      -9.7740      2.00000
     21      -8.8730      2.00000
     22      -8.7059      2.00000
     23      -8.1613      2.00000
     24      -8.1214      2.00000
     25      -8.0197      2.00000
     26      -7.6242      2.00000
     27      -7.0948      2.00000
     28      -7.0864      2.00000
     29      -2.2256      2.00000
     30      -2.1706      2.00000
     31      -2.0361      2.00000
     32      -2.0158      2.00000
     33      -1.9821      2.00000
     34      -1.9094      2.00000
     35      -1.8824      2.00000
     36      -1.7926      2.00000
     37      -1.7496      2.00000
     38      -1.5404      2.00000
     39      -1.4757      2.00000
     40      -1.3925      2.00000
     41      -1.0710      2.00000
     42      -1.0283      2.00000
     43      -0.1810      2.00000
     44       0.1354      2.00000
     45       0.2992      2.00000
     46       0.4941      2.00000
     47       0.5299      2.00000
     48       0.6982      2.00000
     49       0.8327      2.00000
     50       0.9754      2.00000
     51       1.3295      2.00000
     52       1.5595      2.00000
     53       1.8107      2.00000
     54       1.9743      2.00000
     55       2.0991      2.00000
     56       2.1855      2.00000
     57       2.7452      2.00000
     58       2.8329      2.00000
     59       3.0771      2.00000
     60       3.1137      2.00000
     61       3.3681      2.00000
     62       3.8270      2.00000
     63       5.9259      0.00000
     64       6.1258      0.00000
     65       6.4244      0.00000
     66       6.5945      0.00000
     67       7.2517      0.00000
     68       7.5096      0.00000
     69       8.4312      0.00000
     70       8.7831      0.00000
     71       8.9617      0.00000
     72       8.9919      0.00000
     73       9.2832      0.00000
     74       9.4790      0.00000
     75       9.5552      0.00000
     76      10.0531      0.00000
     77      10.2494      0.00000
     78      10.4902      0.00000
     79      10.7850      0.00000
     80      10.9558      0.00000

 k-point    81 :      -0.3333    0.1111    0.1667
  band No.  band energies     occupation 
      1     -11.3116      2.00000
      2     -11.3012      2.00000
      3     -11.0931      2.00000
      4     -11.0878      2.00000
      5     -10.9581      2.00000
      6     -10.9574      2.00000
      7     -10.8802      2.00000
      8     -10.8788      2.00000
      9     -10.8379      2.00000
     10     -10.8377      2.00000
     11     -10.2154      2.00000
     12     -10.2153      2.00000
     13      -9.9581      2.00000
     14      -9.9581      2.00000
     15      -9.8557      2.00000
     16      -9.8557      2.00000
     17      -9.8288      2.00000
     18      -9.8288      2.00000
     19      -9.7832      2.00000
     20      -9.7831      2.00000
     21      -9.1088      2.00000
     22      -8.9225      2.00000
     23      -8.3291      2.00000
     24      -8.2819      2.00000
     25      -8.1582      2.00000
     26      -7.6922      2.00000
     27      -7.2167      2.00000
     28      -7.2004      2.00000
     29      -2.2113      2.00000
     30      -2.0656      2.00000
     31      -2.0324      2.00000
     32      -2.0090      2.00000
     33      -1.9362      2.00000
     34      -1.9079      2.00000
     35      -1.8780      2.00000
     36      -1.7813      2.00000
     37      -1.7166      2.00000
     38      -1.5286      2.00000
     39      -1.4788      2.00000
     40      -1.4288      2.00000
     41      -0.7472      2.00000
     42      -0.6624      2.00000
     43      -0.1172      2.00000
     44       0.4126      2.00000
     45       0.6020      2.00000
     46       0.6920      2.00000
     47       0.8064      2.00000
     48       0.9011      2.00000
     49       1.0547      2.00000
     50       1.1983      2.00000
     51       1.4174      2.00000
     52       1.6953      2.00000
     53       1.8947      2.00000
     54       2.2424      2.00000
     55       2.3428      2.00000
     56       2.4451      2.00000
     57       2.8070      2.00000
     58       2.9226      2.00000
     59       3.0882      2.00000
     60       3.2281      2.00000
     61       3.3761      2.00000
     62       3.9768      2.00000
     63       5.9919      0.00000
     64       6.0940      0.00000
     65       6.6192      0.00000
     66       6.7598      0.00000
     67       7.3980      0.00000
     68       7.6807      0.00000
     69       8.4952      0.00000
     70       8.6903      0.00000
     71       8.8963      0.00000
     72       8.9945      0.00000
     73       9.2617      0.00000
     74       9.4391      0.00000
     75       9.5955      0.00000
     76       9.9203      0.00000
     77      10.1038      0.00000
     78      10.4681      0.00000
     79      10.5887      0.00000
     80      10.8566      0.00000

 k-point    82 :      -0.2778    0.1111    0.1667
  band No.  band energies     occupation 
      1     -11.2741      2.00000
      2     -11.2652      2.00000
      3     -11.0922      2.00000
      4     -11.0854      2.00000
      5     -10.9685      2.00000
      6     -10.9678      2.00000
      7     -10.8745      2.00000
      8     -10.8730      2.00000
      9     -10.8405      2.00000
     10     -10.8403      2.00000
     11     -10.1631      2.00000
     12     -10.1630      2.00000
     13      -9.9581      2.00000
     14      -9.9580      2.00000
     15      -9.8639      2.00000
     16      -9.8639      2.00000
     17      -9.8316      2.00000
     18      -9.8316      2.00000
     19      -9.7931      2.00000
     20      -9.7931      2.00000
     21      -9.3392      2.00000
     22      -9.1374      2.00000
     23      -8.4908      2.00000
     24      -8.4406      2.00000
     25      -8.2932      2.00000
     26      -7.7709      2.00000
     27      -7.3523      2.00000
     28      -7.3266      2.00000
     29      -2.2319      2.00000
     30      -2.1011      2.00000
     31      -2.0750      2.00000
     32      -1.9896      2.00000
     33      -1.9090      2.00000
     34      -1.8658      2.00000
     35      -1.8373      2.00000
     36      -1.7663      2.00000
     37      -1.6761      2.00000
     38      -1.5191      2.00000
     39      -1.4998      2.00000
     40      -1.4509      2.00000
     41      -0.4066      2.00000
     42      -0.2768      2.00000
     43       0.0666      2.00000
     44       0.5857      2.00000
     45       0.6794      2.00000
     46       1.0483      2.00000
     47       1.1716      2.00000
     48       1.2675      2.00000
     49       1.3256      2.00000
     50       1.4925      2.00000
     51       1.5696      2.00000
     52       1.8832      2.00000
     53       2.0852      2.00000
     54       2.5431      2.00000
     55       2.6157      2.00000
     56       2.7398      2.00000
     57       2.8728      2.00000
     58       2.9931      2.00000
     59       3.0916      2.00000
     60       3.3806      2.00000
     61       3.4273      2.00000
     62       4.0897      2.00000
     63       5.9159      0.00000
     64       5.9763      0.00000
     65       6.8159      0.00000
     66       6.9261      0.00000
     67       7.5817      0.00000
     68       7.7832      0.00000
     69       8.4265      0.00000
     70       8.5529      0.00000
     71       8.7600      0.00000
     72       8.8484      0.00000
     73       9.1528      0.00000
     74       9.2439      0.00000
     75       9.6257      0.00000
     76       9.7112      0.00000
     77       9.8381      0.00000
     78      10.1702      0.00000
     79      10.5940      0.00000
     80      10.6520      0.00000

 k-point    83 :       0.1667    0.1667    0.1667
  band No.  band energies     occupation 
      1     -11.3067      2.00000
      2     -11.2964      2.00000
      3     -11.0936      2.00000
      4     -11.0882      2.00000
      5     -10.9602      2.00000
      6     -10.9595      2.00000
      7     -10.8784      2.00000
      8     -10.8771      2.00000
      9     -10.8396      2.00000
     10     -10.8395      2.00000
     11     -10.2023      2.00000
     12     -10.2023      2.00000
     13      -9.9705      2.00000
     14      -9.9705      2.00000
     15      -9.8496      2.00000
     16      -9.8496      2.00000
     17      -9.8349      2.00000
     18      -9.8349      2.00000
     19      -9.7840      2.00000
     20      -9.7840      2.00000
     21      -9.1308      2.00000
     22      -8.9425      2.00000
     23      -8.3398      2.00000
     24      -8.2946      2.00000
     25      -8.1703      2.00000
     26      -7.6996      2.00000
     27      -7.2306      2.00000
     28      -7.2140      2.00000
     29      -2.2144      2.00000
     30      -2.0715      2.00000
     31      -2.0344      2.00000
     32      -1.9797      2.00000
     33      -1.9381      2.00000
     34      -1.8967      2.00000
     35      -1.8667      2.00000
     36      -1.7850      2.00000
     37      -1.7117      2.00000
     38      -1.5256      2.00000
     39      -1.4849      2.00000
     40      -1.4286      2.00000
     41      -0.6788      2.00000
     42      -0.5938      2.00000
     43      -0.0994      2.00000
     44       0.4475      2.00000
     45       0.6309      2.00000
     46       0.7469      2.00000
     47       0.7619      2.00000
     48       0.9838      2.00000
     49       1.1376      2.00000
     50       1.1669      2.00000
     51       1.2302      2.00000
     52       1.6892      2.00000
     53       1.9007      2.00000
     54       2.1981      2.00000
     55       2.5160      2.00000
     56       2.6056      2.00000
     57       2.7454      2.00000
     58       2.8046      2.00000
     59       2.9836      2.00000
     60       3.1409      2.00000
     61       3.3909      2.00000
     62       4.0062      2.00000
     63       6.0801      0.00000
     64       6.1633      0.00000
     65       6.7567      0.00000
     66       6.8534      0.00000
     67       7.7077      0.00000
     68       7.7225      0.00000
     69       8.4177      0.00000
     70       8.7157      0.00000
     71       8.8372      0.00000
     72       9.0932      0.00000
     73       9.4414      0.00000
     74       9.4990      0.00000
     75       9.7049      0.00000
     76       9.8288      0.00000
     77       9.8673      0.00000
     78      10.1044      0.00000
     79      10.5299      0.00000
     80      10.7818      0.00000

 k-point    84 :       0.2222    0.1667    0.1667
  band No.  band energies     occupation 
      1     -11.3383      2.00000
      2     -11.3280      2.00000
      3     -11.0913      2.00000
      4     -11.0872      2.00000
      5     -10.9536      2.00000
      6     -10.9528      2.00000
      7     -10.8813      2.00000
      8     -10.8802      2.00000
      9     -10.8379      2.00000
     10     -10.8377      2.00000
     11     -10.2395      2.00000
     12     -10.2395      2.00000
     13      -9.9811      2.00000
     14      -9.9811      2.00000
     15      -9.8447      2.00000
     16      -9.8447      2.00000
     17      -9.8307      2.00000
     18      -9.8307      2.00000
     19      -9.7759      2.00000
     20      -9.7759      2.00000
     21      -8.9066      2.00000
     22      -8.7355      2.00000
     23      -8.1726      2.00000
     24      -8.1357      2.00000
     25      -8.0371      2.00000
     26      -7.6332      2.00000
     27      -7.1156      2.00000
     28      -7.1068      2.00000
     29      -2.1800      2.00000
     30      -2.1492      2.00000
     31      -2.0313      2.00000
     32      -1.9867      2.00000
     33      -1.9706      2.00000
     34      -1.8988      2.00000
     35      -1.8820      2.00000
     36      -1.8015      2.00000
     37      -1.7463      2.00000
     38      -1.5332      2.00000
     39      -1.4841      2.00000
     40      -1.3918      2.00000
     41      -0.9606      2.00000
     42      -0.9196      2.00000
     43      -0.1818      2.00000
     44       0.2869      2.00000
     45       0.3387      2.00000
     46       0.4418      2.00000
     47       0.5526      2.00000
     48       0.6943      2.00000
     49       0.8725      2.00000
     50       0.9432      2.00000
     51       1.1109      2.00000
     52       1.5215      2.00000
     53       1.8290      2.00000
     54       1.8757      2.00000
     55       2.2887      2.00000
     56       2.3253      2.00000
     57       2.5977      2.00000
     58       2.6859      2.00000
     59       2.8978      2.00000
     60       3.0387      2.00000
     61       3.3997      2.00000
     62       3.8782      2.00000
     63       6.1212      0.00000
     64       6.3094      0.00000
     65       6.6277      0.00000
     66       6.7146      0.00000
     67       7.6212      0.00000
     68       7.7576      0.00000
     69       8.3645      0.00000
     70       8.8363      0.00000
     71       8.9993      0.00000
     72       9.2749      0.00000
     73       9.4815      0.00000
     74       9.6257      0.00000
     75       9.6870      0.00000
     76       9.9633      0.00000
     77      10.1346      0.00000
     78      10.3469      0.00000
     79      10.4874      0.00000
     80      10.8323      0.00000

 k-point    85 :       0.2778    0.1667    0.1667
  band No.  band energies     occupation 
      1     -11.3645      2.00000
      2     -11.3557      2.00000
      3     -11.0878      2.00000
      4     -11.0845      2.00000
      5     -10.9492      2.00000
      6     -10.9483      2.00000
      7     -10.8833      2.00000
      8     -10.8823      2.00000
      9     -10.8355      2.00000
     10     -10.8354      2.00000
     11     -10.2711      2.00000
     12     -10.2711      2.00000
     13      -9.9892      2.00000
     14      -9.9892      2.00000
     15      -9.8478      2.00000
     16      -9.8478      2.00000
     17      -9.8181      2.00000
     18      -9.8181      2.00000
     19      -9.7712      2.00000
     20      -9.7712      2.00000
     21      -8.6887      2.00000
     22      -8.5403      2.00000
     23      -8.0105      2.00000
     24      -7.9847      2.00000
     25      -7.9085      2.00000
     26      -7.5824      2.00000
     27      -7.0216      2.00000
     28      -7.0186      2.00000
     29      -2.3397      2.00000
     30      -2.1526      2.00000
     31      -2.1209      2.00000
     32      -1.9903      2.00000
     33      -1.9406      2.00000
     34      -1.8982      2.00000
     35      -1.8342      2.00000
     36      -1.8053      2.00000
     37      -1.7737      2.00000
     38      -1.5381      2.00000
     39      -1.4894      2.00000
     40      -1.3587      2.00000
     41      -1.2275      2.00000
     42      -1.2093      2.00000
     43      -0.1843      2.00000
     44      -0.0298      2.00000
     45       0.1590      2.00000
     46       0.1924      2.00000
     47       0.3749      2.00000
     48       0.4292      2.00000
     49       0.7085      2.00000
     50       0.8097      2.00000
     51       1.0777      2.00000
     52       1.3765      2.00000
     53       1.5441      2.00000
     54       1.8802      2.00000
     55       2.0216      2.00000
     56       2.1184      2.00000
     57       2.4456      2.00000
     58       2.6190      2.00000
     59       2.7406      2.00000
     60       3.0984      2.00000
     61       3.4024      2.00000
     62       3.7203      2.00000
     63       6.1043      0.00000
     64       6.3405      0.00000
     65       6.4645      0.00000
     66       6.5875      0.00000
     67       7.5226      0.00000
     68       7.6577      0.00000
     69       8.5134      0.00000
     70       8.8562      0.00000
     71       8.9969      0.00000
     72       9.2578      0.00000
     73       9.4356      0.00000
     74       9.5743      0.00000
     75       9.7157      0.00000
     76      10.0745      0.00000
     77      10.3136      0.00000
     78      10.5110      0.00000
     79      10.7153      0.00000
     80      10.9228      0.00000

 k-point    86 :       0.3333    0.1667    0.1667
  band No.  band energies     occupation 
      1     -11.3829      2.00000
      2     -11.3762      2.00000
      3     -11.0845      2.00000
      4     -11.0819      2.00000
      5     -10.9467      2.00000
      6     -10.9457      2.00000
      7     -10.8846      2.00000
      8     -10.8836      2.00000
      9     -10.8332      2.00000
     10     -10.8330      2.00000
     11     -10.2941      2.00000
     12     -10.2941      2.00000
     13      -9.9946      2.00000
     14      -9.9946      2.00000
     15      -9.8509      2.00000
     16      -9.8509      2.00000
     17      -9.8052      2.00000
     18      -9.8052      2.00000
     19      -9.7708      2.00000
     20      -9.7708      2.00000
     21      -8.5061      2.00000
     22      -8.3868      2.00000
     23      -7.8798      2.00000
     24      -7.8653      2.00000
     25      -7.8020      2.00000
     26      -7.5550      2.00000
     27      -6.9582      2.00000
     28      -6.9579      2.00000
     29      -2.4989      2.00000
     30      -2.3358      2.00000
     31      -2.0638      2.00000
     32      -1.9576      2.00000
     33      -1.9044      2.00000
     34      -1.8957      2.00000
     35      -1.8212      2.00000
     36      -1.7850      2.00000
     37      -1.7744      2.00000
     38      -1.5356      2.00000
     39      -1.4967      2.00000
     40      -1.4417      2.00000
     41      -1.4351      2.00000
     42      -1.3361      2.00000
     43      -0.3411      2.00000
     44      -0.1094      2.00000
     45       0.0051      2.00000
     46       0.0425      2.00000
     47       0.2217      2.00000
     48       0.2598      2.00000
     49       0.5941      2.00000
     50       0.7357      2.00000
     51       1.0922      2.00000
     52       1.3115      2.00000
     53       1.3509      2.00000
     54       1.6923      2.00000
     55       1.8015      2.00000
     56       2.1626      2.00000
     57       2.3467      2.00000
     58       2.5559      2.00000
     59       2.6573      2.00000
     60       3.1429      2.00000
     61       3.3956      2.00000
     62       3.5678      2.00000
     63       6.0625      0.00000
     64       6.2678      0.00000
     65       6.3400      0.00000
     66       6.5297      0.00000
     67       7.4496      0.00000
     68       7.5462      0.00000
     69       8.6849      0.00000
     70       8.8331      0.00000
     71       8.9216      0.00000
     72       9.1604      0.00000
     73       9.3585      0.00000
     74       9.5011      0.00000
     75       9.7215      0.00000
     76      10.1397      0.00000
     77      10.3581      0.00000
     78      10.5927      0.00000
     79      10.8120      0.00000
     80      11.1336      0.00000

 k-point    87 :       0.3889    0.1667    0.1667
  band No.  band energies     occupation 
      1     -11.3922      2.00000
      2     -11.3872      2.00000
      3     -11.0827      2.00000
      4     -11.0803      2.00000
      5     -10.9456      2.00000
      6     -10.9446      2.00000
      7     -10.8852      2.00000
      8     -10.8843      2.00000
      9     -10.8317      2.00000
     10     -10.8315      2.00000
     11     -10.3061      2.00000
     12     -10.3061      2.00000
     13      -9.9973      2.00000
     14      -9.9973      2.00000
     15      -9.8527      2.00000
     16      -9.8527      2.00000
     17      -9.7956      2.00000
     18      -9.7956      2.00000
     19      -9.7733      2.00000
     20      -9.7733      2.00000
     21      -8.3963      2.00000
     22      -8.3040      2.00000
     23      -7.8068      2.00000
     24      -7.7989      2.00000
     25      -7.7369      2.00000
     26      -7.5492      2.00000
     27      -6.9280      2.00000
     28      -6.9270      2.00000
     29      -2.5855      2.00000
     30      -2.4560      2.00000
     31      -2.0214      2.00000
     32      -1.9441      2.00000
     33      -1.8985      2.00000
     34      -1.8833      2.00000
     35      -1.8179      2.00000
     36      -1.7728      2.00000
     37      -1.7529      2.00000
     38      -1.5688      2.00000
     39      -1.5595      2.00000
     40      -1.5093      2.00000
     41      -1.4857      2.00000
     42      -1.3627      2.00000
     43      -0.4866      2.00000
     44      -0.1206      2.00000
     45      -0.0784      2.00000
     46      -0.0015      2.00000
     47       0.1161      2.00000
     48       0.2045      2.00000
     49       0.5257      2.00000
     50       0.6811      2.00000
     51       1.1847      2.00000
     52       1.2081      2.00000
     53       1.3875      2.00000
     54       1.4853      2.00000
     55       1.6350      2.00000
     56       2.1810      2.00000
     57       2.3814      2.00000
     58       2.4951      2.00000
     59       2.6376      2.00000
     60       3.1479      2.00000
     61       3.3836      2.00000
     62       3.4805      2.00000
     63       6.0311      0.00000
     64       6.1967      0.00000
     65       6.2717      0.00000
     66       6.5186      0.00000
     67       7.4178      0.00000
     68       7.4779      0.00000
     69       8.7219      0.00000
     70       8.8628      0.00000
     71       8.8780      0.00000
     72       9.1365      0.00000
     73       9.2732      0.00000
     74       9.4439      0.00000
     75       9.7103      0.00000
     76      10.1911      0.00000
     77      10.3721      0.00000
     78      10.5668      0.00000
     79      10.7456      0.00000
     80      11.1312      0.00000

 k-point    88 :       0.4444    0.1667    0.1667
  band No.  band energies     occupation 
      1     -11.3922      2.00000
      2     -11.3872      2.00000
      3     -11.0827      2.00000
      4     -11.0803      2.00000
      5     -10.9456      2.00000
      6     -10.9446      2.00000
      7     -10.8852      2.00000
      8     -10.8843      2.00000
      9     -10.8317      2.00000
     10     -10.8315      2.00000
     11     -10.3061      2.00000
     12     -10.3061      2.00000
     13      -9.9973      2.00000
     14      -9.9973      2.00000
     15      -9.8527      2.00000
     16      -9.8527      2.00000
     17      -9.7956      2.00000
     18      -9.7955      2.00000
     19      -9.7733      2.00000
     20      -9.7733      2.00000
     21      -8.3963      2.00000
     22      -8.3040      2.00000
     23      -7.8074      2.00000
     24      -7.7982      2.00000
     25      -7.7370      2.00000
     26      -7.5492      2.00000
     27      -6.9279      2.00000
     28      -6.9270      2.00000
     29      -2.5855      2.00000
     30      -2.4560      2.00000
     31      -2.0213      2.00000
     32      -1.9441      2.00000
     33      -1.8985      2.00000
     34      -1.8833      2.00000
     35      -1.8179      2.00000
     36      -1.7728      2.00000
     37      -1.7529      2.00000
     38      -1.5662      2.00000
     39      -1.5627      2.00000
     40      -1.5087      2.00000
     41      -1.4855      2.00000
     42      -1.3629      2.00000
     43      -0.4862      2.00000
     44      -0.1279      2.00000
     45      -0.0875      2.00000
     46       0.0483      2.00000
     47       0.0841      2.00000
     48       0.1996      2.00000
     49       0.5301      2.00000
     50       0.6815      2.00000
     51       1.1557      2.00000
     52       1.2253      2.00000
     53       1.3903      2.00000
     54       1.5515      2.00000
     55       1.5738      2.00000
     56       2.1787      2.00000
     57       2.4061      2.00000
     58       2.4659      2.00000
     59       2.6471      2.00000
     60       3.1477      2.00000
     61       3.3846      2.00000
     62       3.4795      2.00000
     63       6.0288      0.00000
     64       6.2011      0.00000
     65       6.2677      0.00000
     66       6.5201      0.00000
     67       7.4285      0.00000
     68       7.4696      0.00000
     69       8.6880      0.00000
     70       8.8647      0.00000
     71       8.9184      0.00000
     72       9.1616      0.00000
     73       9.2539      0.00000
     74       9.4025      0.00000
     75       9.7245      0.00000
     76      10.2436      0.00000
     77      10.3675      0.00000
     78      10.5263      0.00000
     79      10.7324      0.00000
     80      11.1115      0.00000

 k-point    89 :       0.5000    0.1667    0.1667
  band No.  band energies     occupation 
      1     -11.3829      2.00000
      2     -11.3762      2.00000
      3     -11.0845      2.00000
      4     -11.0819      2.00000
      5     -10.9467      2.00000
      6     -10.9457      2.00000
      7     -10.8846      2.00000
      8     -10.8836      2.00000
      9     -10.8332      2.00000
     10     -10.8330      2.00000
     11     -10.2941      2.00000
     12     -10.2941      2.00000
     13      -9.9946      2.00000
     14      -9.9946      2.00000
     15      -9.8509      2.00000
     16      -9.8509      2.00000
     17      -9.8052      2.00000
     18      -9.8052      2.00000
     19      -9.7709      2.00000
     20      -9.7708      2.00000
     21      -8.5062      2.00000
     22      -8.3868      2.00000
     23      -7.8817      2.00000
     24      -7.8628      2.00000
     25      -7.8027      2.00000
     26      -7.5550      2.00000
     27      -6.9582      2.00000
     28      -6.9578      2.00000
     29      -2.4989      2.00000
     30      -2.3359      2.00000
     31      -2.0637      2.00000
     32      -1.9576      2.00000
     33      -1.9044      2.00000
     34      -1.8957      2.00000
     35      -1.8212      2.00000
     36      -1.7850      2.00000
     37      -1.7744      2.00000
     38      -1.5355      2.00000
     39      -1.4969      2.00000
     40      -1.4442      2.00000
     41      -1.4325      2.00000
     42      -1.3362      2.00000
     43      -0.3386      2.00000
     44      -0.1277      2.00000
     45       0.0000      2.00000
     46       0.1164      2.00000
     47       0.1480      2.00000
     48       0.2759      2.00000
     49       0.6071      2.00000
     50       0.7308      2.00000
     51       1.0641      2.00000
     52       1.3287      2.00000
     53       1.3777      2.00000
     54       1.7105      2.00000
     55       1.7499      2.00000
     56       2.1672      2.00000
     57       2.3854      2.00000
     58       2.5086      2.00000
     59       2.6744      2.00000
     60       3.1461      2.00000
     61       3.3929      2.00000
     62       3.5685      2.00000
     63       6.0588      0.00000
     64       6.2786      0.00000
     65       6.3284      0.00000
     66       6.5335      0.00000
     67       7.4665      0.00000
     68       7.5329      0.00000
     69       8.6251      0.00000
     70       8.8759      0.00000
     71       8.9690      0.00000
     72       9.2081      0.00000
     73       9.3080      0.00000
     74       9.4089      0.00000
     75       9.7481      0.00000
     76      10.2796      0.00000
     77      10.3046      0.00000
     78      10.5451      0.00000
     79      10.7893      0.00000
     80      11.1349      0.00000

 k-point    90 :      -0.4444    0.1667    0.1667
  band No.  band energies     occupation 
      1     -11.3645      2.00000
      2     -11.3557      2.00000
      3     -11.0878      2.00000
      4     -11.0845      2.00000
      5     -10.9492      2.00000
      6     -10.9483      2.00000
      7     -10.8833      2.00000
      8     -10.8823      2.00000
      9     -10.8355      2.00000
     10     -10.8354      2.00000
     11     -10.2711      2.00000
     12     -10.2711      2.00000
     13      -9.9892      2.00000
     14      -9.9892      2.00000
     15      -9.8478      2.00000
     16      -9.8478      2.00000
     17      -9.8181      2.00000
     18      -9.8181      2.00000
     19      -9.7712      2.00000
     20      -9.7712      2.00000
     21      -8.6887      2.00000
     22      -8.5403      2.00000
     23      -8.0128      2.00000
     24      -7.9814      2.00000
     25      -7.9096      2.00000
     26      -7.5824      2.00000
     27      -7.0219      2.00000
     28      -7.0183      2.00000
     29      -2.3396      2.00000
     30      -2.1527      2.00000
     31      -2.1209      2.00000
     32      -1.9902      2.00000
     33      -1.9406      2.00000
     34      -1.8981      2.00000
     35      -1.8343      2.00000
     36      -1.8054      2.00000
     37      -1.7737      2.00000
     38      -1.5382      2.00000
     39      -1.4894      2.00000
     40      -1.3578      2.00000
     41      -1.2314      2.00000
     42      -1.2062      2.00000
     43      -0.1802      2.00000
     44      -0.0436      2.00000
     45       0.1716      2.00000
     46       0.2011      2.00000
     47       0.3439      2.00000
     48       0.4549      2.00000
     49       0.7184      2.00000
     50       0.7863      2.00000
     51       1.0747      2.00000
     52       1.4026      2.00000
     53       1.5437      2.00000
     54       1.8474      2.00000
     55       1.9997      2.00000
     56       2.1637      2.00000
     57       2.4673      2.00000
     58       2.5797      2.00000
     59       2.7482      2.00000
     60       3.1046      2.00000
     61       3.3995      2.00000
     62       3.7209      2.00000
     63       6.1034      0.00000
     64       6.3441      0.00000
     65       6.4562      0.00000
     66       6.5936      0.00000
     67       7.5269      0.00000
     68       7.6531      0.00000
     69       8.4934      0.00000
     70       8.8866      0.00000
     71       9.0231      0.00000
     72       9.2730      0.00000
     73       9.4100      0.00000
     74       9.4854      0.00000
     75       9.7258      0.00000
     76      10.1908      0.00000
     77      10.2644      0.00000
     78      10.5356      0.00000
     79      10.6920      0.00000
     80      10.9724      0.00000

 k-point    91 :      -0.3889    0.1667    0.1667
  band No.  band energies     occupation 
      1     -11.3382      2.00000
      2     -11.3280      2.00000
      3     -11.0913      2.00000
      4     -11.0872      2.00000
      5     -10.9536      2.00000
      6     -10.9528      2.00000
      7     -10.8813      2.00000
      8     -10.8802      2.00000
      9     -10.8379      2.00000
     10     -10.8377      2.00000
     11     -10.2395      2.00000
     12     -10.2395      2.00000
     13      -9.9811      2.00000
     14      -9.9811      2.00000
     15      -9.8447      2.00000
     16      -9.8447      2.00000
     17      -9.8307      2.00000
     18      -9.8307      2.00000
     19      -9.7759      2.00000
     20      -9.7759      2.00000
     21      -8.9067      2.00000
     22      -8.7355      2.00000
     23      -8.1740      2.00000
     24      -8.1336      2.00000
     25      -8.0378      2.00000
     26      -7.6331      2.00000
     27      -7.1159      2.00000
     28      -7.1065      2.00000
     29      -2.1803      2.00000
     30      -2.1485      2.00000
     31      -2.0318      2.00000
     32      -1.9870      2.00000
     33      -1.9707      2.00000
     34      -1.8983      2.00000
     35      -1.8820      2.00000
     36      -1.8015      2.00000
     37      -1.7463      2.00000
     38      -1.5332      2.00000
     39      -1.4841      2.00000
     40      -1.3913      2.00000
     41      -0.9625      2.00000
     42      -0.9181      2.00000
     43      -0.1818      2.00000
     44       0.2741      2.00000
     45       0.3525      2.00000
     46       0.4351      2.00000
     47       0.5799      2.00000
     48       0.6841      2.00000
     49       0.8496      2.00000
     50       0.9325      2.00000
     51       1.1389      2.00000
     52       1.5178      2.00000
     53       1.8246      2.00000
     54       1.8755      2.00000
     55       2.2621      2.00000
     56       2.3690      2.00000
     57       2.5886      2.00000
     58       2.6759      2.00000
     59       2.8974      2.00000
     60       3.0447      2.00000
     61       3.3987      2.00000
     62       3.8782      2.00000
     63       6.1224      0.00000
     64       6.3086      0.00000
     65       6.6215      0.00000
     66       6.7218      0.00000
     67       7.6124      0.00000
     68       7.7641      0.00000
     69       8.3639      0.00000
     70       8.8479      0.00000
     71       8.9962      0.00000
     72       9.2769      0.00000
     73       9.4793      0.00000
     74       9.5970      0.00000
     75       9.6907      0.00000
     76       9.9661      0.00000
     77      10.1479      0.00000
     78      10.3564      0.00000
     79      10.4842      0.00000
     80      10.9132      0.00000

 k-point    92 :       0.2222    0.2222    0.1667
  band No.  band energies     occupation 
      1     -11.3615      2.00000
      2     -11.3525      2.00000
      3     -11.0882      2.00000
      4     -11.0850      2.00000
      5     -10.9511      2.00000
      6     -10.9502      2.00000
      7     -10.8809      2.00000
      8     -10.8800      2.00000
      9     -10.8382      2.00000
     10     -10.8382      2.00000
     11     -10.2585      2.00000
     12     -10.2585      2.00000
     13     -10.0040      2.00000
     14     -10.0040      2.00000
     15      -9.8355      2.00000
     16      -9.8355      2.00000
     17      -9.8305      2.00000
     18      -9.8305      2.00000
     19      -9.7723      2.00000
     20      -9.7723      2.00000
     21      -8.6994      2.00000
     22      -8.5490      2.00000
     23      -8.0118      2.00000
     24      -7.9809      2.00000
     25      -7.9138      2.00000
     26      -7.5843      2.00000
     27      -7.0297      2.00000
     28      -7.0260      2.00000
     29      -2.2968      2.00000
     30      -2.1328      2.00000
     31      -2.1042      2.00000
     32      -1.9951      2.00000
     33      -1.9416      2.00000
     34      -1.8887      2.00000
     35      -1.8363      2.00000
     36      -1.8099      2.00000
     37      -1.7758      2.00000
     38      -1.5316      2.00000
     39      -1.4948      2.00000
     40      -1.3535      2.00000
     41      -1.1783      2.00000
     42      -1.1591      2.00000
     43      -0.1954      2.00000
     44       0.0606      2.00000
     45       0.1176      2.00000
     46       0.1615      2.00000
     47       0.3835      2.00000
     48       0.4024      2.00000
     49       0.7221      2.00000
     50       0.8184      2.00000
     51       0.9619      2.00000
     52       1.3748      2.00000
     53       1.4516      2.00000
     54       1.9079      2.00000
     55       2.0795      2.00000
     56       2.2166      2.00000
     57       2.3434      2.00000
     58       2.5072      2.00000
     59       2.6033      2.00000
     60       3.0986      2.00000
     61       3.4154      2.00000
     62       3.7408      2.00000
     63       6.2222      0.00000
     64       6.4268      0.00000
     65       6.5650      0.00000
     66       6.6319      0.00000
     67       7.7762      0.00000
     68       7.8415      0.00000
     69       8.2111      0.00000
     70       8.9340      0.00000
     71       9.2891      0.00000
     72       9.3525      0.00000
     73       9.6133      0.00000
     74       9.6999      0.00000
     75       9.8642      0.00000
     76      10.0292      0.00000
     77      10.2516      0.00000
     78      10.5197      0.00000
     79      10.5662      0.00000
     80      11.0984      0.00000

 k-point    93 :       0.2778    0.2222    0.1667
  band No.  band energies     occupation 
      1     -11.3790      2.00000
      2     -11.3721      2.00000
      3     -11.0848      2.00000
      4     -11.0824      2.00000
      5     -10.9501      2.00000
      6     -10.9491      2.00000
      7     -10.8795      2.00000
      8     -10.8788      2.00000
      9     -10.8389      2.00000
     10     -10.8388      2.00000
     11     -10.2723      2.00000
     12     -10.2723      2.00000
     13     -10.0230      2.00000
     14     -10.0230      2.00000
     15      -9.8367      2.00000
     16      -9.8367      2.00000
     17      -9.8186      2.00000
     18      -9.8186      2.00000
     19      -9.7736      2.00000
     20      -9.7736      2.00000
     21      -8.5111      2.00000
     22      -8.3893      2.00000
     23      -7.8654      2.00000
     24      -7.8452      2.00000
     25      -7.8008      2.00000
     26      -7.5547      2.00000
     27      -6.9682      2.00000
     28      -6.9678      2.00000
     29      -2.4249      2.00000
     30      -2.2627      2.00000
     31      -2.0654      2.00000
     32      -1.9617      2.00000
     33      -1.9030      2.00000
     34      -1.8719      2.00000
     35      -1.8341      2.00000
     36      -1.8059      2.00000
     37      -1.7726      2.00000
     38      -1.5170      2.00000
     39      -1.5060      2.00000
     40      -1.3762      2.00000
     41      -1.3673      2.00000
     42      -1.3236      2.00000
     43      -0.2233      2.00000
     44      -0.1752      2.00000
     45      -0.0957      2.00000
     46       0.0392      2.00000
     47       0.1397      2.00000
     48       0.2158      2.00000
     49       0.6639      2.00000
     50       0.7470      2.00000
     51       0.9186      2.00000
     52       1.1177      2.00000
     53       1.3089      2.00000
     54       1.7918      2.00000
     55       1.8512      2.00000
     56       2.1471      2.00000
     57       2.1864      2.00000
     58       2.4023      2.00000
     59       2.4666      2.00000
     60       3.1473      2.00000
     61       3.4230      2.00000
     62       3.5876      2.00000
     63       6.2739      0.00000
     64       6.3939      0.00000
     65       6.4974      0.00000
     66       6.5568      0.00000
     67       7.7376      0.00000
     68       7.8439      0.00000
     69       8.3808      0.00000
     70       8.9328      0.00000
     71       9.3406      0.00000
     72       9.4127      0.00000
     73       9.5242      0.00000
     74       9.7781      0.00000
     75       9.8637      0.00000
     76      10.2512      0.00000
     77      10.5101      0.00000
     78      10.6710      0.00000
     79      10.8125      0.00000
     80      11.0188      0.00000

 k-point    94 :       0.3333    0.2222    0.1667
  band No.  band energies     occupation 
      1     -11.3897      2.00000
      2     -11.3849      2.00000
      3     -11.0822      2.00000
      4     -11.0804      2.00000
      5     -10.9499      2.00000
      6     -10.9489      2.00000
      7     -10.8781      2.00000
      8     -10.8773      2.00000
      9     -10.8397      2.00000
     10     -10.8395      2.00000
     11     -10.2807      2.00000
     12     -10.2807      2.00000
     13     -10.0355      2.00000
     14     -10.0355      2.00000
     15      -9.8384      2.00000
     16      -9.8384      2.00000
     17      -9.8053      2.00000
     18      -9.8053      2.00000
     19      -9.7792      2.00000
     20      -9.7792      2.00000
     21      -8.3716      2.00000
     22      -8.2844      2.00000
     23      -7.7601      2.00000
     24      -7.7497      2.00000
     25      -7.7165      2.00000
     26      -7.5479      2.00000
     27      -6.9349      2.00000
     28      -6.9338      2.00000
     29      -2.5070      2.00000
     30      -2.3872      2.00000
     31      -2.0062      2.00000
     32      -1.9422      2.00000
     33      -1.8771      2.00000
     34      -1.8685      2.00000
     35      -1.8362      2.00000
     36      -1.7988      2.00000
     37      -1.7588      2.00000
     38      -1.5417      2.00000
     39      -1.5147      2.00000
     40      -1.5006      2.00000
     41      -1.4560      2.00000
     42      -1.3305      2.00000
     43      -0.3621      2.00000
     44      -0.3383      2.00000
     45      -0.1172      2.00000
     46      -0.0642      2.00000
     47      -0.0034      2.00000
     48       0.1285      2.00000
     49       0.5890      2.00000
     50       0.6783      2.00000
     51       0.8923      2.00000
     52       1.0326      2.00000
     53       1.3310      2.00000
     54       1.5377      2.00000
     55       1.6542      2.00000
     56       2.0290      2.00000
     57       2.1889      2.00000
     58       2.3266      2.00000
     59       2.5268      2.00000
     60       3.1459      2.00000
     61       3.4166      2.00000
     62       3.4784      2.00000
     63       6.2770      0.00000
     64       6.2994      0.00000
     65       6.4128      0.00000
     66       6.5785      0.00000
     67       7.6688      0.00000
     68       7.8151      0.00000
     69       8.5964      0.00000
     70       8.8819      0.00000
     71       9.3319      0.00000
     72       9.3905      0.00000
     73       9.4490      0.00000
     74       9.6766      0.00000
     75       9.9840      0.00000
     76      10.4149      0.00000
     77      10.6498      0.00000
     78      10.7397      0.00000
     79      10.8487      0.00000
     80      11.0456      0.00000

 k-point    95 :       0.3889    0.2222    0.1667
  band No.  band energies     occupation 
      1     -11.3931      2.00000
      2     -11.3895      2.00000
      3     -11.0813      2.00000
      4     -11.0796      2.00000
      5     -10.9499      2.00000
      6     -10.9489      2.00000
      7     -10.8775      2.00000
      8     -10.8767      2.00000
      9     -10.8400      2.00000
     10     -10.8398      2.00000
     11     -10.2836      2.00000
     12     -10.2836      2.00000
     13     -10.0398      2.00000
     14     -10.0398      2.00000
     15      -9.8390      2.00000
     16      -9.8390      2.00000
     17      -9.7970      2.00000
     18      -9.7970      2.00000
     19      -9.7850      2.00000
     20      -9.7850      2.00000
     21      -8.3170      2.00000
     22      -8.2502      2.00000
     23      -7.7212      2.00000
     24      -7.7148      2.00000
     25      -7.6819      2.00000
     26      -7.5519      2.00000
     27      -6.9245      2.00000
     28      -6.9235      2.00000
     29      -2.5327      2.00000
     30      -2.4375      2.00000
     31      -1.9780      2.00000
     32      -1.9385      2.00000
     33      -1.8794      2.00000
     34      -1.8643      2.00000
     35      -1.8336      2.00000
     36      -1.7859      2.00000
     37      -1.7591      2.00000
     38      -1.5746      2.00000
     39      -1.5645      2.00000
     40      -1.5256      2.00000
     41      -1.4082      2.00000
     42      -1.3608      2.00000
     43      -0.4207      2.00000
     44      -0.3958      2.00000
     45      -0.1509      2.00000
     46      -0.1062      2.00000
     47       0.0110      2.00000
     48       0.0846      2.00000
     49       0.5542      2.00000
     50       0.6434      2.00000
     51       0.8145      2.00000
     52       1.1685      2.00000
     53       1.3138      2.00000
     54       1.4549      2.00000
     55       1.5210      2.00000
     56       1.9945      2.00000
     57       2.1515      2.00000
     58       2.3197      2.00000
     59       2.5946      2.00000
     60       3.1129      2.00000
     61       3.4124      2.00000
     62       3.4490      2.00000
     63       6.2409      0.00000
     64       6.2900      0.00000
     65       6.3792      0.00000
     66       6.5941      0.00000
     67       7.6376      0.00000
     68       7.8073      0.00000
     69       8.6885      0.00000
     70       8.8481      0.00000
     71       9.2976      0.00000
     72       9.4016      0.00000
     73       9.4400      0.00000
     74       9.6146      0.00000
     75      10.0263      0.00000
     76      10.5237      0.00000
     77      10.6215      0.00000
     78      10.7150      0.00000
     79      10.7998      0.00000
     80      11.1425      0.00000

 k-point    96 :       0.4444    0.2222    0.1667
  band No.  band energies     occupation 
      1     -11.3897      2.00000
      2     -11.3849      2.00000
      3     -11.0822      2.00000
      4     -11.0804      2.00000
      5     -10.9499      2.00000
      6     -10.9489      2.00000
      7     -10.8781      2.00000
      8     -10.8773      2.00000
      9     -10.8397      2.00000
     10     -10.8395      2.00000
     11     -10.2807      2.00000
     12     -10.2807      2.00000
     13     -10.0355      2.00000
     14     -10.0355      2.00000
     15      -9.8384      2.00000
     16      -9.8384      2.00000
     17      -9.8053      2.00000
     18      -9.8053      2.00000
     19      -9.7792      2.00000
     20      -9.7792      2.00000
     21      -8.3716      2.00000
     22      -8.2844      2.00000
     23      -7.7607      2.00000
     24      -7.7489      2.00000
     25      -7.7168      2.00000
     26      -7.5479      2.00000
     27      -6.9349      2.00000
     28      -6.9339      2.00000
     29      -2.5070      2.00000
     30      -2.3872      2.00000
     31      -2.0062      2.00000
     32      -1.9422      2.00000
     33      -1.8771      2.00000
     34      -1.8684      2.00000
     35      -1.8362      2.00000
     36      -1.7988      2.00000
     37      -1.7588      2.00000
     38      -1.5415      2.00000
     39      -1.5151      2.00000
     40      -1.5005      2.00000
     41      -1.4559      2.00000
     42      -1.3305      2.00000
     43      -0.3625      2.00000
     44      -0.3381      2.00000
     45      -0.1256      2.00000
     46      -0.0700      2.00000
     47       0.0545      2.00000
     48       0.0802      2.00000
     49       0.5966      2.00000
     50       0.6839      2.00000
     51       0.8862      2.00000
     52       1.0184      2.00000
     53       1.3448      2.00000
     54       1.5750      2.00000
     55       1.6138      2.00000
     56       2.0513      2.00000
     57       2.1427      2.00000
     58       2.3565      2.00000
     59       2.5224      2.00000
     60       3.1457      2.00000
     61       3.4195      2.00000
     62       3.4756      2.00000
     63       6.2681      0.00000
     64       6.3017      0.00000
     65       6.4188      0.00000
     66       6.5799      0.00000
     67       7.6652      0.00000
     68       7.8224      0.00000
     69       8.5734      0.00000
     70       8.9081      0.00000
     71       9.2990      0.00000
     72       9.4122      0.00000
     73       9.4697      0.00000
     74       9.6457      0.00000
     75       9.9896      0.00000
     76      10.4871      0.00000
     77      10.6385      0.00000
     78      10.6650      0.00000
     79      10.8417      0.00000
     80      11.0640      0.00000

 k-point    97 :       0.5000    0.2222    0.1667
  band No.  band energies     occupation 
      1     -11.3790      2.00000
      2     -11.3721      2.00000
      3     -11.0848      2.00000
      4     -11.0824      2.00000
      5     -10.9501      2.00000
      6     -10.9491      2.00000
      7     -10.8795      2.00000
      8     -10.8788      2.00000
      9     -10.8389      2.00000
     10     -10.8388      2.00000
     11     -10.2723      2.00000
     12     -10.2723      2.00000
     13     -10.0230      2.00000
     14     -10.0230      2.00000
     15      -9.8367      2.00000
     16      -9.8367      2.00000
     17      -9.8186      2.00000
     18      -9.8185      2.00000
     19      -9.7736      2.00000
     20      -9.7736      2.00000
     21      -8.5111      2.00000
     22      -8.3893      2.00000
     23      -7.8663      2.00000
     24      -7.8440      2.00000
     25      -7.8013      2.00000
     26      -7.5546      2.00000
     27      -6.9682      2.00000
     28      -6.9678      2.00000
     29      -2.4248      2.00000
     30      -2.2627      2.00000
     31      -2.0654      2.00000
     32      -1.9617      2.00000
     33      -1.9030      2.00000
     34      -1.8719      2.00000
     35      -1.8341      2.00000
     36      -1.8059      2.00000
     37      -1.7726      2.00000
     38      -1.5170      2.00000
     39      -1.5060      2.00000
     40      -1.3747      2.00000
     41      -1.3690      2.00000
     42      -1.3234      2.00000
     43      -0.2239      2.00000
     44      -0.1744      2.00000
     45      -0.0998      2.00000
     46       0.0500      2.00000
     47       0.1451      2.00000
     48       0.1996      2.00000
     49       0.6896      2.00000
     50       0.7338      2.00000
     51       0.8997      2.00000
     52       1.1211      2.00000
     53       1.3227      2.00000
     54       1.7999      2.00000
     55       1.8297      2.00000
     56       2.1488      2.00000
     57       2.1896      2.00000
     58       2.4239      2.00000
     59       2.4462      2.00000
     60       3.1486      2.00000
     61       3.4221      2.00000
     62       3.5878      2.00000
     63       6.2701      0.00000
     64       6.3917      0.00000
     65       6.5052      0.00000
     66       6.5560      0.00000
     67       7.7328      0.00000
     68       7.8507      0.00000
     69       8.3688      0.00000
     70       8.9571      0.00000
     71       9.3279      0.00000
     72       9.3960      0.00000
     73       9.5584      0.00000
     74       9.7387      0.00000
     75       9.8445      0.00000
     76      10.3659      0.00000
     77      10.4478      0.00000
     78      10.6650      0.00000
     79      10.8007      0.00000
     80      10.9803      0.00000

 k-point    98 :       0.2778    0.2778    0.1667
  band No.  band energies     occupation 
      1     -11.3885      2.00000
      2     -11.3839      2.00000
      3     -11.0821      2.00000
      4     -11.0805      2.00000
      5     -10.9516      2.00000
      6     -10.9506      2.00000
      7     -10.8743      2.00000
      8     -10.8737      2.00000
      9     -10.8437      2.00000
     10     -10.8437      2.00000
     11     -10.2684      2.00000
     12     -10.2684      2.00000
     13     -10.0526      2.00000
     14     -10.0526      2.00000
     15      -9.8266      2.00000
     16      -9.8266      2.00000
     17      -9.8162      2.00000
     18      -9.8162      2.00000
     19      -9.7807      2.00000
     20      -9.7807      2.00000
     21      -8.3634      2.00000
     22      -8.2778      2.00000
     23      -7.7443      2.00000
     24      -7.7305      2.00000
     25      -7.7080      2.00000
     26      -7.5475      2.00000
     27      -6.9384      2.00000
     28      -6.9373      2.00000
     29      -2.4707      2.00000
     30      -2.3559      2.00000
     31      -2.0027      2.00000
     32      -1.9380      2.00000
     33      -1.8717      2.00000
     34      -1.8459      2.00000
     35      -1.8390      2.00000
     36      -1.8290      2.00000
     37      -1.7616      2.00000
     38      -1.5419      2.00000
     39      -1.4914      2.00000
     40      -1.4823      2.00000
     41      -1.4493      2.00000
     42      -1.3153      2.00000
     43      -0.4561      2.00000
     44      -0.2388      2.00000
     45      -0.1716      2.00000
     46      -0.1224      2.00000
     47      -0.0026      2.00000
     48       0.0675      2.00000
     49       0.6646      2.00000
     50       0.7012      2.00000
     51       0.7569      2.00000
     52       0.9434      2.00000
     53       1.3022      2.00000
     54       1.6048      2.00000
     55       1.6317      2.00000
     56       1.9787      2.00000
     57       2.1168      2.00000
     58       2.1884      2.00000
     59       2.5381      2.00000
     60       3.1455      2.00000
     61       3.4318      2.00000
     62       3.4743      2.00000
     63       6.2874      0.00000
     64       6.3975      0.00000
     65       6.4912      0.00000
     66       6.5851      0.00000
     67       7.7318      0.00000
     68       8.0267      0.00000
     69       8.4535      0.00000
     70       8.9231      0.00000
     71       9.3812      0.00000
     72       9.5080      0.00000
     73       9.7874      0.00000
     74       9.8408      0.00000
     75       9.9957      0.00000
     76      10.5024      0.00000
     77      10.7090      0.00000
     78      10.9244      0.00000
     79      10.9635      0.00000
     80      11.0197      0.00000

 k-point    99 :       0.3333    0.2778    0.1667
  band No.  band energies     occupation 
      1     -11.3929      2.00000
      2     -11.3904      2.00000
      3     -11.0804      2.00000
      4     -11.0794      2.00000
      5     -10.9526      2.00000
      6     -10.9515      2.00000
      7     -10.8697      2.00000
      8     -10.8691      2.00000
      9     -10.8481      2.00000
     10     -10.8480      2.00000
     11     -10.2641      2.00000
     12     -10.2641      2.00000
     13     -10.0705      2.00000
     14     -10.0705      2.00000
     15      -9.8239      2.00000
     16      -9.8239      2.00000
     17      -9.8055      2.00000
     18      -9.8055      2.00000
     19      -9.7914      2.00000
     20      -9.7914      2.00000
     21      -8.2717      2.00000
     22      -8.2254      2.00000
     23      -7.6698      2.00000
     24      -7.6646      2.00000
     25      -7.6463      2.00000
     26      -7.5603      2.00000
     27      -6.9264      2.00000
     28      -6.9255      2.00000
     29      -2.4801      2.00000
     30      -2.4160      2.00000
     31      -1.9529      2.00000
     32      -1.9267      2.00000
     33      -1.8666      2.00000
     34      -1.8518      2.00000
     35      -1.8348      2.00000
     36      -1.8074      2.00000
     37      -1.7738      2.00000
     38      -1.5802      2.00000
     39      -1.5581      2.00000
     40      -1.5297      2.00000
     41      -1.3786      2.00000
     42      -1.3302      2.00000
     43      -0.6034      2.00000
     44      -0.3127      2.00000
     45      -0.2643      2.00000
     46      -0.1277      2.00000
     47      -0.0593      2.00000
     48       0.0144      2.00000
     49       0.5435      2.00000
     50       0.6390      2.00000
     51       0.6693      2.00000
     52       1.1244      2.00000
     53       1.3060      2.00000
     54       1.3719      2.00000
     55       1.4825      2.00000
     56       1.8945      2.00000
     57       2.0355      2.00000
     58       2.0988      2.00000
     59       2.6976      2.00000
     60       3.0567      2.00000
     61       3.4244      2.00000
     62       3.4428      2.00000
     63       6.2075      0.00000
     64       6.4513      0.00000
     65       6.4679      0.00000
     66       6.6132      0.00000
     67       7.7003      0.00000
     68       8.0652      0.00000
     69       8.6132      0.00000
     70       8.8487      0.00000
     71       9.4472      0.00000
     72       9.5065      0.00000
     73       9.7628      0.00000
     74       9.9645      0.00000
     75      10.0908      0.00000
     76      10.6923      0.00000
     77      10.7962      0.00000
     78      10.8676      0.00000
     79      11.0945      0.00000
     80      11.1940      0.00000

 k-point   100 :       0.3889    0.2778    0.1667
  band No.  band energies     occupation 
      1     -11.3929      2.00000
      2     -11.3904      2.00000
      3     -11.0804      2.00000
      4     -11.0794      2.00000
      5     -10.9526      2.00000
      6     -10.9515      2.00000
      7     -10.8697      2.00000
      8     -10.8691      2.00000
      9     -10.8481      2.00000
     10     -10.8480      2.00000
     11     -10.2641      2.00000
     12     -10.2641      2.00000
     13     -10.0705      2.00000
     14     -10.0705      2.00000
     15      -9.8239      2.00000
     16      -9.8239      2.00000
     17      -9.8055      2.00000
     18      -9.8055      2.00000
     19      -9.7914      2.00000
     20      -9.7914      2.00000
     21      -8.2718      2.00000
     22      -8.2254      2.00000
     23      -7.6698      2.00000
     24      -7.6646      2.00000
     25      -7.6463      2.00000
     26      -7.5603      2.00000
     27      -6.9264      2.00000
     28      -6.9255      2.00000
     29      -2.4801      2.00000
     30      -2.4160      2.00000
     31      -1.9529      2.00000
     32      -1.9267      2.00000
     33      -1.8666      2.00000
     34      -1.8518      2.00000
     35      -1.8348      2.00000
     36      -1.8074      2.00000
     37      -1.7738      2.00000
     38      -1.5801      2.00000
     39      -1.5583      2.00000
     40      -1.5296      2.00000
     41      -1.3787      2.00000
     42      -1.3302      2.00000
     43      -0.6034      2.00000
     44      -0.3121      2.00000
     45      -0.2651      2.00000
     46      -0.1348      2.00000
     47      -0.0353      2.00000
     48      -0.0029      2.00000
     49       0.5436      2.00000
     50       0.6390      2.00000
     51       0.6709      2.00000
     52       1.1215      2.00000
     53       1.2898      2.00000
     54       1.4090      2.00000
     55       1.4627      2.00000
     56       1.9220      2.00000
     57       1.9845      2.00000
     58       2.1231      2.00000
     59       2.6978      2.00000
     60       3.0564      2.00000
     61       3.4285      2.00000
     62       3.4387      2.00000
     63       6.2072      0.00000
     64       6.4529      0.00000
     65       6.4655      0.00000
     66       6.6145      0.00000
     67       7.7000      0.00000
     68       8.0665      0.00000
     69       8.6094      0.00000
     70       8.8522      0.00000
     71       9.4263      0.00000
     72       9.5194      0.00000
     73       9.7855      0.00000
     74       9.9595      0.00000
     75      10.0792      0.00000
     76      10.6782      0.00000
     77      10.8240      0.00000
     78      10.8636      0.00000
     79      11.0836      0.00000
     80      11.2607      0.00000

 k-point   101 :       0.3333    0.3333    0.1667
  band No.  band energies     occupation 
      1     -11.3931      2.00000
      2     -11.3931      2.00000
      3     -11.0794      2.00000
      4     -11.0794      2.00000
      5     -10.9537      2.00000
      6     -10.9526      2.00000
      7     -10.8629      2.00000
      8     -10.8622      2.00000
      9     -10.8549      2.00000
     10     -10.8549      2.00000
     11     -10.2557      2.00000
     12     -10.2557      2.00000
     13     -10.0852      2.00000
     14     -10.0852      2.00000
     15      -9.8129      2.00000
     16      -9.8129      2.00000
     17      -9.8041      2.00000
     18      -9.8041      2.00000
     19      -9.8031      2.00000
     20      -9.8031      2.00000
     21      -8.2206      2.00000
     22      -8.2206      2.00000
     23      -7.6334      2.00000
     24      -7.6334      2.00000
     25      -7.5944      2.00000
     26      -7.5944      2.00000
     27      -6.9248      2.00000
     28      -6.9248      2.00000
     29      -2.4439      2.00000
     30      -2.4439      2.00000
     31      -1.9221      2.00000
     32      -1.9221      2.00000
     33      -1.8806      2.00000
     34      -1.8424      2.00000
     35      -1.8116      2.00000
     36      -1.8116      2.00000
     37      -1.7971      2.00000
     38      -1.5965      2.00000
     39      -1.5736      2.00000
     40      -1.5396      2.00000
     41      -1.3363      2.00000
     42      -1.3363      2.00000
     43      -0.6933      2.00000
     44      -0.3972      2.00000
     45      -0.1755      2.00000
     46      -0.1755      2.00000
     47      -0.0561      2.00000
     48      -0.0561      2.00000
     49       0.3924      2.00000
     50       0.6768      2.00000
     51       0.6768      2.00000
     52       1.2446      2.00000
     53       1.2937      2.00000
     54       1.3079      2.00000
     55       1.3079      2.00000
     56       1.8825      2.00000
     57       1.9877      2.00000
     58       1.9877      2.00000
     59       2.8908      2.00000
     60       2.8908      2.00000
     61       3.4332      2.00000
     62       3.4332      2.00000
     63       6.1701      0.00000
     64       6.4597      0.00000
     65       6.5783      0.00000
     66       6.5783      0.00000
     67       7.6976      0.00000
     68       8.1384      0.00000
     69       8.7311      0.00000
     70       8.7312      0.00000
     71       9.5139      0.00000
     72       9.5139      0.00000
     73       9.9685      0.00000
     74      10.0746      0.00000
     75      10.0747      0.00000
     76      10.7025      0.00000
     77      10.8997      0.00000
     78      10.9053      0.00000
     79      11.2891      0.00000
     80      11.4137      0.00000

 k-point   102 :       0.0000    0.0000    0.3333
  band No.  band energies     occupation 
      1     -11.1992      2.00000
      2     -11.1987      2.00000
      3     -11.0073      2.00000
      4     -11.0073      2.00000
      5     -11.0069      2.00000
      6     -11.0069      2.00000
      7     -10.8427      2.00000
      8     -10.8427      2.00000
      9     -10.8425      2.00000
     10     -10.8425      2.00000
     11      -9.9916      2.00000
     12      -9.9599      2.00000
     13      -9.9599      2.00000
     14      -9.9599      2.00000
     15      -9.9599      2.00000
     16      -9.9584      2.00000
     17      -9.9458      2.00000
     18      -9.8115      2.00000
     19      -9.8115      2.00000
     20      -9.8115      2.00000
     21      -9.8115      2.00000
     22      -9.7270      2.00000
     23      -8.8695      2.00000
     24      -8.8395      2.00000
     25      -8.6338      2.00000
     26      -8.0322      2.00000
     27      -7.7739      2.00000
     28      -7.7151      2.00000
     29      -2.2207      2.00000
     30      -2.2207      2.00000
     31      -2.1255      2.00000
     32      -2.1255      2.00000
     33      -2.1037      2.00000
     34      -1.8479      2.00000
     35      -1.7242      2.00000
     36      -1.7241      2.00000
     37      -1.7047      2.00000
     38      -1.5642      2.00000
     39      -1.4593      2.00000
     40      -1.4592      2.00000
     41      -0.0083      2.00000
     42       0.2619      2.00000
     43       0.8389      2.00000
     44       1.7419      2.00000
     45       1.7419      2.00000
     46       1.9173      2.00000
     47       1.9174      2.00000
     48       2.2573      2.00000
     49       2.7929      2.00000
     50       2.9941      2.00000
     51       2.9941      2.00000
     52       2.9975      2.00000
     53       2.9975      2.00000
     54       3.3028      2.00000
     55       3.3028      2.00000
     56       3.3302      2.00000
     57       3.3302      2.00000
     58       3.5388      2.00000
     59       3.5388      2.00000
     60       3.8482      2.00000
     61       4.1211      2.00000
     62       4.1212      2.00000
     63       4.5968      0.00000
     64       5.1785      0.00000
     65       6.0993      0.00000
     66       6.3657      0.00000
     67       6.7426      0.00000
     68       7.4436      0.00000
     69       7.6792      0.00000
     70       7.7125      0.00000
     71       8.7311      0.00000
     72       8.7462      0.00000
     73       8.7462      0.00000
     74       8.9711      0.00000
     75       8.9711      0.00000
     76       9.1732      0.00000
     77       9.8763      0.00000
     78       9.8766      0.00000
     79       9.9025      0.00000
     80       9.9030      0.00000

 k-point   103 :       0.0556    0.0000    0.3333
  band No.  band energies     occupation 
      1     -11.2006      2.00000
      2     -11.2003      2.00000
      3     -11.0186      2.00000
      4     -11.0169      2.00000
      5     -11.0046      2.00000
      6     -11.0041      2.00000
      7     -10.8466      2.00000
      8     -10.8461      2.00000
      9     -10.8427      2.00000
     10     -10.8424      2.00000
     11      -9.9873      2.00000
     12      -9.9870      2.00000
     13      -9.9599      2.00000
     14      -9.9577      2.00000
     15      -9.9577      2.00000
     16      -9.9400      2.00000
     17      -9.9168      2.00000
     18      -9.8142      2.00000
     19      -9.8132      2.00000
     20      -9.8108      2.00000
     21      -9.8108      2.00000
     22      -9.6887      2.00000
     23      -8.8483      2.00000
     24      -8.8185      2.00000
     25      -8.6138      2.00000
     26      -8.0139      2.00000
     27      -7.7452      2.00000
     28      -7.6910      2.00000
     29      -2.2235      2.00000
     30      -2.2130      2.00000
     31      -2.1249      2.00000
     32      -2.1176      2.00000
     33      -2.0842      2.00000
     34      -1.8425      2.00000
     35      -1.7549      2.00000
     36      -1.7263      2.00000
     37      -1.6662      2.00000
     38      -1.5679      2.00000
     39      -1.4683      2.00000
     40      -1.4590      2.00000
     41       0.0113      2.00000
     42       0.2601      2.00000
     43       0.7790      2.00000
     44       1.6285      2.00000
     45       1.6945      2.00000
     46       1.7028      2.00000
     47       1.8847      2.00000
     48       2.2538      2.00000
     49       2.7014      2.00000
     50       2.8160      2.00000
     51       2.9067      2.00000
     52       2.9190      2.00000
     53       2.9256      2.00000
     54       3.1941      2.00000
     55       3.2376      2.00000
     56       3.3102      2.00000
     57       3.3168      2.00000
     58       3.3540      2.00000
     59       3.5009      2.00000
     60       3.9475      2.00000
     61       3.9940      2.00000
     62       4.0854      2.00000
     63       4.7290      0.00000
     64       5.2832      0.00000
     65       6.2606      0.00000
     66       6.4731      0.00000
     67       6.9324      0.00000
     68       7.5828      0.00000
     69       7.8129      0.00000
     70       7.8508      0.00000
     71       8.5146      0.00000
     72       8.5987      0.00000
     73       8.8004      0.00000
     74       8.9902      0.00000
     75       9.0213      0.00000
     76       9.1862      0.00000
     77       9.8749      0.00000
     78       9.9215      0.00000
     79       9.9515      0.00000
     80       9.9845      0.00000

 k-point   104 :       0.1111    0.0000    0.3333
  band No.  band energies     occupation 
      1     -11.2077      2.00000
      2     -11.2068      2.00000
      3     -11.0469      2.00000
      4     -11.0408      2.00000
      5     -10.9966      2.00000
      6     -10.9961      2.00000
      7     -10.8555      2.00000
      8     -10.8541      2.00000
      9     -10.8425      2.00000
     10     -10.8422      2.00000
     11     -10.0323      2.00000
     12     -10.0317      2.00000
     13      -9.9515      2.00000
     14      -9.9515      2.00000
     15      -9.9227      2.00000
     16      -9.9198      2.00000
     17      -9.8285      2.00000
     18      -9.8196      2.00000
     19      -9.8087      2.00000
     20      -9.8087      2.00000
     21      -9.8053      2.00000
     22      -9.5818      2.00000
     23      -8.7849      2.00000
     24      -8.7558      2.00000
     25      -8.5550      2.00000
     26      -7.9630      2.00000
     27      -7.6640      2.00000
     28      -7.6209      2.00000
     29      -2.2304      2.00000
     30      -2.1907      2.00000
     31      -2.1210      2.00000
     32      -2.0946      2.00000
     33      -2.0316      2.00000
     34      -1.8371      2.00000
     35      -1.7777      2.00000
     36      -1.7325      2.00000
     37      -1.6169      2.00000
     38      -1.5816      2.00000
     39      -1.4876      2.00000
     40      -1.4586      2.00000
     41       0.0452      2.00000
     42       0.2362      2.00000
     43       0.6167      2.00000
     44       1.1843      2.00000
     45       1.3857      2.00000
     46       1.5949      2.00000
     47       1.7919      2.00000
     48       2.1076      2.00000
     49       2.3827      2.00000
     50       2.4275      2.00000
     51       2.6841      2.00000
     52       2.7495      2.00000
     53       2.7560      2.00000
     54       2.9192      2.00000
     55       2.9637      2.00000
     56       3.0479      2.00000
     57       3.2444      2.00000
     58       3.3813      2.00000
     59       3.4477      2.00000
     60       3.6201      2.00000
     61       3.9848      2.00000
     62       4.1180      2.00000
     63       5.0510      0.00000
     64       5.5157      0.00000
     65       6.5958      0.00000
     66       6.7030      0.00000
     67       7.3679      0.00000
     68       7.9030      0.00000
     69       7.9909      0.00000
     70       8.0816      0.00000
     71       8.3045      0.00000
     72       8.3973      0.00000
     73       8.9283      0.00000
     74       8.9510      0.00000
     75       9.1523      0.00000
     76       9.1637      0.00000
     77       9.9214      0.00000
     78      10.0920      0.00000
     79      10.1676      0.00000
     80      10.2302      0.00000

 k-point   105 :       0.1667    0.0000    0.3333
  band No.  band energies     occupation 
      1     -11.2272      2.00000
      2     -11.2233      2.00000
      3     -11.0748      2.00000
      4     -11.0664      2.00000
      5     -10.9849      2.00000
      6     -10.9844      2.00000
      7     -10.8650      2.00000
      8     -10.8632      2.00000
      9     -10.8416      2.00000
     10     -10.8413      2.00000
     11     -10.0904      2.00000
     12     -10.0900      2.00000
     13      -9.9430      2.00000
     14      -9.9430      2.00000
     15      -9.8986      2.00000
     16      -9.8982      2.00000
     17      -9.8256      2.00000
     18      -9.8252      2.00000
     19      -9.8043      2.00000
     20      -9.8043      2.00000
     21      -9.6410      2.00000
     22      -9.4203      2.00000
     23      -8.6810      2.00000
     24      -8.6537      2.00000
     25      -8.4612      2.00000
     26      -7.8893      2.00000
     27      -7.5430      2.00000
     28      -7.5128      2.00000
     29      -2.2366      2.00000
     30      -2.1555      2.00000
     31      -2.1113      2.00000
     32      -2.0583      2.00000
     33      -1.9624      2.00000
     34      -1.8470      2.00000
     35      -1.7870      2.00000
     36      -1.7418      2.00000
     37      -1.6197      2.00000
     38      -1.5600      2.00000
     39      -1.5032      2.00000
     40      -1.4583      2.00000
     41       0.0191      2.00000
     42       0.0498      2.00000
     43       0.5298      2.00000
     44       0.6124      2.00000
     45       1.0691      2.00000
     46       1.4404      2.00000
     47       1.6538      2.00000
     48       1.7187      2.00000
     49       1.9204      2.00000
     50       1.9573      2.00000
     51       2.3786      2.00000
     52       2.5397      2.00000
     53       2.5449      2.00000
     54       2.5952      2.00000
     55       2.6983      2.00000
     56       2.8319      2.00000
     57       3.0530      2.00000
     58       3.3795      2.00000
     59       3.3805      2.00000
     60       3.4307      2.00000
     61       3.8384      2.00000
     62       4.1389      2.00000
     63       5.4148      0.00000
     64       5.7349      0.00000
     65       6.8024      0.00000
     66       6.8575      0.00000
     67       7.6402      0.00000
     68       7.7902      0.00000
     69       7.9274      0.00000
     70       8.2438      0.00000
     71       8.5671      0.00000
     72       8.6618      0.00000
     73       9.0036      0.00000
     74       9.1629      0.00000
     75       9.3014      0.00000
     76       9.3117      0.00000
     77       9.9438      0.00000
     78      10.1847      0.00000
     79      10.3674      0.00000
     80      10.5368      0.00000

 k-point   106 :       0.2222   -0.0000    0.3333
  band No.  band energies     occupation 
      1     -11.2617      2.00000
      2     -11.2539      2.00000
      3     -11.0895      2.00000
      4     -11.0820      2.00000
      5     -10.9714      2.00000
      6     -10.9708      2.00000
      7     -10.8736      2.00000
      8     -10.8719      2.00000
      9     -10.8396      2.00000
     10     -10.8393      2.00000
     11     -10.1545      2.00000
     12     -10.1544      2.00000
     13      -9.9343      2.00000
     14      -9.9342      2.00000
     15      -9.8794      2.00000
     16      -9.8793      2.00000
     17      -9.8281      2.00000
     18      -9.8280      2.00000
     19      -9.7971      2.00000
     20      -9.7971      2.00000
     21      -9.4260      2.00000
     22      -9.2192      2.00000
     23      -8.5425      2.00000
     24      -8.5180      2.00000
     25      -8.3393      2.00000
     26      -7.8038      2.00000
     27      -7.3992      2.00000
     28      -7.3804      2.00000
     29      -2.2351      2.00000
     30      -2.1105      2.00000
     31      -2.0927      2.00000
     32      -2.0121      2.00000
     33      -1.9185      2.00000
     34      -1.8519      2.00000
     35      -1.8328      2.00000
     36      -1.7528      2.00000
     37      -1.6639      2.00000
     38      -1.5238      2.00000
     39      -1.5008      2.00000
     40      -1.4585      2.00000
     41      -0.3196      2.00000
     42      -0.1842      2.00000
     43       0.1354      2.00000
     44       0.5815      2.00000
     45       0.7520      2.00000
     46       1.2297      2.00000
     47       1.2648      2.00000
     48       1.4074      2.00000
     49       1.4916      2.00000
     50       1.4990      2.00000
     51       2.0865      2.00000
     52       2.2226      2.00000
     53       2.3198      2.00000
     54       2.3238      2.00000
     55       2.3860      2.00000
     56       2.7925      2.00000
     57       2.8115      2.00000
     58       3.2767      2.00000
     59       3.3450      2.00000
     60       3.4086      2.00000
     61       3.6747      2.00000
     62       4.0781      2.00000
     63       5.6953      0.00000
     64       5.8353      0.00000
     65       6.6737      0.00000
     66       6.8092      0.00000
     67       7.3609      0.00000
     68       7.6934      0.00000
     69       7.9911      0.00000
     70       8.5010      0.00000
     71       8.7727      0.00000
     72       8.8510      0.00000
     73       9.3733      0.00000
     74       9.3844      0.00000
     75       9.4343      0.00000
     76       9.7473      0.00000
     77       9.7909      0.00000
     78      10.5220      0.00000
     79      10.8151      0.00000
     80      10.8620      0.00000

 k-point   107 :       0.2778    0.0000    0.3333
  band No.  band energies     occupation 
      1     -11.3030      2.00000
      2     -11.2929      2.00000
      3     -11.0925      2.00000
      4     -11.0867      2.00000
      5     -10.9583      2.00000
      6     -10.9576      2.00000
      7     -10.8813      2.00000
      8     -10.8797      2.00000
      9     -10.8359      2.00000
     10     -10.8356      2.00000
     11     -10.2170      2.00000
     12     -10.2170      2.00000
     13      -9.9272      2.00000
     14      -9.9272      2.00000
     15      -9.8693      2.00000
     16      -9.8693      2.00000
     17      -9.8235      2.00000
     18      -9.8235      2.00000
     19      -9.7870      2.00000
     20      -9.7870      2.00000
     21      -9.1861      2.00000
     22      -8.9953      2.00000
     23      -8.3808      2.00000
     24      -8.3604      2.00000
     25      -8.1998      2.00000
     26      -7.7176      2.00000
     27      -7.2512      2.00000
     28      -7.2411      2.00000
     29      -2.2191      2.00000
     30      -2.0629      2.00000
     31      -2.0596      2.00000
     32      -1.9876      2.00000
     33      -1.9615      2.00000
     34      -1.9105      2.00000
     35      -1.8751      2.00000
     36      -1.7641      2.00000
     37      -1.7082      2.00000
     38      -1.5300      2.00000
     39      -1.4593      2.00000
     40      -1.4588      2.00000
     41      -0.7058      2.00000
     42      -0.6159      2.00000
     43      -0.0890      2.00000
     44       0.4177      2.00000
     45       0.6496      2.00000
     46       0.6858      2.00000
     47       1.0579      2.00000
     48       1.0905      2.00000
     49       1.0913      2.00000
     50       1.3273      2.00000
     51       1.8398      2.00000
     52       1.8652      2.00000
     53       2.1109      2.00000
     54       2.1157      2.00000
     55       2.1672      2.00000
     56       2.5657      2.00000
     57       2.8084      2.00000
     58       3.2237      2.00000
     59       3.2768      2.00000
     60       3.3760      2.00000
     61       3.5280      2.00000
     62       3.9586      2.00000
     63       5.7800      0.00000
     64       5.8282      0.00000
     65       6.4499      0.00000
     66       6.6174      0.00000
     67       7.1316      0.00000
     68       7.4685      0.00000
     69       7.9691      0.00000
     70       8.6179      0.00000
     71       8.8690      0.00000
     72       8.9527      0.00000
     73       9.4821      0.00000
     74       9.5644      0.00000
     75       9.6378      0.00000
     76       9.7989      0.00000
     77      10.1688      0.00000
     78      10.6426      0.00000
     79      10.7511      0.00000
     80      10.8899      0.00000

 k-point   108 :       0.3333   -0.0000    0.3333
  band No.  band energies     occupation 
      1     -11.3414      2.00000
      2     -11.3312      2.00000
      3     -11.0905      2.00000
      4     -11.0859      2.00000
      5     -10.9477      2.00000
      6     -10.9470      2.00000
      7     -10.8877      2.00000
      8     -10.8862      2.00000
      9     -10.8306      2.00000
     10     -10.8304      2.00000
     11     -10.2714      2.00000
     12     -10.2713      2.00000
     13      -9.9225      2.00000
     14      -9.9225      2.00000
     15      -9.8688      2.00000
     16      -9.8688      2.00000
     17      -9.8122      2.00000
     18      -9.8122      2.00000
     19      -9.7753      2.00000
     20      -9.7753      2.00000
     21      -8.9411      2.00000
     22      -8.7694      2.00000
     23      -8.2147      2.00000
     24      -8.1993      2.00000
     25      -8.0573      2.00000
     26      -7.6424      2.00000
     27      -7.1173      2.00000
     28      -7.1132      2.00000
     29      -2.2228      2.00000
     30      -2.1818      2.00000
     31      -2.0328      2.00000
     32      -2.0095      2.00000
     33      -2.0076      2.00000
     34      -1.9193      2.00000
     35      -1.9137      2.00000
     36      -1.7741      2.00000
     37      -1.7420      2.00000
     38      -1.5437      2.00000
     39      -1.4601      2.00000
     40      -1.4174      2.00000
     41      -1.0573      2.00000
     42      -1.0223      2.00000
     43      -0.1718      2.00000
     44       0.1295      2.00000
     45       0.2853      2.00000
     46       0.4953      2.00000
     47       0.7189      2.00000
     48       0.8630      2.00000
     49       0.9383      2.00000
     50       1.1799      2.00000
     51       1.6669      2.00000
     52       1.7517      2.00000
     53       1.9301      2.00000
     54       1.9377      2.00000
     55       1.9534      2.00000
     56       2.3446      2.00000
     57       2.8387      2.00000
     58       3.1786      2.00000
     59       3.1864      2.00000
     60       3.3400      2.00000
     61       3.4260      2.00000
     62       3.8012      2.00000
     63       5.6353      0.00000
     64       5.8070      0.00000
     65       6.2613      0.00000
     66       6.4364      0.00000
     67       6.9437      0.00000
     68       7.2805      0.00000
     69       7.8561      0.00000
     70       8.5641      0.00000
     71       8.8642      0.00000
     72       8.9258      0.00000
     73       9.4663      0.00000
     74       9.6643      0.00000
     75       9.6779      0.00000
     76       9.8007      0.00000
     77      10.2438      0.00000
     78      10.4884      0.00000
     79      10.6778      0.00000
     80      11.1022      0.00000

 k-point   109 :       0.3889    0.0000    0.3333
  band No.  band energies     occupation 
      1     -11.3711      2.00000
      2     -11.3624      2.00000
      3     -11.0874      2.00000
      4     -11.0834      2.00000
      5     -10.9405      2.00000
      6     -10.9396      2.00000
      7     -10.8925      2.00000
      8     -10.8912      2.00000
      9     -10.8248      2.00000
     10     -10.8246      2.00000
     11     -10.3130      2.00000
     12     -10.3129      2.00000
     13      -9.9200      2.00000
     14      -9.9200      2.00000
     15      -9.8716      2.00000
     16      -9.8716      2.00000
     17      -9.8007      2.00000
     18      -9.8007      2.00000
     19      -9.7644      2.00000
     20      -9.7644      2.00000
     21      -8.7174      2.00000
     22      -8.5689      2.00000
     23      -8.0694      2.00000
     24      -8.0590      2.00000
     25      -7.9290      2.00000
     26      -7.5890      2.00000
     27      -7.0129      2.00000
     28      -7.0121      2.00000
     29      -2.4674      2.00000
     30      -2.2659      2.00000
     31      -2.1325      2.00000
     32      -1.9602      2.00000
     33      -1.9528      2.00000
     34      -1.9323      2.00000
     35      -1.8775      2.00000
     36      -1.7812      2.00000
     37      -1.7566      2.00000
     38      -1.5644      2.00000
     39      -1.4603      2.00000
     40      -1.4063      2.00000
     41      -1.3374      2.00000
     42      -1.3275      2.00000
     43      -0.3101      2.00000
     44      -0.0861      2.00000
     45       0.1209      2.00000
     46       0.3229      2.00000
     47       0.4515      2.00000
     48       0.6849      2.00000
     49       0.8196      2.00000
     50       1.0643      2.00000
     51       1.5840      2.00000
     52       1.7333      2.00000
     53       1.7909      2.00000
     54       1.8023      2.00000
     55       1.8378      2.00000
     56       2.1701      2.00000
     57       2.8629      2.00000
     58       3.0783      2.00000
     59       3.1527      2.00000
     60       3.3080      2.00000
     61       3.3656      2.00000
     62       3.6373      2.00000
     63       5.4959      0.00000
     64       5.7044      0.00000
     65       6.1197      0.00000
     66       6.2938      0.00000
     67       6.8265      0.00000
     68       7.1341      0.00000
     69       7.7369      0.00000
     70       8.4947      0.00000
     71       8.7526      0.00000
     72       8.8565      0.00000
     73       9.4234      0.00000
     74       9.5896      0.00000
     75       9.7130      0.00000
     76       9.7332      0.00000
     77      10.1622      0.00000
     78      10.3374      0.00000
     79      10.6870      0.00000
     80      11.0196      0.00000

 k-point   110 :       0.4444   -0.0000    0.3333
  band No.  band energies     occupation 
      1     -11.3895      2.00000
      2     -11.3825      2.00000
      3     -11.0850      2.00000
      4     -11.0815      2.00000
      5     -10.9365      2.00000
      6     -10.9356      2.00000
      7     -10.8956      2.00000
      8     -10.8943      2.00000
      9     -10.8203      2.00000
     10     -10.8201      2.00000
     11     -10.3389      2.00000
     12     -10.3389      2.00000
     13      -9.9189      2.00000
     14      -9.9189      2.00000
     15      -9.8741      2.00000
     16      -9.8741      2.00000
     17      -9.7930      2.00000
     18      -9.7930      2.00000
     19      -9.7567      2.00000
     20      -9.7567      2.00000
     21      -8.5515      2.00000
     22      -8.4280      2.00000
     23      -7.9715      2.00000
     24      -7.9652      2.00000
     25      -7.8343      2.00000
     26      -7.5627      2.00000
     27      -6.9482      2.00000
     28      -6.9477      2.00000
     29      -2.6444      2.00000
     30      -2.4725      2.00000
     31      -2.0886      2.00000
     32      -1.9488      2.00000
     33      -1.9243      2.00000
     34      -1.8737      2.00000
     35      -1.8591      2.00000
     36      -1.7841      2.00000
     37      -1.7518      2.00000
     38      -1.5959      2.00000
     39      -1.5474      2.00000
     40      -1.5372      2.00000
     41      -1.4598      2.00000
     42      -1.3794      2.00000
     43      -0.5628      2.00000
     44      -0.0787      2.00000
     45       0.0254      2.00000
     46       0.2265      2.00000
     47       0.2815      2.00000
     48       0.6290      2.00000
     49       0.7447      2.00000
     50       0.9909      2.00000
     51       1.5007      2.00000
     52       1.5675      2.00000
     53       1.7028      2.00000
     54       1.7181      2.00000
     55       1.9860      2.00000
     56       2.0585      2.00000
     57       2.8647      2.00000
     58       3.0075      2.00000
     59       3.1237      2.00000
     60       3.2862      2.00000
     61       3.3330      2.00000
     62       3.5124      2.00000
     63       5.4159      0.00000
     64       5.5983      0.00000
     65       6.0280      0.00000
     66       6.1970      0.00000
     67       6.7870      0.00000
     68       7.0221      0.00000
     69       7.6533      0.00000
     70       8.4575      0.00000
     71       8.6446      0.00000
     72       8.7957      0.00000
     73       9.3853      0.00000
     74       9.4709      0.00000
     75       9.6668      0.00000
     76       9.7536      0.00000
     77      10.0903      0.00000
     78      10.2265      0.00000
     79      10.7656      0.00000
     80      10.9483      0.00000

 k-point   111 :       0.5000    0.0000    0.3333
  band No.  band energies     occupation 
      1     -11.3957      2.00000
      2     -11.3896      2.00000
      3     -11.0841      2.00000
      4     -11.0807      2.00000
      5     -10.9352      2.00000
      6     -10.9343      2.00000
      7     -10.8966      2.00000
      8     -10.8953      2.00000
      9     -10.8186      2.00000
     10     -10.8184      2.00000
     11     -10.3477      2.00000
     12     -10.3477      2.00000
     13      -9.9186      2.00000
     14      -9.9185      2.00000
     15      -9.8751      2.00000
     16      -9.8751      2.00000
     17      -9.7903      2.00000
     18      -9.7903      2.00000
     19      -9.7539      2.00000
     20      -9.7539      2.00000
     21      -8.4878      2.00000
     22      -8.3774      2.00000
     23      -7.9385      2.00000
     24      -7.9321      2.00000
     25      -7.7975      2.00000
     26      -7.5567      2.00000
     27      -6.9264      2.00000
     28      -6.9257      2.00000
     29      -2.7068      2.00000
     30      -2.5537      2.00000
     31      -2.0721      2.00000
     32      -1.9557      2.00000
     33      -1.9099      2.00000
     34      -1.8552      2.00000
     35      -1.8260      2.00000
     36      -1.7843      2.00000
     37      -1.7471      2.00000
     38      -1.6323      2.00000
     39      -1.6110      2.00000
     40      -1.5880      2.00000
     41      -1.4595      2.00000
     42      -1.3996      2.00000
     43      -0.6457      2.00000
     44      -0.1463      2.00000
     45       0.0553      2.00000
     46       0.1760      2.00000
     47       0.2466      2.00000
     48       0.6316      2.00000
     49       0.7191      2.00000
     50       0.9658      2.00000
     51       1.4374      2.00000
     52       1.5255      2.00000
     53       1.6719      2.00000
     54       1.6903      2.00000
     55       2.0200      2.00000
     56       2.0576      2.00000
     57       2.8543      2.00000
     58       2.9825      2.00000
     59       3.1125      2.00000
     60       3.2780      2.00000
     61       3.3229      2.00000
     62       3.4673      2.00000
     63       5.3971      0.00000
     64       5.5510      0.00000
     65       5.9879      0.00000
     66       6.1647      0.00000
     67       6.8015      0.00000
     68       6.9629      0.00000
     69       7.6236      0.00000
     70       8.4463      0.00000
     71       8.6032      0.00000
     72       8.7761      0.00000
     73       9.3705      0.00000
     74       9.3920      0.00000
     75       9.6832      0.00000
     76       9.7583      0.00000
     77      10.0681      0.00000
     78      10.1765      0.00000
     79      10.7679      0.00000
     80      10.9805      0.00000

 k-point   112 :      -0.4444    0.0000    0.3333
  band No.  band energies     occupation 
      1     -11.3895      2.00000
      2     -11.3825      2.00000
      3     -11.0850      2.00000
      4     -11.0815      2.00000
      5     -10.9365      2.00000
      6     -10.9356      2.00000
      7     -10.8956      2.00000
      8     -10.8943      2.00000
      9     -10.8203      2.00000
     10     -10.8201      2.00000
     11     -10.3389      2.00000
     12     -10.3389      2.00000
     13      -9.9189      2.00000
     14      -9.9189      2.00000
     15      -9.8741      2.00000
     16      -9.8741      2.00000
     17      -9.7930      2.00000
     18      -9.7930      2.00000
     19      -9.7567      2.00000
     20      -9.7567      2.00000
     21      -8.5515      2.00000
     22      -8.4280      2.00000
     23      -7.9747      2.00000
     24      -7.9618      2.00000
     25      -7.8346      2.00000
     26      -7.5626      2.00000
     27      -6.9482      2.00000
     28      -6.9476      2.00000
     29      -2.6443      2.00000
     30      -2.4725      2.00000
     31      -2.0884      2.00000
     32      -1.9489      2.00000
     33      -1.9243      2.00000
     34      -1.8738      2.00000
     35      -1.8591      2.00000
     36      -1.7841      2.00000
     37      -1.7518      2.00000
     38      -1.5947      2.00000
     39      -1.5569      2.00000
     40      -1.5284      2.00000
     41      -1.4598      2.00000
     42      -1.3801      2.00000
     43      -0.5602      2.00000
     44      -0.1085      2.00000
     45       0.0909      2.00000
     46       0.1620      2.00000
     47       0.3105      2.00000
     48       0.6262      2.00000
     49       0.7447      2.00000
     50       0.9909      2.00000
     51       1.5032      2.00000
     52       1.5634      2.00000
     53       1.7004      2.00000
     54       1.7206      2.00000
     55       1.9892      2.00000
     56       2.0582      2.00000
     57       2.8626      2.00000
     58       3.0079      2.00000
     59       3.1221      2.00000
     60       3.2849      2.00000
     61       3.3341      2.00000
     62       3.5148      2.00000
     63       5.4240      0.00000
     64       5.5961      0.00000
     65       6.0062      0.00000
     66       6.2026      0.00000
     67       6.8171      0.00000
     68       7.0043      0.00000
     69       7.6529      0.00000
     70       8.4523      0.00000
     71       8.6439      0.00000
     72       8.8114      0.00000
     73       9.3849      0.00000
     74       9.3914      0.00000
     75       9.7536      0.00000
     76       9.7543      0.00000
     77      10.1061      0.00000
     78      10.1962      0.00000
     79      10.6991      0.00000
     80      11.0475      0.00000

 k-point   113 :      -0.3889    0.0000    0.3333
  band No.  band energies     occupation 
      1     -11.3711      2.00000
      2     -11.3624      2.00000
      3     -11.0873      2.00000
      4     -11.0835      2.00000
      5     -10.9405      2.00000
      6     -10.9396      2.00000
      7     -10.8926      2.00000
      8     -10.8912      2.00000
      9     -10.8248      2.00000
     10     -10.8246      2.00000
     11     -10.3130      2.00000
     12     -10.3129      2.00000
     13      -9.9200      2.00000
     14      -9.9200      2.00000
     15      -9.8716      2.00000
     16      -9.8716      2.00000
     17      -9.8007      2.00000
     18      -9.8007      2.00000
     19      -9.7644      2.00000
     20      -9.7644      2.00000
     21      -8.7174      2.00000
     22      -8.5689      2.00000
     23      -8.0756      2.00000
     24      -8.0519      2.00000
     25      -7.9301      2.00000
     26      -7.5889      2.00000
     27      -7.0140      2.00000
     28      -7.0110      2.00000
     29      -2.4673      2.00000
     30      -2.2661      2.00000
     31      -2.1323      2.00000
     32      -1.9602      2.00000
     33      -1.9527      2.00000
     34      -1.9324      2.00000
     35      -1.8775      2.00000
     36      -1.7812      2.00000
     37      -1.7566      2.00000
     38      -1.5645      2.00000
     39      -1.4603      2.00000
     40      -1.4026      2.00000
     41      -1.3522      2.00000
     42      -1.3160      2.00000
     43      -0.2968      2.00000
     44      -0.1301      2.00000
     45       0.1786      2.00000
     46       0.3073      2.00000
     47       0.4398      2.00000
     48       0.6841      2.00000
     49       0.8196      2.00000
     50       1.0643      2.00000
     51       1.5828      2.00000
     52       1.7176      2.00000
     53       1.7863      2.00000
     54       1.8071      2.00000
     55       1.8595      2.00000
     56       2.1698      2.00000
     57       2.8540      2.00000
     58       3.0791      2.00000
     59       3.1564      2.00000
     60       3.3056      2.00000
     61       3.3674      2.00000
     62       3.6382      2.00000
     63       5.5074      0.00000
     64       5.7024      0.00000
     65       6.0906      0.00000
     66       6.3012      0.00000
     67       6.8521      0.00000
     68       7.1239      0.00000
     69       7.7367      0.00000
     70       8.4892      0.00000
     71       8.7374      0.00000
     72       8.8932      0.00000
     73       9.4227      0.00000
     74       9.4618      0.00000
     75       9.7343      0.00000
     76       9.8501      0.00000
     77      10.1762      0.00000
     78      10.2994      0.00000
     79      10.6585      0.00000
     80      11.0980      0.00000

 k-point   114 :      -0.3333    0.0000    0.3333
  band No.  band energies     occupation 
      1     -11.3414      2.00000
      2     -11.3312      2.00000
      3     -11.0905      2.00000
      4     -11.0859      2.00000
      5     -10.9477      2.00000
      6     -10.9470      2.00000
      7     -10.8877      2.00000
      8     -10.8862      2.00000
      9     -10.8306      2.00000
     10     -10.8304      2.00000
     11     -10.2714      2.00000
     12     -10.2713      2.00000
     13      -9.9225      2.00000
     14      -9.9225      2.00000
     15      -9.8688      2.00000
     16      -9.8688      2.00000
     17      -9.8122      2.00000
     18      -9.8122      2.00000
     19      -9.7753      2.00000
     20      -9.7753      2.00000
     21      -8.9411      2.00000
     22      -8.7694      2.00000
     23      -8.2223      2.00000
     24      -8.1900      2.00000
     25      -8.0591      2.00000
     26      -7.6422      2.00000
     27      -7.1191      2.00000
     28      -7.1115      2.00000
     29      -2.2231      2.00000
     30      -2.1805      2.00000
     31      -2.0371      2.00000
     32      -2.0076      2.00000
     33      -2.0071      2.00000
     34      -1.9185      2.00000
     35      -1.9137      2.00000
     36      -1.7741      2.00000
     37      -1.7422      2.00000
     38      -1.5439      2.00000
     39      -1.4601      2.00000
     40      -1.4158      2.00000
     41      -1.0632      2.00000
     42      -1.0170      2.00000
     43      -0.1755      2.00000
     44       0.1044      2.00000
     45       0.3396      2.00000
     46       0.5595      2.00000
     47       0.5815      2.00000
     48       0.9102      2.00000
     49       0.9383      2.00000
     50       1.1799      2.00000
     51       1.6709      2.00000
     52       1.7382      2.00000
     53       1.9240      2.00000
     54       1.9442      2.00000
     55       1.9684      2.00000
     56       2.3442      2.00000
     57       2.8244      2.00000
     58       3.1802      2.00000
     59       3.1964      2.00000
     60       3.3366      2.00000
     61       3.4279      2.00000
     62       3.7994      2.00000
     63       5.6452      0.00000
     64       5.8055      0.00000
     65       6.2375      0.00000
     66       6.4457      0.00000
     67       6.9513      0.00000
     68       7.2821      0.00000
     69       7.8565      0.00000
     70       8.5590      0.00000
     71       8.8345      0.00000
     72       8.9754      0.00000
     73       9.4656      0.00000
     74       9.5573      0.00000
     75       9.6790      0.00000
     76       9.9116      0.00000
     77      10.2459      0.00000
     78      10.4638      0.00000
     79      10.6598      0.00000
     80      11.3143      0.00000

 k-point   115 :      -0.2778    0.0000    0.3333
  band No.  band energies     occupation 
      1     -11.3030      2.00000
      2     -11.2929      2.00000
      3     -11.0925      2.00000
      4     -11.0867      2.00000
      5     -10.9583      2.00000
      6     -10.9576      2.00000
      7     -10.8812      2.00000
      8     -10.8797      2.00000
      9     -10.8359      2.00000
     10     -10.8356      2.00000
     11     -10.2170      2.00000
     12     -10.2170      2.00000
     13      -9.9272      2.00000
     14      -9.9272      2.00000
     15      -9.8693      2.00000
     16      -9.8693      2.00000
     17      -9.8235      2.00000
     18      -9.8235      2.00000
     19      -9.7870      2.00000
     20      -9.7869      2.00000
     21      -9.1861      2.00000
     22      -8.9953      2.00000
     23      -8.3878      2.00000
     24      -8.3519      2.00000
     25      -8.2016      2.00000
     26      -7.7172      2.00000
     27      -7.2532      2.00000
     28      -7.2393      2.00000
     29      -2.2192      2.00000
     30      -2.0619      2.00000
     31      -2.0596      2.00000
     32      -1.9862      2.00000
     33      -1.9615      2.00000
     34      -1.9191      2.00000
     35      -1.8691      2.00000
     36      -1.7641      2.00000
     37      -1.7085      2.00000
     38      -1.5300      2.00000
     39      -1.4593      2.00000
     40      -1.4573      2.00000
     41      -0.7120      2.00000
     42      -0.6111      2.00000
     43      -0.0920      2.00000
     44       0.4466      2.00000
     45       0.6015      2.00000
     46       0.7403      2.00000
     47       0.9239      2.00000
     48       1.0913      2.00000
     49       1.2041      2.00000
     50       1.3273      2.00000
     51       1.8336      2.00000
     52       1.8528      2.00000
     53       2.1040      2.00000
     54       2.1229      2.00000
     55       2.1788      2.00000
     56       2.5651      2.00000
     57       2.7972      2.00000
     58       3.2323      2.00000
     59       3.2798      2.00000
     60       3.3723      2.00000
     61       3.5291      2.00000
     62       3.9565      2.00000
     63       5.7852      0.00000
     64       5.8270      0.00000
     65       6.4368      0.00000
     66       6.6269      0.00000
     67       7.1259      0.00000
     68       7.4762      0.00000
     69       7.9695      0.00000
     70       8.6145      0.00000
     71       8.8541      0.00000
     72       8.9781      0.00000
     73       9.4815      0.00000
     74       9.5650      0.00000
     75       9.5873      0.00000
     76       9.8484      0.00000
     77      10.1612      0.00000
     78      10.6045      0.00000
     79      10.7543      0.00000
     80      10.9259      0.00000

 k-point   116 :      -0.2222    0.0000    0.3333
  band No.  band energies     occupation 
      1     -11.2617      2.00000
      2     -11.2539      2.00000
      3     -11.0895      2.00000
      4     -11.0820      2.00000
      5     -10.9714      2.00000
      6     -10.9708      2.00000
      7     -10.8736      2.00000
      8     -10.8719      2.00000
      9     -10.8396      2.00000
     10     -10.8393      2.00000
     11     -10.1546      2.00000
     12     -10.1544      2.00000
     13      -9.9343      2.00000
     14      -9.9342      2.00000
     15      -9.8794      2.00000
     16      -9.8793      2.00000
     17      -9.8281      2.00000
     18      -9.8280      2.00000
     19      -9.7971      2.00000
     20      -9.7971      2.00000
     21      -9.4260      2.00000
     22      -9.2191      2.00000
     23      -8.5475      2.00000
     24      -8.5120      2.00000
     25      -8.3406      2.00000
     26      -7.8034      2.00000
     27      -7.4008      2.00000
     28      -7.3789      2.00000
     29      -2.2351      2.00000
     30      -2.1106      2.00000
     31      -2.0927      2.00000
     32      -2.0121      2.00000
     33      -1.9156      2.00000
     34      -1.8620      2.00000
     35      -1.8258      2.00000
     36      -1.7528      2.00000
     37      -1.6638      2.00000
     38      -1.5242      2.00000
     39      -1.5000      2.00000
     40      -1.4585      2.00000
     41      -0.3333      2.00000
     42      -0.1671      2.00000
     43       0.1392      2.00000
     44       0.5573      2.00000
     45       0.7677      2.00000
     46       1.2648      2.00000
     47       1.2689      2.00000
     48       1.3293      2.00000
     49       1.4916      2.00000
     50       1.5455      2.00000
     51       2.0860      2.00000
     52       2.2037      2.00000
     53       2.3136      2.00000
     54       2.3302      2.00000
     55       2.4022      2.00000
     56       2.7873      2.00000
     57       2.8109      2.00000
     58       3.2790      2.00000
     59       3.3485      2.00000
     60       3.4051      2.00000
     61       3.6750      2.00000
     62       4.0780      2.00000
     63       5.6958      0.00000
     64       5.8346      0.00000
     65       6.6716      0.00000
     66       6.8128      0.00000
     67       7.3574      0.00000
     68       7.6950      0.00000
     69       7.9900      0.00000
     70       8.5104      0.00000
     71       8.7609      0.00000
     72       8.8554      0.00000
     73       9.3747      0.00000
     74       9.3844      0.00000
     75       9.4342      0.00000
     76       9.7407      0.00000
     77       9.7935      0.00000
     78      10.5100      0.00000
     79      10.7757      0.00000
     80      10.8274      0.00000

 k-point   117 :      -0.1667   -0.0000    0.3333
  band No.  band energies     occupation 
      1     -11.2272      2.00000
      2     -11.2233      2.00000
      3     -11.0748      2.00000
      4     -11.0664      2.00000
      5     -10.9849      2.00000
      6     -10.9844      2.00000
      7     -10.8650      2.00000
      8     -10.8632      2.00000
      9     -10.8416      2.00000
     10     -10.8413      2.00000
     11     -10.0904      2.00000
     12     -10.0900      2.00000
     13      -9.9430      2.00000
     14      -9.9430      2.00000
     15      -9.8986      2.00000
     16      -9.8982      2.00000
     17      -9.8256      2.00000
     18      -9.8252      2.00000
     19      -9.8043      2.00000
     20      -9.8043      2.00000
     21      -9.6410      2.00000
     22      -9.4203      2.00000
     23      -8.6838      2.00000
     24      -8.6503      2.00000
     25      -8.4619      2.00000
     26      -7.8890      2.00000
     27      -7.5439      2.00000
     28      -7.5120      2.00000
     29      -2.2365      2.00000
     30      -2.1555      2.00000
     31      -2.1114      2.00000
     32      -2.0583      2.00000
     33      -1.9619      2.00000
     34      -1.8489      2.00000
     35      -1.7853      2.00000
     36      -1.7418      2.00000
     37      -1.6184      2.00000
     38      -1.5628      2.00000
     39      -1.5020      2.00000
     40      -1.4583      2.00000
     41      -0.0151      2.00000
     42       0.0964      2.00000
     43       0.5057      2.00000
     44       0.6123      2.00000
     45       1.0911      2.00000
     46       1.4404      2.00000
     47       1.6538      2.00000
     48       1.7136      2.00000
     49       1.8752      2.00000
     50       1.9829      2.00000
     51       2.4348      2.00000
     52       2.5356      2.00000
     53       2.5434      2.00000
     54       2.5491      2.00000
     55       2.7143      2.00000
     56       2.8256      2.00000
     57       3.0524      2.00000
     58       3.3790      2.00000
     59       3.3823      2.00000
     60       3.4282      2.00000
     61       3.8385      2.00000
     62       4.1418      2.00000
     63       5.4135      0.00000
     64       5.7340      0.00000
     65       6.8114      0.00000
     66       6.8508      0.00000
     67       7.6409      0.00000
     68       7.7956      0.00000
     69       7.9116      0.00000
     70       8.2505      0.00000
     71       8.6069      0.00000
     72       8.6222      0.00000
     73       9.0018      0.00000
     74       9.1627      0.00000
     75       9.3113      0.00000
     76       9.3120      0.00000
     77       9.9306      0.00000
     78      10.1671      0.00000
     79      10.4087      0.00000
     80      10.5045      0.00000

 k-point   118 :      -0.1111    0.0000    0.3333
  band No.  band energies     occupation 
      1     -11.2077      2.00000
      2     -11.2068      2.00000
      3     -11.0469      2.00000
      4     -11.0408      2.00000
      5     -10.9966      2.00000
      6     -10.9961      2.00000
      7     -10.8555      2.00000
      8     -10.8541      2.00000
      9     -10.8425      2.00000
     10     -10.8422      2.00000
     11     -10.0323      2.00000
     12     -10.0316      2.00000
     13      -9.9515      2.00000
     14      -9.9515      2.00000
     15      -9.9227      2.00000
     16      -9.9198      2.00000
     17      -9.8285      2.00000
     18      -9.8196      2.00000
     19      -9.8087      2.00000
     20      -9.8087      2.00000
     21      -9.8053      2.00000
     22      -9.5818      2.00000
     23      -8.7859      2.00000
     24      -8.7546      2.00000
     25      -8.5553      2.00000
     26      -7.9629      2.00000
     27      -7.6644      2.00000
     28      -7.6206      2.00000
     29      -2.2304      2.00000
     30      -2.1907      2.00000
     31      -2.1211      2.00000
     32      -2.0946      2.00000
     33      -2.0314      2.00000
     34      -1.8379      2.00000
     35      -1.7767      2.00000
     36      -1.7325      2.00000
     37      -1.6160      2.00000
     38      -1.5833      2.00000
     39      -1.4872      2.00000
     40      -1.4586      2.00000
     41       0.0458      2.00000
     42       0.2365      2.00000
     43       0.6141      2.00000
     44       1.1816      2.00000
     45       1.3974      2.00000
     46       1.5949      2.00000
     47       1.7919      2.00000
     48       2.0804      2.00000
     49       2.3830      2.00000
     50       2.4409      2.00000
     51       2.7309      2.00000
     52       2.7480      2.00000
     53       2.7576      2.00000
     54       2.8744      2.00000
     55       2.9670      2.00000
     56       3.0455      2.00000
     57       3.2440      2.00000
     58       3.3822      2.00000
     59       3.4472      2.00000
     60       3.6200      2.00000
     61       3.9848      2.00000
     62       4.1235      2.00000
     63       5.0480      0.00000
     64       5.5160      0.00000
     65       6.5982      0.00000
     66       6.7020      0.00000
     67       7.3678      0.00000
     68       7.9005      0.00000
     69       7.9858      0.00000
     70       8.0868      0.00000
     71       8.3043      0.00000
     72       8.4000      0.00000
     73       8.9283      0.00000
     74       8.9508      0.00000
     75       9.1527      0.00000
     76       9.1639      0.00000
     77       9.9178      0.00000
     78      10.0864      0.00000
     79      10.1873      0.00000
     80      10.2320      0.00000

 k-point   119 :      -0.0556    0.0000    0.3333
  band No.  band energies     occupation 
      1     -11.2006      2.00000
      2     -11.2003      2.00000
      3     -11.0186      2.00000
      4     -11.0169      2.00000
      5     -11.0045      2.00000
      6     -11.0041      2.00000
      7     -10.8466      2.00000
      8     -10.8461      2.00000
      9     -10.8427      2.00000
     10     -10.8425      2.00000
     11      -9.9873      2.00000
     12      -9.9870      2.00000
     13      -9.9599      2.00000
     14      -9.9577      2.00000
     15      -9.9577      2.00000
     16      -9.9400      2.00000
     17      -9.9168      2.00000
     18      -9.8142      2.00000
     19      -9.8132      2.00000
     20      -9.8108      2.00000
     21      -9.8108      2.00000
     22      -9.6887      2.00000
     23      -8.8484      2.00000
     24      -8.8183      2.00000
     25      -8.6139      2.00000
     26      -8.0139      2.00000
     27      -7.7453      2.00000
     28      -7.6909      2.00000
     29      -2.2235      2.00000
     30      -2.2130      2.00000
     31      -2.1250      2.00000
     32      -2.1176      2.00000
     33      -2.0841      2.00000
     34      -1.8426      2.00000
     35      -1.7547      2.00000
     36      -1.7263      2.00000
     37      -1.6662      2.00000
     38      -1.5680      2.00000
     39      -1.4682      2.00000
     40      -1.4590      2.00000
     41       0.0116      2.00000
     42       0.2595      2.00000
     43       0.7792      2.00000
     44       1.6255      2.00000
     45       1.6993      2.00000
     46       1.7028      2.00000
     47       1.8847      2.00000
     48       2.2476      2.00000
     49       2.7094      2.00000
     50       2.8113      2.00000
     51       2.9137      2.00000
     52       2.9199      2.00000
     53       2.9248      2.00000
     54       3.1931      2.00000
     55       3.2353      2.00000
     56       3.3107      2.00000
     57       3.3113      2.00000
     58       3.3535      2.00000
     59       3.5010      2.00000
     60       3.9474      2.00000
     61       3.9982      2.00000
     62       4.0854      2.00000
     63       4.7273      0.00000
     64       5.2835      0.00000
     65       6.2610      0.00000
     66       6.4729      0.00000
     67       6.9324      0.00000
     68       7.5828      0.00000
     69       7.8094      0.00000
     70       7.8542      0.00000
     71       8.5142      0.00000
     72       8.5993      0.00000
     73       8.8003      0.00000
     74       8.9906      0.00000
     75       9.0214      0.00000
     76       9.1856      0.00000
     77       9.8777      0.00000
     78       9.9179      0.00000
     79       9.9501      0.00000
     80       9.9881      0.00000

 k-point   120 :       0.0556    0.0556    0.3333
  band No.  band energies     occupation 
      1     -11.2048      2.00000
      2     -11.2044      2.00000
      3     -11.0385      2.00000
      4     -11.0335      2.00000
      5     -10.9992      2.00000
      6     -10.9988      2.00000
      7     -10.8529      2.00000
      8     -10.8517      2.00000
      9     -10.8426      2.00000
     10     -10.8424      2.00000
     11     -10.0175      2.00000
     12     -10.0170      2.00000
     13      -9.9569      2.00000
     14      -9.9560      2.00000
     15      -9.9281      2.00000
     16      -9.9240      2.00000
     17      -9.8539      2.00000
     18      -9.8180      2.00000
     19      -9.8143      2.00000
     20      -9.8095      2.00000
     21      -9.8094      2.00000
     22      -9.6164      2.00000
     23      -8.8062      2.00000
     24      -8.7761      2.00000
     25      -8.5745      2.00000
     26      -7.9793      2.00000
     27      -7.6905      2.00000
     28      -7.6438      2.00000
     29      -2.2284      2.00000
     30      -2.1981      2.00000
     31      -2.1225      2.00000
     32      -2.1022      2.00000
     33      -2.0482      2.00000
     34      -1.8373      2.00000
     35      -1.7733      2.00000
     36      -1.7308      2.00000
     37      -1.6294      2.00000
     38      -1.5774      2.00000
     39      -1.4823      2.00000
     40      -1.4586      2.00000
     41       0.0388      2.00000
     42       0.2486      2.00000
     43       0.6653      2.00000
     44       1.3417      2.00000
     45       1.4561      2.00000
     46       1.6312      2.00000
     47       1.8149      2.00000
     48       2.1678      2.00000
     49       2.5380      2.00000
     50       2.5653      2.00000
     51       2.6811      2.00000
     52       2.6895      2.00000
     53       2.8352      2.00000
     54       3.0229      2.00000
     55       3.1543      2.00000
     56       3.1576      2.00000
     57       3.2841      2.00000
     58       3.3057      2.00000
     59       3.4144      2.00000
     60       3.7216      2.00000
     61       4.0043      2.00000
     62       4.1032      2.00000
     63       4.9549      0.00000
     64       5.4511      0.00000
     65       6.5080      0.00000
     66       6.6431      0.00000
     67       7.2461      0.00000
     68       7.8153      0.00000
     69       8.0180      0.00000
     70       8.0689      0.00000
     71       8.3267      0.00000
     72       8.3427      0.00000
     73       8.8997      0.00000
     74       8.9617      0.00000
     75       9.0118      0.00000
     76       9.2555      0.00000
     77       9.8776      0.00000
     78      10.0193      0.00000
     79      10.0993      0.00000
     80      10.1614      0.00000

 k-point   121 :       0.1111    0.0556    0.3333
  band No.  band energies     occupation 
      1     -11.2183      2.00000
      2     -11.2157      2.00000
      3     -11.0661      2.00000
      4     -11.0580      2.00000
      5     -10.9896      2.00000
      6     -10.9891      2.00000
      7     -10.8614      2.00000
      8     -10.8597      2.00000
      9     -10.8422      2.00000
     10     -10.8420      2.00000
     11     -10.0658      2.00000
     12     -10.0655      2.00000
     13      -9.9528      2.00000
     14      -9.9524      2.00000
     15      -9.9031      2.00000
     16      -9.9026      2.00000
     17      -9.8242      2.00000
     18      -9.8234      2.00000
     19      -9.8062      2.00000
     20      -9.8062      2.00000
     21      -9.7074      2.00000
     22      -9.4826      2.00000
     23      -8.7222      2.00000
     24      -8.6931      2.00000
     25      -8.4981      2.00000
     26      -7.9173      2.00000
     27      -7.5897      2.00000
     28      -7.5546      2.00000
     29      -2.2349      2.00000
     30      -2.1696      2.00000
     31      -2.1152      2.00000
     32      -2.0724      2.00000
     33      -1.9867      2.00000
     34      -1.8424      2.00000
     35      -1.7819      2.00000
     36      -1.7394      2.00000
     37      -1.6046      2.00000
     38      -1.5792      2.00000
     39      -1.4989      2.00000
     40      -1.4580      2.00000
     41       0.0411      2.00000
     42       0.1534      2.00000
     43       0.5333      2.00000
     44       0.8345      2.00000
     45       1.1846      2.00000
     46       1.4821      2.00000
     47       1.6858      2.00000
     48       1.9167      2.00000
     49       2.1340      2.00000
     50       2.1682      2.00000
     51       2.3304      2.00000
     52       2.4146      2.00000
     53       2.6365      2.00000
     54       2.8233      2.00000
     55       2.9592      2.00000
     56       2.9975      2.00000
     57       3.1231      2.00000
     58       3.2994      2.00000
     59       3.3310      2.00000
     60       3.4780      2.00000
     61       3.8601      2.00000
     62       4.1560      2.00000
     63       5.3028      0.00000
     64       5.6782      0.00000
     65       6.7986      0.00000
     66       6.8361      0.00000
     67       7.6943      0.00000
     68       7.8560      0.00000
     69       8.0089      0.00000
     70       8.1562      0.00000
     71       8.4760      0.00000
     72       8.5432      0.00000
     73       8.7998      0.00000
     74       8.9422      0.00000
     75       9.2123      0.00000
     76       9.3933      0.00000
     77      10.0039      0.00000
     78      10.0613      0.00000
     79      10.1977      0.00000
     80      10.4029      0.00000

 k-point   122 :       0.1667    0.0556    0.3333
  band No.  band energies     occupation 
      1     -11.2461      2.00000
      2     -11.2398      2.00000
      3     -11.0856      2.00000
      4     -11.0775      2.00000
      5     -10.9772      2.00000
      6     -10.9766      2.00000
      7     -10.8698      2.00000
      8     -10.8681      2.00000
      9     -10.8410      2.00000
     10     -10.8408      2.00000
     11     -10.1248      2.00000
     12     -10.1247      2.00000
     13      -9.9465      2.00000
     14      -9.9464      2.00000
     15      -9.8821      2.00000
     16      -9.8820      2.00000
     17      -9.8282      2.00000
     18      -9.8280      2.00000
     19      -9.8002      2.00000
     20      -9.8002      2.00000
     21      -9.5142      2.00000
     22      -9.3016      2.00000
     23      -8.5998      2.00000
     24      -8.5730      2.00000
     25      -8.3900      2.00000
     26      -7.8381      2.00000
     27      -7.4579      2.00000
     28      -7.4345      2.00000
     29      -2.2372      2.00000
     30      -2.1304      2.00000
     31      -2.1001      2.00000
     32      -2.0305      2.00000
     33      -1.9277      2.00000
     34      -1.8508      2.00000
     35      -1.8043      2.00000
     36      -1.7507      2.00000
     37      -1.6439      2.00000
     38      -1.5326      2.00000
     39      -1.5091      2.00000
     40      -1.4573      2.00000
     41      -0.1512      2.00000
     42      -0.0658      2.00000
     43       0.3156      2.00000
     44       0.5600      2.00000
     45       0.8742      2.00000
     46       1.2943      2.00000
     47       1.4849      2.00000
     48       1.5172      2.00000
     49       1.6261      2.00000
     50       1.7046      2.00000
     51       2.0282      2.00000
     52       2.2030      2.00000
     53       2.3258      2.00000
     54       2.6319      2.00000
     55       2.7060      2.00000
     56       2.7991      2.00000
     57       2.8962      2.00000
     58       3.2390      2.00000
     59       3.3173      2.00000
     60       3.3781      2.00000
     61       3.6862      2.00000
     62       4.1281      2.00000
     63       5.6344      0.00000
     64       5.8463      0.00000
     65       6.8127      0.00000
     66       6.9092      0.00000
     67       7.5423      0.00000
     68       7.8317      0.00000
     69       8.0424      0.00000
     70       8.4423      0.00000
     71       8.6901      0.00000
     72       8.8225      0.00000
     73       8.9669      0.00000
     74       9.1345      0.00000
     75       9.4805      0.00000
     76       9.6064      0.00000
     77       9.8355      0.00000
     78      10.3062      0.00000
     79      10.3889      0.00000
     80      10.6913      0.00000

 k-point   123 :       0.2222    0.0556    0.3333
  band No.  band energies     occupation 
      1     -11.2848      2.00000
      2     -11.2753      2.00000
      3     -11.0925      2.00000
      4     -11.0860      2.00000
      5     -10.9643      2.00000
      6     -10.9637      2.00000
      7     -10.8774      2.00000
      8     -10.8759      2.00000
      9     -10.8385      2.00000
     10     -10.8382      2.00000
     11     -10.1865      2.00000
     12     -10.1865      2.00000
     13      -9.9399      2.00000
     14      -9.9399      2.00000
     15      -9.8679      2.00000
     16      -9.8679      2.00000
     17      -9.8281      2.00000
     18      -9.8281      2.00000
     19      -9.7912      2.00000
     20      -9.7912      2.00000
     21      -9.2870      2.00000
     22      -9.0890      2.00000
     23      -8.4475      2.00000
     24      -8.4244      2.00000
     25      -8.2587      2.00000
     26      -7.7527      2.00000
     27      -7.3130      2.00000
     28      -7.2993      2.00000
     29      -2.2282      2.00000
     30      -2.0872      2.00000
     31      -2.0709      2.00000
     32      -1.9807      2.00000
     33      -1.9250      2.00000
     34      -1.8872      2.00000
     35      -1.8515      2.00000
     36      -1.7631      2.00000
     37      -1.6888      2.00000
     38      -1.5247      2.00000
     39      -1.4832      2.00000
     40      -1.4539      2.00000
     41      -0.5280      2.00000
     42      -0.4069      2.00000
     43      -0.0091      2.00000
     44       0.5362      2.00000
     45       0.6627      2.00000
     46       0.9494      2.00000
     47       1.0909      2.00000
     48       1.2138      2.00000
     49       1.2604      2.00000
     50       1.3572      2.00000
     51       1.7911      2.00000
     52       1.9753      2.00000
     53       2.0235      2.00000
     54       2.3549      2.00000
     55       2.4296      2.00000
     56       2.5973      2.00000
     57       2.8260      2.00000
     58       3.1545      2.00000
     59       3.2929      2.00000
     60       3.3476      2.00000
     61       3.5143      2.00000
     62       4.0362      2.00000
     63       5.8496      0.00000
     64       5.8882      0.00000
     65       6.6131      0.00000
     66       6.7661      0.00000
     67       7.3073      0.00000
     68       7.6338      0.00000
     69       8.1387      0.00000
     70       8.6678      0.00000
     71       8.8678      0.00000
     72       8.9666      0.00000
     73       9.1579      0.00000
     74       9.3456      0.00000
     75       9.6793      0.00000
     76       9.8221      0.00000
     77       9.9872      0.00000
     78      10.5918      0.00000
     79      10.7300      0.00000
     80      10.8174      0.00000

 k-point   124 :       0.2778    0.0556    0.3333
  band No.  band energies     occupation 
      1     -11.3246      2.00000
      2     -11.3142      2.00000
      3     -11.0919      2.00000
      4     -11.0869      2.00000
      5     -10.9530      2.00000
      6     -10.9523      2.00000
      7     -10.8841      2.00000
      8     -10.8826      2.00000
      9     -10.8342      2.00000
     10     -10.8339      2.00000
     11     -10.2436      2.00000
     12     -10.2435      2.00000
     13      -9.9348      2.00000
     14      -9.9348      2.00000
     15      -9.8643      2.00000
     16      -9.8643      2.00000
     17      -9.8197      2.00000
     18      -9.8197      2.00000
     19      -9.7804      2.00000
     20      -9.7804      2.00000
     21      -9.0441      2.00000
     22      -8.8635      2.00000
     23      -8.2802      2.00000
     24      -8.2623      2.00000
     25      -8.1167      2.00000
     26      -7.6723      2.00000
     27      -7.1734      2.00000
     28      -7.1668      2.00000
     29      -2.2019      2.00000
     30      -2.1007      2.00000
     31      -2.0424      2.00000
     32      -2.0235      2.00000
     33      -1.9421      2.00000
     34      -1.9293      2.00000
     35      -1.9065      2.00000
     36      -1.7748      2.00000
     37      -1.7284      2.00000
     38      -1.5356      2.00000
     39      -1.4662      2.00000
     40      -1.4283      2.00000
     41      -0.8904      2.00000
     42      -0.8348      2.00000
     43      -0.1499      2.00000
     44       0.3056      2.00000
     45       0.4336      2.00000
     46       0.5840      2.00000
     47       0.8513      2.00000
     48       0.8862      2.00000
     49       1.0205      2.00000
     50       1.1812      2.00000
     51       1.6026      2.00000
     52       1.7696      2.00000
     53       1.8584      2.00000
     54       2.1085      2.00000
     55       2.1850      2.00000
     56       2.3507      2.00000
     57       2.8425      2.00000
     58       3.0619      2.00000
     59       3.2550      2.00000
     60       3.3158      2.00000
     61       3.3846      2.00000
     62       3.8970      2.00000
     63       5.7894      0.00000
     64       5.9234      0.00000
     65       6.4014      0.00000
     66       6.5739      0.00000
     67       7.1019      0.00000
     68       7.4332      0.00000
     69       8.0709      0.00000
     70       8.7025      0.00000
     71       8.9652      0.00000
     72       8.9905      0.00000
     73       9.2397      0.00000
     74       9.4725      0.00000
     75       9.7008      0.00000
     76       9.9194      0.00000
     77      10.2454      0.00000
     78      10.5626      0.00000
     79      10.8019      0.00000
     80      10.9035      0.00000

 k-point   125 :       0.3333    0.0556    0.3333
  band No.  band energies     occupation 
      1     -11.3582      2.00000
      2     -11.3487      2.00000
      3     -11.0888      2.00000
      4     -11.0847      2.00000
      5     -10.9446      2.00000
      6     -10.9438      2.00000
      7     -10.8894      2.00000
      8     -10.8881      2.00000
      9     -10.8288      2.00000
     10     -10.8285      2.00000
     11     -10.2905      2.00000
     12     -10.2905      2.00000
     13      -9.9315      2.00000
     14      -9.9315      2.00000
     15      -9.8667      2.00000
     16      -9.8667      2.00000
     17      -9.8076      2.00000
     18      -9.8076      2.00000
     19      -9.7698      2.00000
     20      -9.7698      2.00000
     21      -8.8081      2.00000
     22      -8.6487      2.00000
     23      -8.1203      2.00000
     24      -8.1081      2.00000
     25      -7.9802      2.00000
     26      -7.6086      2.00000
     27      -7.0558      2.00000
     28      -7.0537      2.00000
     29      -2.3451      2.00000
     30      -2.1579      2.00000
     31      -2.1384      2.00000
     32      -1.9924      2.00000
     33      -1.9726      2.00000
     34      -1.9233      2.00000
     35      -1.8830      2.00000
     36      -1.7832      2.00000
     37      -1.7539      2.00000
     38      -1.5516      2.00000
     39      -1.4653      2.00000
     40      -1.3956      2.00000
     41      -1.2089      2.00000
     42      -1.1894      2.00000
     43      -0.1855      2.00000
     44      -0.0501      2.00000
     45       0.2062      2.00000
     46       0.4029      2.00000
     47       0.5612      2.00000
     48       0.6716      2.00000
     49       0.8757      2.00000
     50       1.0391      2.00000
     51       1.5039      2.00000
     52       1.6707      2.00000
     53       1.7980      2.00000
     54       1.9202      2.00000
     55       1.9753      2.00000
     56       2.1405      2.00000
     57       2.8574      2.00000
     58       2.9650      2.00000
     59       3.2072      2.00000
     60       3.2601      2.00000
     61       3.3363      2.00000
     62       3.7334      2.00000
     63       5.6510      0.00000
     64       5.8602      0.00000
     65       6.2398      0.00000
     66       6.4176      0.00000
     67       6.9483      0.00000
     68       7.2668      0.00000
     69       7.9544      0.00000
     70       8.6278      0.00000
     71       8.8750      0.00000
     72       8.9569      0.00000
     73       9.2990      0.00000
     74       9.5273      0.00000
     75       9.6639      0.00000
     76       9.8422      0.00000
     77      10.2310      0.00000
     78      10.4362      0.00000
     79      10.8181      0.00000
     80      10.9910      0.00000

 k-point   126 :       0.3889    0.0556    0.3333
  band No.  band energies     occupation 
      1     -11.3818      2.00000
      2     -11.3740      2.00000
      3     -11.0859      2.00000
      4     -11.0823      2.00000
      5     -10.9394      2.00000
      6     -10.9385      2.00000
      7     -10.8931      2.00000
      8     -10.8918      2.00000
      9     -10.8237      2.00000
     10     -10.8235      2.00000
     11     -10.3236      2.00000
     12     -10.3236      2.00000
     13      -9.9299      2.00000
     14      -9.9299      2.00000
     15      -9.8698      2.00000
     16      -9.8698      2.00000
     17      -9.7972      2.00000
     18      -9.7972      2.00000
     19      -9.7617      2.00000
     20      -9.7617      2.00000
     21      -8.6099      2.00000
     22      -8.4759      2.00000
     23      -7.9950      2.00000
     24      -7.9877      2.00000
     25      -7.8671      2.00000
     26      -7.5701      2.00000
     27      -6.9729      2.00000
     28      -6.9728      2.00000
     29      -2.5587      2.00000
     30      -2.3729      2.00000
     31      -2.1030      2.00000
     32      -1.9479      2.00000
     33      -1.9328      2.00000
     34      -1.9191      2.00000
     35      -1.8459      2.00000
     36      -1.7865      2.00000
     37      -1.7588      2.00000
     38      -1.5741      2.00000
     39      -1.4719      2.00000
     40      -1.4638      2.00000
     41      -1.4470      2.00000
     42      -1.3623      2.00000
     43      -0.4415      2.00000
     44      -0.0603      2.00000
     45       0.0471      2.00000
     46       0.2741      2.00000
     47       0.3508      2.00000
     48       0.5309      2.00000
     49       0.7900      2.00000
     50       0.9347      2.00000
     51       1.4569      2.00000
     52       1.5635      2.00000
     53       1.7112      2.00000
     54       1.7723      2.00000
     55       1.9876      2.00000
     56       1.9959      2.00000
     57       2.8505      2.00000
     58       2.8849      2.00000
     59       3.1570      2.00000
     60       3.2316      2.00000
     61       3.3152      2.00000
     62       3.5827      2.00000
     63       5.5435      0.00000
     64       5.7499      0.00000
     65       6.1282      0.00000
     66       6.3038      0.00000
     67       6.8683      0.00000
     68       7.1368      0.00000
     69       7.8528      0.00000
     70       8.5735      0.00000
     71       8.7394      0.00000
     72       8.8900      0.00000
     73       9.3273      0.00000
     74       9.5370      0.00000
     75       9.5685      0.00000
     76       9.7537      0.00000
     77      10.1681      0.00000
     78      10.3304      0.00000
     79      10.8345      0.00000
     80      10.9870      0.00000

 k-point   127 :       0.4444    0.0556    0.3333
  band No.  band energies     occupation 
      1     -11.3938      2.00000
      2     -11.3875      2.00000
      3     -11.0842      2.00000
      4     -11.0809      2.00000
      5     -10.9370      2.00000
      6     -10.9361      2.00000
      7     -10.8951      2.00000
      8     -10.8938      2.00000
      9     -10.8206      2.00000
     10     -10.8204      2.00000
     11     -10.3407      2.00000
     12     -10.3406      2.00000
     13      -9.9292      2.00000
     14      -9.9292      2.00000
     15      -9.8717      2.00000
     16      -9.8717      2.00000
     17      -9.7915      2.00000
     18      -9.7915      2.00000
     19      -9.7573      2.00000
     20      -9.7573      2.00000
     21      -8.4909      2.00000
     22      -8.3790      2.00000
     23      -7.9278      2.00000
     24      -7.9227      2.00000
     25      -7.7986      2.00000
     26      -7.5564      2.00000
     27      -6.9312      2.00000
     28      -6.9305      2.00000
     29      -2.6778      2.00000
     30      -2.5223      2.00000
     31      -2.0698      2.00000
     32      -1.9508      2.00000
     33      -1.9104      2.00000
     34      -1.8851      2.00000
     35      -1.8071      2.00000
     36      -1.7851      2.00000
     37      -1.7509      2.00000
     38      -1.6141      2.00000
     39      -1.5850      2.00000
     40      -1.5724      2.00000
     41      -1.4672      2.00000
     42      -1.3876      2.00000
     43      -0.6102      2.00000
     44      -0.1177      2.00000
     45       0.0421      2.00000
     46       0.2032      2.00000
     47       0.2493      2.00000
     48       0.4832      2.00000
     49       0.7650      2.00000
     50       0.8800      2.00000
     51       1.4361      2.00000
     52       1.4870      2.00000
     53       1.6126      2.00000
     54       1.6829      2.00000
     55       1.9089      2.00000
     56       2.1061      2.00000
     57       2.8272      2.00000
     58       2.8385      2.00000
     59       3.1296      2.00000
     60       3.2224      2.00000
     61       3.3028      2.00000
     62       3.4919      2.00000
     63       5.4962      0.00000
     64       5.6680      0.00000
     65       6.0648      0.00000
     66       6.2433      0.00000
     67       6.8569      0.00000
     68       7.0483      0.00000
     69       7.7961      0.00000
     70       8.5496      0.00000
     71       8.6626      0.00000
     72       8.8373      0.00000
     73       9.3367      0.00000
     74       9.4405      0.00000
     75       9.5768      0.00000
     76       9.7198      0.00000
     77      10.1355      0.00000
     78      10.2626      0.00000
     79      10.8238      0.00000
     80      11.0130      0.00000

 k-point   128 :       0.5000    0.0556    0.3333
  band No.  band energies     occupation 
      1     -11.3938      2.00000
      2     -11.3875      2.00000
      3     -11.0842      2.00000
      4     -11.0809      2.00000
      5     -10.9370      2.00000
      6     -10.9361      2.00000
      7     -10.8951      2.00000
      8     -10.8938      2.00000
      9     -10.8206      2.00000
     10     -10.8204      2.00000
     11     -10.3407      2.00000
     12     -10.3406      2.00000
     13      -9.9292      2.00000
     14      -9.9292      2.00000
     15      -9.8717      2.00000
     16      -9.8717      2.00000
     17      -9.7915      2.00000
     18      -9.7915      2.00000
     19      -9.7573      2.00000
     20      -9.7573      2.00000
     21      -8.4909      2.00000
     22      -8.3790      2.00000
     23      -7.9294      2.00000
     24      -7.9210      2.00000
     25      -7.7987      2.00000
     26      -7.5564      2.00000
     27      -6.9312      2.00000
     28      -6.9306      2.00000
     29      -2.6778      2.00000
     30      -2.5223      2.00000
     31      -2.0697      2.00000
     32      -1.9509      2.00000
     33      -1.9104      2.00000
     34      -1.8851      2.00000
     35      -1.8071      2.00000
     36      -1.7851      2.00000
     37      -1.7508      2.00000
     38      -1.6114      2.00000
     39      -1.5943      2.00000
     40      -1.5653      2.00000
     41      -1.4672      2.00000
     42      -1.3881      2.00000
     43      -0.6092      2.00000
     44      -0.1291      2.00000
     45       0.0792      2.00000
     46       0.1538      2.00000
     47       0.2732      2.00000
     48       0.4828      2.00000
     49       0.7631      2.00000
     50       0.8803      2.00000
     51       1.4313      2.00000
     52       1.4994      2.00000
     53       1.6164      2.00000
     54       1.6704      2.00000
     55       1.9088      2.00000
     56       2.1088      2.00000
     57       2.8242      2.00000
     58       2.8394      2.00000
     59       3.1334      2.00000
     60       3.2192      2.00000
     61       3.3026      2.00000
     62       3.4931      2.00000
     63       5.4994      0.00000
     64       5.6677      0.00000
     65       6.0532      0.00000
     66       6.2467      0.00000
     67       6.8769      0.00000
     68       7.0343      0.00000
     69       7.7958      0.00000
     70       8.5393      0.00000
     71       8.6806      0.00000
     72       8.8334      0.00000
     73       9.3381      0.00000
     74       9.3956      0.00000
     75       9.5915      0.00000
     76       9.7533      0.00000
     77      10.1507      0.00000
     78      10.2411      0.00000
     79      10.7876      0.00000
     80      11.0435      0.00000

 k-point   129 :      -0.4444    0.0556    0.3333
  band No.  band energies     occupation 
      1     -11.3818      2.00000
      2     -11.3740      2.00000
      3     -11.0859      2.00000
      4     -11.0823      2.00000
      5     -10.9394      2.00000
      6     -10.9385      2.00000
      7     -10.8931      2.00000
      8     -10.8918      2.00000
      9     -10.8237      2.00000
     10     -10.8235      2.00000
     11     -10.3236      2.00000
     12     -10.3236      2.00000
     13      -9.9299      2.00000
     14      -9.9299      2.00000
     15      -9.8698      2.00000
     16      -9.8698      2.00000
     17      -9.7972      2.00000
     18      -9.7972      2.00000
     19      -9.7617      2.00000
     20      -9.7617      2.00000
     21      -8.6099      2.00000
     22      -8.4758      2.00000
     23      -7.9998      2.00000
     24      -7.9824      2.00000
     25      -7.8678      2.00000
     26      -7.5700      2.00000
     27      -6.9735      2.00000
     28      -6.9722      2.00000
     29      -2.5587      2.00000
     30      -2.3730      2.00000
     31      -2.1028      2.00000
     32      -1.9479      2.00000
     33      -1.9328      2.00000
     34      -1.9192      2.00000
     35      -1.8459      2.00000
     36      -1.7865      2.00000
     37      -1.7588      2.00000
     38      -1.5740      2.00000
     39      -1.4737      2.00000
     40      -1.4637      2.00000
     41      -1.4454      2.00000
     42      -1.3623      2.00000
     43      -0.4367      2.00000
     44      -0.1018      2.00000
     45       0.1206      2.00000
     46       0.2179      2.00000
     47       0.3745      2.00000
     48       0.5303      2.00000
     49       0.7832      2.00000
     50       0.9351      2.00000
     51       1.4610      2.00000
     52       1.5814      2.00000
     53       1.6903      2.00000
     54       1.7614      2.00000
     55       1.9879      2.00000
     56       2.0114      2.00000
     57       2.8371      2.00000
     58       2.8919      2.00000
     59       3.1661      2.00000
     60       3.2255      2.00000
     61       3.3136      2.00000
     62       3.5848      2.00000
     63       5.5515      0.00000
     64       5.7498      0.00000
     65       6.1020      0.00000
     66       6.3106      0.00000
     67       6.9001      0.00000
     68       7.1186      0.00000
     69       7.8524      0.00000
     70       8.5609      0.00000
     71       8.7624      0.00000
     72       8.8902      0.00000
     73       9.3242      0.00000
     74       9.4341      0.00000
     75       9.5975      0.00000
     76       9.8419      0.00000
     77      10.1894      0.00000
     78      10.2954      0.00000
     79      10.7675      0.00000
     80      11.0388      0.00000

 k-point   130 :      -0.3889    0.0556    0.3333
  band No.  band energies     occupation 
      1     -11.3582      2.00000
      2     -11.3487      2.00000
      3     -11.0888      2.00000
      4     -11.0847      2.00000
      5     -10.9446      2.00000
      6     -10.9438      2.00000
      7     -10.8894      2.00000
      8     -10.8881      2.00000
      9     -10.8288      2.00000
     10     -10.8285      2.00000
     11     -10.2905      2.00000
     12     -10.2905      2.00000
     13      -9.9315      2.00000
     14      -9.9315      2.00000
     15      -9.8667      2.00000
     16      -9.8667      2.00000
     17      -9.8076      2.00000
     18      -9.8076      2.00000
     19      -9.7698      2.00000
     20      -9.7698      2.00000
     21      -8.8081      2.00000
     22      -8.6487      2.00000
     23      -8.1274      2.00000
     24      -8.0997      2.00000
     25      -7.9817      2.00000
     26      -7.6084      2.00000
     27      -7.0572      2.00000
     28      -7.0524      2.00000
     29      -2.3449      2.00000
     30      -2.1574      2.00000
     31      -2.1393      2.00000
     32      -1.9922      2.00000
     33      -1.9726      2.00000
     34      -1.9232      2.00000
     35      -1.8830      2.00000
     36      -1.7832      2.00000
     37      -1.7540      2.00000
     38      -1.5517      2.00000
     39      -1.4653      2.00000
     40      -1.3942      2.00000
     41      -1.2170      2.00000
     42      -1.1821      2.00000
     43      -0.1657      2.00000
     44      -0.0956      2.00000
     45       0.2546      2.00000
     46       0.4258      2.00000
     47       0.4956      2.00000
     48       0.6924      2.00000
     49       0.8689      2.00000
     50       1.0404      2.00000
     51       1.5203      2.00000
     52       1.6824      2.00000
     53       1.7398      2.00000
     54       1.9569      2.00000
     55       1.9799      2.00000
     56       2.1391      2.00000
     57       2.8361      2.00000
     58       2.9779      2.00000
     59       3.2130      2.00000
     60       3.2578      2.00000
     61       3.3351      2.00000
     62       3.7335      2.00000
     63       5.6602      0.00000
     64       5.8600      0.00000
     65       6.2147      0.00000
     66       6.4247      0.00000
     67       6.9664      0.00000
     68       7.2602      0.00000
     69       7.9542      0.00000
     70       8.6220      0.00000
     71       8.8659      0.00000
     72       8.9858      0.00000
     73       9.3011      0.00000
     74       9.4880      0.00000
     75       9.6077      0.00000
     76       9.9440      0.00000
     77      10.2338      0.00000
     78      10.4230      0.00000
     79      10.7767      0.00000
     80      11.0473      0.00000

 k-point   131 :      -0.3333    0.0556    0.3333
  band No.  band energies     occupation 
      1     -11.3246      2.00000
      2     -11.3142      2.00000
      3     -11.0919      2.00000
      4     -11.0869      2.00000
      5     -10.9530      2.00000
      6     -10.9523      2.00000
      7     -10.8841      2.00000
      8     -10.8826      2.00000
      9     -10.8342      2.00000
     10     -10.8339      2.00000
     11     -10.2436      2.00000
     12     -10.2436      2.00000
     13      -9.9348      2.00000
     14      -9.9348      2.00000
     15      -9.8643      2.00000
     16      -9.8643      2.00000
     17      -9.8197      2.00000
     18      -9.8197      2.00000
     19      -9.7804      2.00000
     20      -9.7804      2.00000
     21      -9.0441      2.00000
     22      -8.8634      2.00000
     23      -8.2872      2.00000
     24      -8.2536      2.00000
     25      -8.1185      2.00000
     26      -7.6721      2.00000
     27      -7.1751      2.00000
     28      -7.1651      2.00000
     29      -2.2021      2.00000
     30      -2.0978      2.00000
     31      -2.0446      2.00000
     32      -2.0241      2.00000
     33      -1.9460      2.00000
     34      -1.9293      2.00000
     35      -1.9025      2.00000
     36      -1.7748      2.00000
     37      -1.7287      2.00000
     38      -1.5358      2.00000
     39      -1.4661      2.00000
     40      -1.4268      2.00000
     41      -0.8955      2.00000
     42      -0.8308      2.00000
     43      -0.1546      2.00000
     44       0.3013      2.00000
     45       0.4622      2.00000
     46       0.6196      2.00000
     47       0.7362      2.00000
     48       0.9002      2.00000
     49       1.0634      2.00000
     50       1.1886      2.00000
     51       1.6119      2.00000
     52       1.7406      2.00000
     53       1.8689      2.00000
     54       2.1139      2.00000
     55       2.1916      2.00000
     56       2.3485      2.00000
     57       2.8246      2.00000
     58       3.0743      2.00000
     59       3.2550      2.00000
     60       3.3171      2.00000
     61       3.3847      2.00000
     62       3.8954      2.00000
     63       5.7960      0.00000
     64       5.9223      0.00000
     65       6.3857      0.00000
     66       6.5819      0.00000
     67       7.1020      0.00000
     68       7.4378      0.00000
     69       8.0711      0.00000
     70       8.6994      0.00000
     71       8.9194      0.00000
     72       9.0549      0.00000
     73       9.2416      0.00000
     74       9.4594      0.00000
     75       9.6449      0.00000
     76       9.9798      0.00000
     77      10.2404      0.00000
     78      10.5452      0.00000
     79      10.8185      0.00000
     80      10.9367      0.00000

 k-point   132 :      -0.2778    0.0556    0.3333
  band No.  band energies     occupation 
      1     -11.2848      2.00000
      2     -11.2753      2.00000
      3     -11.0925      2.00000
      4     -11.0860      2.00000
      5     -10.9643      2.00000
      6     -10.9637      2.00000
      7     -10.8774      2.00000
      8     -10.8759      2.00000
      9     -10.8385      2.00000
     10     -10.8382      2.00000
     11     -10.1865      2.00000
     12     -10.1864      2.00000
     13      -9.9399      2.00000
     14      -9.9399      2.00000
     15      -9.8679      2.00000
     16      -9.8679      2.00000
     17      -9.8281      2.00000
     18      -9.8281      2.00000
     19      -9.7912      2.00000
     20      -9.7912      2.00000
     21      -9.2870      2.00000
     22      -9.0890      2.00000
     23      -8.4528      2.00000
     24      -8.4178      2.00000
     25      -8.2601      2.00000
     26      -7.7524      2.00000
     27      -7.3146      2.00000
     28      -7.2978      2.00000
     29      -2.2282      2.00000
     30      -2.0871      2.00000
     31      -2.0708      2.00000
     32      -1.9807      2.00000
     33      -1.9149      2.00000
     34      -1.9037      2.00000
     35      -1.8455      2.00000
     36      -1.7631      2.00000
     37      -1.6890      2.00000
     38      -1.5245      2.00000
     39      -1.4826      2.00000
     40      -1.4537      2.00000
     41      -0.5357      2.00000
     42      -0.4001      2.00000
     43      -0.0075      2.00000
     44       0.5550      2.00000
     45       0.6357      2.00000
     46       0.9833      2.00000
     47       1.0929      2.00000
     48       1.1105      2.00000
     49       1.3210      2.00000
     50       1.3869      2.00000
     51       1.7724      2.00000
     52       1.9518      2.00000
     53       2.0563      2.00000
     54       2.3390      2.00000
     55       2.4419      2.00000
     56       2.5958      2.00000
     57       2.8196      2.00000
     58       3.1578      2.00000
     59       3.2936      2.00000
     60       3.3495      2.00000
     61       3.5140      2.00000
     62       4.0350      2.00000
     63       5.8524      0.00000
     64       5.8867      0.00000
     65       6.6066      0.00000
     66       6.7724      0.00000
     67       7.3018      0.00000
     68       7.6396      0.00000
     69       8.1383      0.00000
     70       8.6679      0.00000
     71       8.8526      0.00000
     72       8.9934      0.00000
     73       9.1508      0.00000
     74       9.3444      0.00000
     75       9.6613      0.00000
     76       9.8237      0.00000
     77       9.9960      0.00000
     78      10.5974      0.00000
     79      10.7318      0.00000
     80      10.8375      0.00000

 k-point   133 :      -0.2222    0.0556    0.3333
  band No.  band energies     occupation 
      1     -11.2461      2.00000
      2     -11.2398      2.00000
      3     -11.0856      2.00000
      4     -11.0775      2.00000
      5     -10.9772      2.00000
      6     -10.9767      2.00000
      7     -10.8698      2.00000
      8     -10.8681      2.00000
      9     -10.8410      2.00000
     10     -10.8408      2.00000
     11     -10.1249      2.00000
     12     -10.1246      2.00000
     13      -9.9465      2.00000
     14      -9.9464      2.00000
     15      -9.8821      2.00000
     16      -9.8820      2.00000
     17      -9.8282      2.00000
     18      -9.8280      2.00000
     19      -9.8002      2.00000
     20      -9.8002      2.00000
     21      -9.5142      2.00000
     22      -9.3016      2.00000
     23      -8.6029      2.00000
     24      -8.5692      2.00000
     25      -8.3907      2.00000
     26      -7.8379      2.00000
     27      -7.4589      2.00000
     28      -7.4336      2.00000
     29      -2.2372      2.00000
     30      -2.1304      2.00000
     31      -2.1002      2.00000
     32      -2.0305      2.00000
     33      -1.9266      2.00000
     34      -1.8539      2.00000
     35      -1.8022      2.00000
     36      -1.7507      2.00000
     37      -1.6435      2.00000
     38      -1.5340      2.00000
     39      -1.5079      2.00000
     40      -1.4572      2.00000
     41      -0.1712      2.00000
     42      -0.0382      2.00000
     43       0.3164      2.00000
     44       0.5362      2.00000
     45       0.8940      2.00000
     46       1.2952      2.00000
     47       1.5027      2.00000
     48       1.5246      2.00000
     49       1.5647      2.00000
     50       1.7343      2.00000
     51       2.0286      2.00000
     52       2.1983      2.00000
     53       2.3418      2.00000
     54       2.6060      2.00000
     55       2.7184      2.00000
     56       2.8054      2.00000
     57       2.8937      2.00000
     58       3.2313      2.00000
     59       3.3220      2.00000
     60       3.3804      2.00000
     61       3.6858      2.00000
     62       4.1286      2.00000
     63       5.6345      0.00000
     64       5.8454      0.00000
     65       6.8146      0.00000
     66       6.9085      0.00000
     67       7.5432      0.00000
     68       7.8293      0.00000
     69       8.0416      0.00000
     70       8.4387      0.00000
     71       8.7227      0.00000
     72       8.7847      0.00000
     73       8.9815      0.00000
     74       9.1329      0.00000
     75       9.4807      0.00000
     76       9.6069      0.00000
     77       9.8317      0.00000
     78      10.2525      0.00000
     79      10.4656      0.00000
     80      10.6860      0.00000

 k-point   134 :      -0.1667    0.0556    0.3333
  band No.  band energies     occupation 
      1     -11.2183      2.00000
      2     -11.2157      2.00000
      3     -11.0661      2.00000
      4     -11.0580      2.00000
      5     -10.9896      2.00000
      6     -10.9891      2.00000
      7     -10.8614      2.00000
      8     -10.8597      2.00000
      9     -10.8422      2.00000
     10     -10.8420      2.00000
     11     -10.0659      2.00000
     12     -10.0654      2.00000
     13      -9.9528      2.00000
     14      -9.9524      2.00000
     15      -9.9031      2.00000
     16      -9.9026      2.00000
     17      -9.8242      2.00000
     18      -9.8234      2.00000
     19      -9.8062      2.00000
     20      -9.8062      2.00000
     21      -9.7074      2.00000
     22      -9.4826      2.00000
     23      -8.7233      2.00000
     24      -8.6918      2.00000
     25      -8.4984      2.00000
     26      -7.9171      2.00000
     27      -7.5900      2.00000
     28      -7.5543      2.00000
     29      -2.2349      2.00000
     30      -2.1696      2.00000
     31      -2.1153      2.00000
     32      -2.0724      2.00000
     33      -1.9865      2.00000
     34      -1.8432      2.00000
     35      -1.7810      2.00000
     36      -1.7394      2.00000
     37      -1.6028      2.00000
     38      -1.5817      2.00000
     39      -1.4984      2.00000
     40      -1.4580      2.00000
     41       0.0357      2.00000
     42       0.1635      2.00000
     43       0.5249      2.00000
     44       0.8336      2.00000
     45       1.1945      2.00000
     46       1.4824      2.00000
     47       1.6859      2.00000
     48       1.9030      2.00000
     49       2.1103      2.00000
     50       2.1878      2.00000
     51       2.3558      2.00000
     52       2.4047      2.00000
     53       2.6461      2.00000
     54       2.8091      2.00000
     55       2.9595      2.00000
     56       2.9986      2.00000
     57       3.1222      2.00000
     58       3.2890      2.00000
     59       3.3409      2.00000
     60       3.4781      2.00000
     61       3.8600      2.00000
     62       4.1578      2.00000
     63       5.3018      0.00000
     64       5.6780      0.00000
     65       6.8042      0.00000
     66       6.8316      0.00000
     67       7.6939      0.00000
     68       7.8574      0.00000
     69       8.0063      0.00000
     70       8.1533      0.00000
     71       8.4889      0.00000
     72       8.5318      0.00000
     73       8.8042      0.00000
     74       8.9418      0.00000
     75       9.2114      0.00000
     76       9.3956      0.00000
     77       9.9706      0.00000
     78      10.0926      0.00000
     79      10.1952      0.00000
     80      10.4633      0.00000

 k-point   135 :       0.1111    0.1111    0.3333
  band No.  band energies     occupation 
      1     -11.2407      2.00000
      2     -11.2349      2.00000
      3     -11.0837      2.00000
      4     -11.0754      2.00000
      5     -10.9796      2.00000
      6     -10.9790      2.00000
      7     -10.8681      2.00000
      8     -10.8664      2.00000
      9     -10.8418      2.00000
     10     -10.8416      2.00000
     11     -10.1111      2.00000
     12     -10.1109      2.00000
     13      -9.9565      2.00000
     14      -9.9563      2.00000
     15      -9.8813      2.00000
     16      -9.8812      2.00000
     17      -9.8283      2.00000
     18      -9.8281      2.00000
     19      -9.8012      2.00000
     20      -9.8012      2.00000
     21      -9.5443      2.00000
     22      -9.3297      2.00000
     23      -8.6198      2.00000
     24      -8.5896      2.00000
     25      -8.4075      2.00000
     26      -7.8502      2.00000
     27      -7.4791      2.00000
     28      -7.4532      2.00000
     29      -2.2375      2.00000
     30      -2.1377      2.00000
     31      -2.1020      2.00000
     32      -2.0365      2.00000
     33      -1.9329      2.00000
     34      -1.8503      2.00000
     35      -1.7952      2.00000
     36      -1.7514      2.00000
     37      -1.6353      2.00000
     38      -1.5399      2.00000
     39      -1.5093      2.00000
     40      -1.4564      2.00000
     41      -0.0946      2.00000
     42      -0.0209      2.00000
     43       0.4113      2.00000
     44       0.5406      2.00000
     45       0.9281      2.00000
     46       1.2856      2.00000
     47       1.5061      2.00000
     48       1.6683      2.00000
     49       1.6986      2.00000
     50       1.8484      2.00000
     51       1.8750      2.00000
     52       2.0864      2.00000
     53       2.3828      2.00000
     54       2.7557      2.00000
     55       2.8255      2.00000
     56       2.9934      2.00000
     57       3.0127      2.00000
     58       3.0758      2.00000
     59       3.1408      2.00000
     60       3.4028      2.00000
     61       3.6522      2.00000
     62       4.1530      2.00000
     63       5.6247      0.00000
     64       5.8598      0.00000
     65       6.9023      0.00000
     66       6.9677      0.00000
     67       7.7757      0.00000
     68       7.8044      0.00000
     69       8.1146      0.00000
     70       8.4296      0.00000
     71       8.6800      0.00000
     72       8.7185      0.00000
     73       8.8748      0.00000
     74       8.9139      0.00000
     75       9.4859      0.00000
     76       9.5174      0.00000
     77       9.9288      0.00000
     78      10.0953      0.00000
     79      10.2500      0.00000
     80      10.5167      0.00000

 k-point   136 :       0.1667    0.1111    0.3333
  band No.  band energies     occupation 
      1     -11.2741      2.00000
      2     -11.2652      2.00000
      3     -11.0922      2.00000
      4     -11.0854      2.00000
      5     -10.9685      2.00000
      6     -10.9678      2.00000
      7     -10.8745      2.00000
      8     -10.8730      2.00000
      9     -10.8405      2.00000
     10     -10.8403      2.00000
     11     -10.1631      2.00000
     12     -10.1630      2.00000
     13      -9.9581      2.00000
     14      -9.9580      2.00000
     15      -9.8639      2.00000
     16      -9.8639      2.00000
     17      -9.8316      2.00000
     18      -9.8316      2.00000
     19      -9.7931      2.00000
     20      -9.7931      2.00000
     21      -9.3392      2.00000
     22      -9.1374      2.00000
     23      -8.4809      2.00000
     24      -8.4539      2.00000
     25      -8.2893      2.00000
     26      -7.7719      2.00000
     27      -7.3475      2.00000
     28      -7.3309      2.00000
     29      -2.2319      2.00000
     30      -2.1011      2.00000
     31      -2.0750      2.00000
     32      -1.9895      2.00000
     33      -1.9112      2.00000
     34      -1.8608      2.00000
     35      -1.8400      2.00000
     36      -1.7663      2.00000
     37      -1.6760      2.00000
     38      -1.5195      2.00000
     39      -1.4994      2.00000
     40      -1.4509      2.00000
     41      -0.4060      2.00000
     42      -0.2783      2.00000
     43       0.0654      2.00000
     44       0.6105      2.00000
     45       0.6543      2.00000
     46       1.0440      2.00000
     47       1.1699      2.00000
     48       1.2789      2.00000
     49       1.3734      2.00000
     50       1.4316      2.00000
     51       1.5702      2.00000
     52       1.8922      2.00000
     53       2.0837      2.00000
     54       2.5403      2.00000
     55       2.6399      2.00000
     56       2.7029      2.00000
     57       2.8950      2.00000
     58       3.0054      2.00000
     59       3.0791      2.00000
     60       3.3749      2.00000
     61       3.4274      2.00000
     62       4.0906      2.00000
     63       5.9118      0.00000
     64       5.9813      0.00000
     65       6.8128      0.00000
     66       6.9282      0.00000
     67       7.5838      0.00000
     68       7.7821      0.00000
     69       8.4238      0.00000
     70       8.5957      0.00000
     71       8.6630      0.00000
     72       8.9171      0.00000
     73       9.1583      0.00000
     74       9.2225      0.00000
     75       9.6194      0.00000
     76       9.7381      0.00000
     77       9.8130      0.00000
     78      10.2100      0.00000
     79      10.5050      0.00000
     80      10.8778      0.00000

 k-point   137 :       0.2222    0.1111    0.3333
  band No.  band energies     occupation 
      1     -11.3116      2.00000
      2     -11.3013      2.00000
      3     -11.0931      2.00000
      4     -11.0878      2.00000
      5     -10.9581      2.00000
      6     -10.9574      2.00000
      7     -10.8802      2.00000
      8     -10.8788      2.00000
      9     -10.8379      2.00000
     10     -10.8377      2.00000
     11     -10.2154      2.00000
     12     -10.2153      2.00000
     13      -9.9581      2.00000
     14      -9.9581      2.00000
     15      -9.8557      2.00000
     16      -9.8557      2.00000
     17      -9.8288      2.00000
     18      -9.8288      2.00000
     19      -9.7831      2.00000
     20      -9.7831      2.00000
     21      -9.1088      2.00000
     22      -8.9225      2.00000
     23      -8.3182      2.00000
     24      -8.2966      2.00000
     25      -8.1541      2.00000
     26      -7.6929      2.00000
     27      -7.2130      2.00000
     28      -7.2039      2.00000
     29      -2.2114      2.00000
     30      -2.0651      2.00000
     31      -2.0324      2.00000
     32      -2.0090      2.00000
     33      -1.9362      2.00000
     34      -1.9100      2.00000
     35      -1.8765      2.00000
     36      -1.7812      2.00000
     37      -1.7165      2.00000
     38      -1.5291      2.00000
     39      -1.4785      2.00000
     40      -1.4287      2.00000
     41      -0.7431      2.00000
     42      -0.6661      2.00000
     43      -0.1173      2.00000
     44       0.4127      2.00000
     45       0.6113      2.00000
     46       0.6581      2.00000
     47       0.7885      2.00000
     48       0.9750      2.00000
     49       1.0952      2.00000
     50       1.1284      2.00000
     51       1.3981      2.00000
     52       1.7445      2.00000
     53       1.8554      2.00000
     54       2.2400      2.00000
     55       2.3782      2.00000
     56       2.4061      2.00000
     57       2.8370      2.00000
     58       2.9205      2.00000
     59       3.0754      2.00000
     60       3.2291      2.00000
     61       3.3730      2.00000
     62       3.9766      2.00000
     63       5.9898      0.00000
     64       6.0965      0.00000
     65       6.6196      0.00000
     66       6.7600      0.00000
     67       7.3996      0.00000
     68       7.6783      0.00000
     69       8.4962      0.00000
     70       8.7038      0.00000
     71       8.8460      0.00000
     72       9.0516      0.00000
     73       9.2194      0.00000
     74       9.4425      0.00000
     75       9.6227      0.00000
     76       9.9488      0.00000
     77      10.0649      0.00000
     78      10.4625      0.00000
     79      10.6113      0.00000
     80      10.8072      0.00000

 k-point   138 :       0.2778    0.1111    0.3333
  band No.  band energies     occupation 
      1     -11.3459      2.00000
      2     -11.3359      2.00000
      3     -11.0903      2.00000
      4     -11.0862      2.00000
      5     -10.9499      2.00000
      6     -10.9491      2.00000
      7     -10.8849      2.00000
      8     -10.8836      2.00000
      9     -10.8340      2.00000
     10     -10.8337      2.00000
     11     -10.2619      2.00000
     12     -10.2619      2.00000
     13      -9.9578      2.00000
     14      -9.9578      2.00000
     15      -9.8569      2.00000
     16      -9.8569      2.00000
     17      -9.8181      2.00000
     18      -9.8181      2.00000
     19      -9.7740      2.00000
     20      -9.7740      2.00000
     21      -8.8730      2.00000
     22      -8.7059      2.00000
     23      -8.1503      2.00000
     24      -8.1358      2.00000
     25      -8.0160      2.00000
     26      -7.6245      2.00000
     27      -7.0924      2.00000
     28      -7.0887      2.00000
     29      -2.2262      2.00000
     30      -2.1696      2.00000
     31      -2.0369      2.00000
     32      -2.0151      2.00000
     33      -1.9821      2.00000
     34      -1.9099      2.00000
     35      -1.8824      2.00000
     36      -1.7926      2.00000
     37      -1.7496      2.00000
     38      -1.5404      2.00000
     39      -1.4757      2.00000
     40      -1.3932      2.00000
     41      -1.0646      2.00000
     42      -1.0339      2.00000
     43      -0.1782      2.00000
     44       0.1431      2.00000
     45       0.2800      2.00000
     46       0.4776      2.00000
     47       0.5623      2.00000
     48       0.6630      2.00000
     49       0.8891      2.00000
     50       0.9598      2.00000
     51       1.3035      2.00000
     52       1.5742      2.00000
     53       1.8192      2.00000
     54       1.9738      2.00000
     55       2.1144      2.00000
     56       2.1502      2.00000
     57       2.7481      2.00000
     58       2.8554      2.00000
     59       3.0717      2.00000
     60       3.1000      2.00000
     61       3.3741      2.00000
     62       3.8254      2.00000
     63       5.9179      0.00000
     64       6.1325      0.00000
     65       6.4307      0.00000
     66       6.5943      0.00000
     67       7.2361      0.00000
     68       7.5201      0.00000
     69       8.4341      0.00000
     70       8.8298      0.00000
     71       8.8915      0.00000
     72       9.0218      0.00000
     73       9.1987      0.00000
     74       9.5145      0.00000
     75       9.6662      0.00000
     76       9.9623      0.00000
     77      10.2571      0.00000
     78      10.4865      0.00000
     79      10.7467      0.00000
     80      11.0686      0.00000

 k-point   139 :       0.3333    0.1111    0.3333
  band No.  band energies     occupation 
      1     -11.3724      2.00000
      2     -11.3640      2.00000
      3     -11.0868      2.00000
      4     -11.0834      2.00000
      5     -10.9445      2.00000
      6     -10.9436      2.00000
      7     -10.8885      2.00000
      8     -10.8873      2.00000
      9     -10.8295      2.00000
     10     -10.8293      2.00000
     11     -10.2981      2.00000
     12     -10.2981      2.00000
     13      -9.9577      2.00000
     14      -9.9576      2.00000
     15      -9.8604      2.00000
     16      -9.8604      2.00000
     17      -9.8056      2.00000
     18      -9.8056      2.00000
     19      -9.7676      2.00000
     20      -9.7676      2.00000
     21      -8.6577      2.00000
     22      -8.5150      2.00000
     23      -8.0026      2.00000
     24      -7.9947      2.00000
     25      -7.8922      2.00000
     26      -7.5773      2.00000
     27      -6.9998      2.00000
     28      -6.9992      2.00000
     29      -2.4436      2.00000
     30      -2.2511      2.00000
     31      -2.1150      2.00000
     32      -1.9735      2.00000
     33      -1.9363      2.00000
     34      -1.9165      2.00000
     35      -1.8362      2.00000
     36      -1.7948      2.00000
     37      -1.7676      2.00000
     38      -1.5537      2.00000
     39      -1.4779      2.00000
     40      -1.3836      2.00000
     41      -1.3295      2.00000
     42      -1.3184      2.00000
     43      -0.2665      2.00000
     44      -0.1019      2.00000
     45       0.1294      2.00000
     46       0.3116      2.00000
     47       0.3856      2.00000
     48       0.4194      2.00000
     49       0.7512      2.00000
     50       0.8386      2.00000
     51       1.2723      2.00000
     52       1.4475      2.00000
     53       1.7443      2.00000
     54       1.8146      2.00000
     55       1.8944      2.00000
     56       2.0514      2.00000
     57       2.6432      2.00000
     58       2.7984      2.00000
     59       2.9863      2.00000
     60       3.1187      2.00000
     61       3.3697      2.00000
     62       3.6633      2.00000
     63       5.8202      0.00000
     64       6.0540      0.00000
     65       6.3006      0.00000
     66       6.4755      0.00000
     67       7.1239      0.00000
     68       7.3737      0.00000
     69       8.3404      0.00000
     70       8.8132      0.00000
     71       8.8575      0.00000
     72       9.0113      0.00000
     73       9.1672      0.00000
     74       9.4830      0.00000
     75       9.6479      0.00000
     76       9.8903      0.00000
     77      10.2610      0.00000
     78      10.4629      0.00000
     79      10.9035      0.00000
     80      11.0080      0.00000

 k-point   140 :       0.3889    0.1111    0.3333
  band No.  band energies     occupation 
      1     -11.3888      2.00000
      2     -11.3823      2.00000
      3     -11.0843      2.00000
      4     -11.0812      2.00000
      5     -10.9415      2.00000
      6     -10.9406      2.00000
      7     -10.8907      2.00000
      8     -10.8895      2.00000
      9     -10.8260      2.00000
     10     -10.8258      2.00000
     11     -10.3210      2.00000
     12     -10.3209      2.00000
     13      -9.9577      2.00000
     14      -9.9577      2.00000
     15      -9.8632      2.00000
     16      -9.8632      2.00000
     17      -9.7958      2.00000
     18      -9.7958      2.00000
     19      -9.7647      2.00000
     20      -9.7647      2.00000
     21      -8.4982      2.00000
     22      -8.3828      2.00000
     23      -7.9024      2.00000
     24      -7.8982      2.00000
     25      -7.8008      2.00000
     26      -7.5557      2.00000
     27      -6.9436      2.00000
     28      -6.9430      2.00000
     29      -2.5994      2.00000
     30      -2.4388      2.00000
     31      -2.0653      2.00000
     32      -1.9469      2.00000
     33      -1.9140      2.00000
     34      -1.9035      2.00000
     35      -1.8077      2.00000
     36      -1.7795      2.00000
     37      -1.7637      2.00000
     38      -1.5702      2.00000
     39      -1.5248      2.00000
     40      -1.5192      2.00000
     41      -1.4803      2.00000
     42      -1.3621      2.00000
     43      -0.5036      2.00000
     44      -0.0626      2.00000
     45       0.0096      2.00000
     46       0.2261      2.00000
     47       0.2534      2.00000
     48       0.2786      2.00000
     49       0.6787      2.00000
     50       0.7669      2.00000
     51       1.2924      2.00000
     52       1.4120      2.00000
     53       1.5843      2.00000
     54       1.6529      2.00000
     55       1.7315      2.00000
     56       2.1647      2.00000
     57       2.5776      2.00000
     58       2.7360      2.00000
     59       2.9352      2.00000
     60       3.1434      2.00000
     61       3.3563      2.00000
     62       3.5350      2.00000
     63       5.7524      0.00000
     64       5.9530      0.00000
     65       6.2195      0.00000
     66       6.4093      0.00000
     67       7.0748      0.00000
     68       7.2649      0.00000
     69       8.2673      0.00000
     70       8.7268      0.00000
     71       8.8095      0.00000
     72       9.0131      0.00000
     73       9.2098      0.00000
     74       9.4245      0.00000
     75       9.5582      0.00000
     76       9.8549      0.00000
     77      10.2482      0.00000
     78      10.4156      0.00000
     79      10.8836      0.00000
     80      11.1562      0.00000

 k-point   141 :       0.4444    0.1111    0.3333
  band No.  band energies     occupation 
      1     -11.3942      2.00000
      2     -11.3887      2.00000
      3     -11.0834      2.00000
      4     -11.0804      2.00000
      5     -10.9406      2.00000
      6     -10.9396      2.00000
      7     -10.8914      2.00000
      8     -10.8903      2.00000
      9     -10.8246      2.00000
     10     -10.8244      2.00000
     11     -10.3288      2.00000
     12     -10.3287      2.00000
     13      -9.9578      2.00000
     14      -9.9578      2.00000
     15      -9.8642      2.00000
     16      -9.8642      2.00000
     17      -9.7919      2.00000
     18      -9.7919      2.00000
     19      -9.7641      2.00000
     20      -9.7641      2.00000
     21      -8.4370      2.00000
     22      -8.3361      2.00000
     23      -7.8684      2.00000
     24      -7.8633      2.00000
     25      -7.7649      2.00000
     26      -7.5519      2.00000
     27      -6.9249      2.00000
     28      -6.9241      2.00000
     29      -2.6540      2.00000
     30      -2.5128      2.00000
     31      -2.0458      2.00000
     32      -1.9459      2.00000
     33      -1.9025      2.00000
     34      -1.8961      2.00000
     35      -1.8020      2.00000
     36      -1.7584      2.00000
     37      -1.7577      2.00000
     38      -1.6068      2.00000
     39      -1.5896      2.00000
     40      -1.5424      2.00000
     41      -1.4870      2.00000
     42      -1.3833      2.00000
     43      -0.5828      2.00000
     44      -0.1206      2.00000
     45       0.0594      2.00000
     46       0.1633      2.00000
     47       0.2009      2.00000
     48       0.2512      2.00000
     49       0.6556      2.00000
     50       0.7444      2.00000
     51       1.3485      2.00000
     52       1.4042      2.00000
     53       1.5015      2.00000
     54       1.5938      2.00000
     55       1.6446      2.00000
     56       2.2285      2.00000
     57       2.5668      2.00000
     58       2.6936      2.00000
     59       2.9237      2.00000
     60       3.1496      2.00000
     61       3.3484      2.00000
     62       3.4869      2.00000
     63       5.7312      0.00000
     64       5.9106      0.00000
     65       6.1842      0.00000
     66       6.3906      0.00000
     67       7.0777      0.00000
     68       7.2123      0.00000
     69       8.2404      0.00000
     70       8.6684      0.00000
     71       8.8389      0.00000
     72       8.9660      0.00000
     73       9.3020      0.00000
     74       9.3408      0.00000
     75       9.5079      0.00000
     76       9.8671      0.00000
     77      10.2675      0.00000
     78      10.3661      0.00000
     79      10.8679      0.00000
     80      11.0877      0.00000

 k-point   142 :       0.5000    0.1111    0.3333
  band No.  band energies     occupation 
      1     -11.3888      2.00000
      2     -11.3823      2.00000
      3     -11.0843      2.00000
      4     -11.0812      2.00000
      5     -10.9415      2.00000
      6     -10.9406      2.00000
      7     -10.8907      2.00000
      8     -10.8895      2.00000
      9     -10.8260      2.00000
     10     -10.8258      2.00000
     11     -10.3210      2.00000
     12     -10.3209      2.00000
     13      -9.9577      2.00000
     14      -9.9577      2.00000
     15      -9.8632      2.00000
     16      -9.8632      2.00000
     17      -9.7958      2.00000
     18      -9.7958      2.00000
     19      -9.7647      2.00000
     20      -9.7647      2.00000
     21      -8.4982      2.00000
     22      -8.3828      2.00000
     23      -7.9056      2.00000
     24      -7.8947      2.00000
     25      -7.8011      2.00000
     26      -7.5557      2.00000
     27      -6.9436      2.00000
     28      -6.9430      2.00000
     29      -2.5994      2.00000
     30      -2.4388      2.00000
     31      -2.0652      2.00000
     32      -1.9470      2.00000
     33      -1.9140      2.00000
     34      -1.9035      2.00000
     35      -1.8077      2.00000
     36      -1.7795      2.00000
     37      -1.7637      2.00000
     38      -1.5686      2.00000
     39      -1.5356      2.00000
     40      -1.5091      2.00000
     41      -1.4808      2.00000
     42      -1.3625      2.00000
     43      -0.5018      2.00000
     44      -0.0984      2.00000
     45       0.0877      2.00000
     46       0.1621      2.00000
     47       0.2331      2.00000
     48       0.3218      2.00000
     49       0.6765      2.00000
     50       0.7632      2.00000
     51       1.2766      2.00000
     52       1.4471      2.00000
     53       1.6055      2.00000
     54       1.6505      2.00000
     55       1.6875      2.00000
     56       2.1748      2.00000
     57       2.5871      2.00000
     58       2.7155      2.00000
     59       2.9458      2.00000
     60       3.1446      2.00000
     61       3.3532      2.00000
     62       3.5362      2.00000
     63       5.7536      0.00000
     64       5.9570      0.00000
     65       6.2033      0.00000
     66       6.4150      0.00000
     67       7.1016      0.00000
     68       7.2446      0.00000
     69       8.2666      0.00000
     70       8.6831      0.00000
     71       8.9015      0.00000
     72       8.9725      0.00000
     73       9.2104      0.00000
     74       9.4030      0.00000
     75       9.5217      0.00000
     76       9.9247      0.00000
     77      10.2875      0.00000
     78      10.3632      0.00000
     79      10.8355      0.00000
     80      11.0632      0.00000

 k-point   143 :      -0.4444    0.1111    0.3333
  band No.  band energies     occupation 
      1     -11.3724      2.00000
      2     -11.3640      2.00000
      3     -11.0868      2.00000
      4     -11.0834      2.00000
      5     -10.9445      2.00000
      6     -10.9436      2.00000
      7     -10.8885      2.00000
      8     -10.8873      2.00000
      9     -10.8295      2.00000
     10     -10.8293      2.00000
     11     -10.2981      2.00000
     12     -10.2981      2.00000
     13      -9.9577      2.00000
     14      -9.9576      2.00000
     15      -9.8604      2.00000
     16      -9.8604      2.00000
     17      -9.8056      2.00000
     18      -9.8056      2.00000
     19      -9.7676      2.00000
     20      -9.7676      2.00000
     21      -8.6577      2.00000
     22      -8.5150      2.00000
     23      -8.0085      2.00000
     24      -7.9879      2.00000
     25      -7.8933      2.00000
     26      -7.5772      2.00000
     27      -7.0005      2.00000
     28      -6.9984      2.00000
     29      -2.4435      2.00000
     30      -2.2512      2.00000
     31      -2.1149      2.00000
     32      -1.9735      2.00000
     33      -1.9362      2.00000
     34      -1.9166      2.00000
     35      -1.8362      2.00000
     36      -1.7949      2.00000
     37      -1.7676      2.00000
     38      -1.5537      2.00000
     39      -1.4779      2.00000
     40      -1.3806      2.00000
     41      -1.3397      2.00000
     42      -1.3110      2.00000
     43      -0.2535      2.00000
     44      -0.1353      2.00000
     45       0.1830      2.00000
     46       0.2920      2.00000
     47       0.3324      2.00000
     48       0.4708      2.00000
     49       0.7331      2.00000
     50       0.8386      2.00000
     51       1.2656      2.00000
     52       1.4899      2.00000
     53       1.7254      2.00000
     54       1.7853      2.00000
     55       1.8810      2.00000
     56       2.0894      2.00000
     57       2.6492      2.00000
     58       2.7740      2.00000
     59       2.9959      2.00000
     60       3.1253      2.00000
     61       3.3647      2.00000
     62       3.6646      2.00000
     63       5.8234      0.00000
     64       6.0592      0.00000
     65       6.2791      0.00000
     66       6.4821      0.00000
     67       7.1472      0.00000
     68       7.3578      0.00000
     69       8.3388      0.00000
     70       8.7509      0.00000
     71       8.9414      0.00000
     72       9.0639      0.00000
     73       9.1087      0.00000
     74       9.4730      0.00000
     75       9.5603      0.00000
     76      10.0060      0.00000
     77      10.2712      0.00000
     78      10.4358      0.00000
     79      10.8891      0.00000
     80      11.1882      0.00000

 k-point   144 :      -0.3889    0.1111    0.3333
  band No.  band energies     occupation 
      1     -11.3459      2.00000
      2     -11.3359      2.00000
      3     -11.0903      2.00000
      4     -11.0862      2.00000
      5     -10.9499      2.00000
      6     -10.9491      2.00000
      7     -10.8849      2.00000
      8     -10.8836      2.00000
      9     -10.8340      2.00000
     10     -10.8337      2.00000
     11     -10.2619      2.00000
     12     -10.2619      2.00000
     13      -9.9578      2.00000
     14      -9.9578      2.00000
     15      -9.8569      2.00000
     16      -9.8569      2.00000
     17      -9.8181      2.00000
     18      -9.8181      2.00000
     19      -9.7740      2.00000
     20      -9.7740      2.00000
     21      -8.8730      2.00000
     22      -8.7059      2.00000
     23      -8.1565      2.00000
     24      -8.1282      2.00000
     25      -8.0175      2.00000
     26      -7.6244      2.00000
     27      -7.0936      2.00000
     28      -7.0876      2.00000
     29      -2.2262      2.00000
     30      -2.1690      2.00000
     31      -2.0395      2.00000
     32      -2.0138      2.00000
     33      -1.9819      2.00000
     34      -1.9094      2.00000
     35      -1.8824      2.00000
     36      -1.7926      2.00000
     37      -1.7497      2.00000
     38      -1.5406      2.00000
     39      -1.4757      2.00000
     40      -1.3921      2.00000
     41      -1.0692      2.00000
     42      -1.0300      2.00000
     43      -0.1787      2.00000
     44       0.1224      2.00000
     45       0.3130      2.00000
     46       0.4909      2.00000
     47       0.5579      2.00000
     48       0.6468      2.00000
     49       0.8504      2.00000
     50       0.9868      2.00000
     51       1.3158      2.00000
     52       1.5855      2.00000
     53       1.7856      2.00000
     54       1.9746      2.00000
     55       2.1155      2.00000
     56       2.1740      2.00000
     57       2.7370      2.00000
     58       2.8477      2.00000
     59       3.0726      2.00000
     60       3.1120      2.00000
     61       3.3712      2.00000
     62       3.8254      2.00000
     63       5.9222      0.00000
     64       6.1332      0.00000
     65       6.4174      0.00000
     66       6.6000      0.00000
     67       7.2421      0.00000
     68       7.5173      0.00000
     69       8.4326      0.00000
     70       8.7955      0.00000
     71       8.9569      0.00000
     72       9.0002      0.00000
     73       9.2228      0.00000
     74       9.5227      0.00000
     75       9.5567      0.00000
     76      10.0549      0.00000
     77      10.2468      0.00000
     78      10.4822      0.00000
     79      10.7687      0.00000
     80      11.0554      0.00000

 k-point   145 :      -0.3333    0.1111    0.3333
  band No.  band energies     occupation 
      1     -11.3116      2.00000
      2     -11.3012      2.00000
      3     -11.0931      2.00000
      4     -11.0878      2.00000
      5     -10.9581      2.00000
      6     -10.9574      2.00000
      7     -10.8802      2.00000
      8     -10.8788      2.00000
      9     -10.8379      2.00000
     10     -10.8377      2.00000
     11     -10.2154      2.00000
     12     -10.2153      2.00000
     13      -9.9581      2.00000
     14      -9.9581      2.00000
     15      -9.8557      2.00000
     16      -9.8557      2.00000
     17      -9.8288      2.00000
     18      -9.8288      2.00000
     19      -9.7832      2.00000
     20      -9.7831      2.00000
     21      -9.1088      2.00000
     22      -8.9225      2.00000
     23      -8.3226      2.00000
     24      -8.2911      2.00000
     25      -8.1552      2.00000
     26      -7.6927      2.00000
     27      -7.2141      2.00000
     28      -7.2028      2.00000
     29      -2.2114      2.00000
     30      -2.0643      2.00000
     31      -2.0319      2.00000
     32      -2.0095      2.00000
     33      -1.9362      2.00000
     34      -1.9147      2.00000
     35      -1.8726      2.00000
     36      -1.7813      2.00000
     37      -1.7167      2.00000
     38      -1.5292      2.00000
     39      -1.4784      2.00000
     40      -1.4279      2.00000
     41      -0.7473      2.00000
     42      -0.6628      2.00000
     43      -0.1180      2.00000
     44       0.4151      2.00000
     45       0.5992      2.00000
     46       0.6893      2.00000
     47       0.8082      2.00000
     48       0.8971      2.00000
     49       1.0672      2.00000
     50       1.1985      2.00000
     51       1.4101      2.00000
     52       1.7027      2.00000
     53       1.8837      2.00000
     54       2.2421      2.00000
     55       2.3492      2.00000
     56       2.4373      2.00000
     57       2.8146      2.00000
     58       2.9260      2.00000
     59       3.0874      2.00000
     60       3.2275      2.00000
     61       3.3726      2.00000
     62       3.9759      2.00000
     63       5.9935      0.00000
     64       6.0942      0.00000
     65       6.6122      0.00000
     66       6.7669      0.00000
     67       7.3941      0.00000
     68       7.6836      0.00000
     69       8.4961      0.00000
     70       8.6942      0.00000
     71       8.8747      0.00000
     72       9.0150      0.00000
     73       9.2685      0.00000
     74       9.4238      0.00000
     75       9.5854      0.00000
     76       9.9544      0.00000
     77      10.0856      0.00000
     78      10.4631      0.00000
     79      10.5830      0.00000
     80      10.8254      0.00000

 k-point   146 :      -0.2778    0.1111    0.3333
  band No.  band energies     occupation 
      1     -11.2741      2.00000
      2     -11.2652      2.00000
      3     -11.0922      2.00000
      4     -11.0854      2.00000
      5     -10.9685      2.00000
      6     -10.9678      2.00000
      7     -10.8745      2.00000
      8     -10.8730      2.00000
      9     -10.8405      2.00000
     10     -10.8403      2.00000
     11     -10.1631      2.00000
     12     -10.1630      2.00000
     13      -9.9581      2.00000
     14      -9.9580      2.00000
     15      -9.8639      2.00000
     16      -9.8639      2.00000
     17      -9.8316      2.00000
     18      -9.8316      2.00000
     19      -9.7931      2.00000
     20      -9.7931      2.00000
     21      -9.3392      2.00000
     22      -9.1374      2.00000
     23      -8.4829      2.00000
     24      -8.4514      2.00000
     25      -8.2898      2.00000
     26      -7.7717      2.00000
     27      -7.3482      2.00000
     28      -7.3303      2.00000
     29      -2.2319      2.00000
     30      -2.1011      2.00000
     31      -2.0750      2.00000
     32      -1.9896      2.00000
     33      -1.9092      2.00000
     34      -1.8667      2.00000
     35      -1.8361      2.00000
     36      -1.7663      2.00000
     37      -1.6761      2.00000
     38      -1.5194      2.00000
     39      -1.4993      2.00000
     40      -1.4508      2.00000
     41      -0.4110      2.00000
     42      -0.2729      2.00000
     43       0.0667      2.00000
     44       0.5927      2.00000
     45       0.6705      2.00000
     46       1.0462      2.00000
     47       1.1772      2.00000
     48       1.2720      2.00000
     49       1.3347      2.00000
     50       1.4696      2.00000
     51       1.5779      2.00000
     52       1.8705      2.00000
     53       2.1000      2.00000
     54       2.5443      2.00000
     55       2.6054      2.00000
     56       2.7384      2.00000
     57       2.8868      2.00000
     58       2.9892      2.00000
     59       3.0946      2.00000
     60       3.3754      2.00000
     61       3.4266      2.00000
     62       4.0902      2.00000
     63       5.9130      0.00000
     64       5.9802      0.00000
     65       6.8103      0.00000
     66       6.9311      0.00000
     67       7.5828      0.00000
     68       7.7828      0.00000
     69       8.4263      0.00000
     70       8.5497      0.00000
     71       8.7458      0.00000
     72       8.8706      0.00000
     73       9.1474      0.00000
     74       9.2489      0.00000
     75       9.5998      0.00000
     76       9.7282      0.00000
     77       9.8425      0.00000
     78      10.1791      0.00000
     79      10.5616      0.00000
     80      10.7056      0.00000

 k-point   147 :       0.1667    0.1667    0.3333
  band No.  band energies     occupation 
      1     -11.3067      2.00000
      2     -11.2964      2.00000
      3     -11.0936      2.00000
      4     -11.0882      2.00000
      5     -10.9602      2.00000
      6     -10.9595      2.00000
      7     -10.8784      2.00000
      8     -10.8771      2.00000
      9     -10.8396      2.00000
     10     -10.8395      2.00000
     11     -10.2023      2.00000
     12     -10.2023      2.00000
     13      -9.9705      2.00000
     14      -9.9705      2.00000
     15      -9.8496      2.00000
     16      -9.8496      2.00000
     17      -9.8349      2.00000
     18      -9.8349      2.00000
     19      -9.7840      2.00000
     20      -9.7840      2.00000
     21      -9.1308      2.00000
     22      -8.9426      2.00000
     23      -8.3320      2.00000
     24      -8.3052      2.00000
     25      -8.1671      2.00000
     26      -7.7001      2.00000
     27      -7.2277      2.00000
     28      -7.2168      2.00000
     29      -2.2145      2.00000
     30      -2.0709      2.00000
     31      -2.0342      2.00000
     32      -1.9782      2.00000
     33      -1.9381      2.00000
     34      -1.9059      2.00000
     35      -1.8601      2.00000
     36      -1.7850      2.00000
     37      -1.7119      2.00000
     38      -1.5262      2.00000
     39      -1.4844      2.00000
     40      -1.4277      2.00000
     41      -0.6804      2.00000
     42      -0.5929      2.00000
     43      -0.0994      2.00000
     44       0.4471      2.00000
     45       0.6326      2.00000
     46       0.7385      2.00000
     47       0.7652      2.00000
     48       0.9890      2.00000
     49       1.1381      2.00000
     50       1.1636      2.00000
     51       1.2375      2.00000
     52       1.6811      2.00000
     53       1.9014      2.00000
     54       2.1994      2.00000
     55       2.5001      2.00000
     56       2.6288      2.00000
     57       2.7232      2.00000
     58       2.8198      2.00000
     59       2.9899      2.00000
     60       3.1391      2.00000
     61       3.3870      2.00000
     62       4.0053      2.00000
     63       6.0828      0.00000
     64       6.1616      0.00000
     65       6.7559      0.00000
     66       6.8531      0.00000
     67       7.7116      0.00000
     68       7.7207      0.00000
     69       8.4166      0.00000
     70       8.7175      0.00000
     71       8.8232      0.00000
     72       9.1119      0.00000
     73       9.4375      0.00000
     74       9.5218      0.00000
     75       9.6569      0.00000
     76       9.8087      0.00000
     77       9.9007      0.00000
     78      10.1198      0.00000
     79      10.5394      0.00000
     80      10.7038      0.00000

 k-point   148 :       0.2222    0.1667    0.3333
  band No.  band energies     occupation 
      1     -11.3383      2.00000
      2     -11.3280      2.00000
      3     -11.0913      2.00000
      4     -11.0872      2.00000
      5     -10.9536      2.00000
      6     -10.9528      2.00000
      7     -10.8813      2.00000
      8     -10.8802      2.00000
      9     -10.8379      2.00000
     10     -10.8377      2.00000
     11     -10.2395      2.00000
     12     -10.2395      2.00000
     13      -9.9811      2.00000
     14      -9.9811      2.00000
     15      -9.8447      2.00000
     16      -9.8447      2.00000
     17      -9.8307      2.00000
     18      -9.8307      2.00000
     19      -9.7759      2.00000
     20      -9.7759      2.00000
     21      -8.9066      2.00000
     22      -8.7356      2.00000
     23      -8.1652      2.00000
     24      -8.1456      2.00000
     25      -8.0344      2.00000
     26      -7.6335      2.00000
     27      -7.1138      2.00000
     28      -7.1085      2.00000
     29      -2.1814      2.00000
     30      -2.1464      2.00000
     31      -2.0333      2.00000
     32      -1.9872      2.00000
     33      -1.9701      2.00000
     34      -1.8982      2.00000
     35      -1.8820      2.00000
     36      -1.8015      2.00000
     37      -1.7464      2.00000
     38      -1.5334      2.00000
     39      -1.4840      2.00000
     40      -1.3911      2.00000
     41      -0.9603      2.00000
     42      -0.9200      2.00000
     43      -0.1816      2.00000
     44       0.2818      2.00000
     45       0.3424      2.00000
     46       0.4429      2.00000
     47       0.5593      2.00000
     48       0.6859      2.00000
     49       0.8593      2.00000
     50       0.9621      2.00000
     51       1.1056      2.00000
     52       1.5306      2.00000
     53       1.8257      2.00000
     54       1.8694      2.00000
     55       2.2796      2.00000
     56       2.3365      2.00000
     57       2.5950      2.00000
     58       2.6883      2.00000
     59       2.8973      2.00000
     60       3.0386      2.00000
     61       3.4020      2.00000
     62       3.8766      2.00000
     63       6.1198      0.00000
     64       6.3119      0.00000
     65       6.6261      0.00000
     66       6.7153      0.00000
     67       7.6171      0.00000
     68       7.7618      0.00000
     69       8.3612      0.00000
     70       8.8634      0.00000
     71       8.9737      0.00000
     72       9.2840      0.00000
     73       9.4947      0.00000
     74       9.5979      0.00000
     75       9.6705      0.00000
     76       9.9774      0.00000
     77      10.1417      0.00000
     78      10.3595      0.00000
     79      10.4764      0.00000
     80      10.8124      0.00000

 k-point   149 :       0.2778    0.1667    0.3333
  band No.  band energies     occupation 
      1     -11.3645      2.00000
      2     -11.3557      2.00000
      3     -11.0878      2.00000
      4     -11.0845      2.00000
      5     -10.9492      2.00000
      6     -10.9483      2.00000
      7     -10.8833      2.00000
      8     -10.8823      2.00000
      9     -10.8355      2.00000
     10     -10.8354      2.00000
     11     -10.2711      2.00000
     12     -10.2711      2.00000
     13      -9.9892      2.00000
     14      -9.9892      2.00000
     15      -9.8478      2.00000
     16      -9.8478      2.00000
     17      -9.8181      2.00000
     18      -9.8181      2.00000
     19      -9.7712      2.00000
     20      -9.7712      2.00000
     21      -8.6887      2.00000
     22      -8.5403      2.00000
     23      -8.0043      2.00000
     24      -7.9927      2.00000
     25      -7.9066      2.00000
     26      -7.5825      2.00000
     27      -7.0208      2.00000
     28      -7.0193      2.00000
     29      -2.3399      2.00000
     30      -2.1502      2.00000
     31      -2.1232      2.00000
     32      -1.9902      2.00000
     33      -1.9406      2.00000
     34      -1.8982      2.00000
     35      -1.8342      2.00000
     36      -1.8054      2.00000
     37      -1.7738      2.00000
     38      -1.5382      2.00000
     39      -1.4894      2.00000
     40      -1.3586      2.00000
     41      -1.2250      2.00000
     42      -1.2117      2.00000
     43      -0.1809      2.00000
     44      -0.0368      2.00000
     45       0.1591      2.00000
     46       0.1915      2.00000
     47       0.4019      2.00000
     48       0.4136      2.00000
     49       0.6827      2.00000
     50       0.8381      2.00000
     51       1.0618      2.00000
     52       1.3827      2.00000
     53       1.5458      2.00000
     54       1.8722      2.00000
     55       2.0217      2.00000
     56       2.1320      2.00000
     57       2.4417      2.00000
     58       2.6169      2.00000
     59       2.7407      2.00000
     60       3.0881      2.00000
     61       3.4120      2.00000
     62       3.7202      2.00000
     63       6.0980      0.00000
     64       6.3498      0.00000
     65       6.4617      0.00000
     66       6.5874      0.00000
     67       7.5148      0.00000
     68       7.6635      0.00000
     69       8.5089      0.00000
     70       8.8966      0.00000
     71       8.9796      0.00000
     72       9.2539      0.00000
     73       9.4128      0.00000
     74       9.5582      0.00000
     75       9.7271      0.00000
     76      10.0839      0.00000
     77      10.3325      0.00000
     78      10.4991      0.00000
     79      10.7054      0.00000
     80      11.0364      0.00000

 k-point   150 :       0.3333    0.1667    0.3333
  band No.  band energies     occupation 
      1     -11.3829      2.00000
      2     -11.3762      2.00000
      3     -11.0845      2.00000
      4     -11.0819      2.00000
      5     -10.9467      2.00000
      6     -10.9457      2.00000
      7     -10.8846      2.00000
      8     -10.8836      2.00000
      9     -10.8332      2.00000
     10     -10.8330      2.00000
     11     -10.2941      2.00000
     12     -10.2941      2.00000
     13      -9.9946      2.00000
     14      -9.9946      2.00000
     15      -9.8509      2.00000
     16      -9.8509      2.00000
     17      -9.8052      2.00000
     18      -9.8052      2.00000
     19      -9.7708      2.00000
     20      -9.7708      2.00000
     21      -8.5061      2.00000
     22      -8.3868      2.00000
     23      -7.8759      2.00000
     24      -7.8699      2.00000
     25      -7.8013      2.00000
     26      -7.5550      2.00000
     27      -6.9583      2.00000
     28      -6.9577      2.00000
     29      -2.4990      2.00000
     30      -2.3356      2.00000
     31      -2.0639      2.00000
     32      -1.9576      2.00000
     33      -1.9044      2.00000
     34      -1.8958      2.00000
     35      -1.8212      2.00000
     36      -1.7850      2.00000
     37      -1.7745      2.00000
     38      -1.5356      2.00000
     39      -1.4967      2.00000
     40      -1.4434      2.00000
     41      -1.4331      2.00000
     42      -1.3363      2.00000
     43      -0.3393      2.00000
     44      -0.1140      2.00000
     45       0.0024      2.00000
     46       0.0439      2.00000
     47       0.2215      2.00000
     48       0.2710      2.00000
     49       0.5777      2.00000
     50       0.7482      2.00000
     51       1.0916      2.00000
     52       1.3053      2.00000
     53       1.3500      2.00000
     54       1.6934      2.00000
     55       1.8017      2.00000
     56       2.1750      2.00000
     57       2.3460      2.00000
     58       2.5521      2.00000
     59       2.6560      2.00000
     60       3.1251      2.00000
     61       3.4084      2.00000
     62       3.5708      2.00000
     63       6.0536      0.00000
     64       6.2729      0.00000
     65       6.3438      0.00000
     66       6.5288      0.00000
     67       7.4472      0.00000
     68       7.5479      0.00000
     69       8.6804      0.00000
     70       8.8589      0.00000
     71       8.9144      0.00000
     72       9.1582      0.00000
     73       9.3520      0.00000
     74       9.4701      0.00000
     75       9.7466      0.00000
     76      10.1239      0.00000
     77      10.3827      0.00000
     78      10.5778      0.00000
     79      10.8537      0.00000
     80      11.0386      0.00000

 k-point   151 :       0.3889    0.1667    0.3333
  band No.  band energies     occupation 
      1     -11.3922      2.00000
      2     -11.3872      2.00000
      3     -11.0827      2.00000
      4     -11.0803      2.00000
      5     -10.9456      2.00000
      6     -10.9446      2.00000
      7     -10.8852      2.00000
      8     -10.8843      2.00000
      9     -10.8317      2.00000
     10     -10.8315      2.00000
     11     -10.3061      2.00000
     12     -10.3061      2.00000
     13      -9.9973      2.00000
     14      -9.9973      2.00000
     15      -9.8527      2.00000
     16      -9.8527      2.00000
     17      -9.7956      2.00000
     18      -9.7956      2.00000
     19      -9.7733      2.00000
     20      -9.7733      2.00000
     21      -8.3963      2.00000
     22      -8.3040      2.00000
     23      -7.8050      2.00000
     24      -7.8009      2.00000
     25      -7.7367      2.00000
     26      -7.5492      2.00000
     27      -6.9280      2.00000
     28      -6.9270      2.00000
     29      -2.5856      2.00000
     30      -2.4559      2.00000
     31      -2.0214      2.00000
     32      -1.9441      2.00000
     33      -1.8985      2.00000
     34      -1.8833      2.00000
     35      -1.8179      2.00000
     36      -1.7728      2.00000
     37      -1.7529      2.00000
     38      -1.5691      2.00000
     39      -1.5591      2.00000
     40      -1.5089      2.00000
     41      -1.4862      2.00000
     42      -1.3627      2.00000
     43      -0.4861      2.00000
     44      -0.1239      2.00000
     45      -0.0785      2.00000
     46      -0.0072      2.00000
     47       0.1348      2.00000
     48       0.1997      2.00000
     49       0.5156      2.00000
     50       0.6839      2.00000
     51       1.1850      2.00000
     52       1.2228      2.00000
     53       1.3746      2.00000
     54       1.4739      2.00000
     55       1.6457      2.00000
     56       2.1800      2.00000
     57       2.3940      2.00000
     58       2.4934      2.00000
     59       2.6306      2.00000
     60       3.1320      2.00000
     61       3.3955      2.00000
     62       3.4834      2.00000
     63       6.0227      0.00000
     64       6.1965      0.00000
     65       6.2773      0.00000
     66       6.5203      0.00000
     67       7.4238      0.00000
     68       7.4740      0.00000
     69       8.7535      0.00000
     70       8.8145      0.00000
     71       8.8826      0.00000
     72       9.1528      0.00000
     73       9.2895      0.00000
     74       9.4009      0.00000
     75       9.7333      0.00000
     76      10.1460      0.00000
     77      10.4191      0.00000
     78      10.5573      0.00000
     79      10.8062      0.00000
     80      11.1026      0.00000

 k-point   152 :       0.4444    0.1667    0.3333
  band No.  band energies     occupation 
      1     -11.3922      2.00000
      2     -11.3872      2.00000
      3     -11.0827      2.00000
      4     -11.0803      2.00000
      5     -10.9456      2.00000
      6     -10.9446      2.00000
      7     -10.8852      2.00000
      8     -10.8843      2.00000
      9     -10.8317      2.00000
     10     -10.8315      2.00000
     11     -10.3061      2.00000
     12     -10.3061      2.00000
     13      -9.9973      2.00000
     14      -9.9973      2.00000
     15      -9.8527      2.00000
     16      -9.8527      2.00000
     17      -9.7956      2.00000
     18      -9.7955      2.00000
     19      -9.7733      2.00000
     20      -9.7733      2.00000
     21      -8.3963      2.00000
     22      -8.3040      2.00000
     23      -7.8061      2.00000
     24      -7.7998      2.00000
     25      -7.7368      2.00000
     26      -7.5492      2.00000
     27      -6.9280      2.00000
     28      -6.9270      2.00000
     29      -2.5856      2.00000
     30      -2.4559      2.00000
     31      -2.0214      2.00000
     32      -1.9441      2.00000
     33      -1.8985      2.00000
     34      -1.8833      2.00000
     35      -1.8179      2.00000
     36      -1.7728      2.00000
     37      -1.7529      2.00000
     38      -1.5669      2.00000
     39      -1.5620      2.00000
     40      -1.5083      2.00000
     41      -1.4860      2.00000
     42      -1.3629      2.00000
     43      -0.4857      2.00000
     44      -0.1313      2.00000
     45      -0.0872      2.00000
     46       0.0299      2.00000
     47       0.1153      2.00000
     48       0.1942      2.00000
     49       0.5201      2.00000
     50       0.6845      2.00000
     51       1.1595      2.00000
     52       1.2346      2.00000
     53       1.3815      2.00000
     54       1.5149      2.00000
     55       1.6075      2.00000
     56       2.1780      2.00000
     57       2.4293      2.00000
     58       2.4524      2.00000
     59       2.6410      2.00000
     60       3.1319      2.00000
     61       3.3965      2.00000
     62       3.4823      2.00000
     63       6.0205      0.00000
     64       6.2001      0.00000
     65       6.2738      0.00000
     66       6.5217      0.00000
     67       7.4380      0.00000
     68       7.4622      0.00000
     69       8.7028      0.00000
     70       8.8519      0.00000
     71       8.9024      0.00000
     72       9.1806      0.00000
     73       9.2863      0.00000
     74       9.3450      0.00000
     75       9.7453      0.00000
     76      10.1798      0.00000
     77      10.4564      0.00000
     78      10.4954      0.00000
     79      10.7888      0.00000
     80      11.1511      0.00000

 k-point   153 :       0.5000    0.1667    0.3333
  band No.  band energies     occupation 
      1     -11.3829      2.00000
      2     -11.3762      2.00000
      3     -11.0845      2.00000
      4     -11.0819      2.00000
      5     -10.9467      2.00000
      6     -10.9457      2.00000
      7     -10.8846      2.00000
      8     -10.8836      2.00000
      9     -10.8332      2.00000
     10     -10.8330      2.00000
     11     -10.2941      2.00000
     12     -10.2941      2.00000
     13      -9.9946      2.00000
     14      -9.9946      2.00000
     15      -9.8509      2.00000
     16      -9.8509      2.00000
     17      -9.8052      2.00000
     18      -9.8052      2.00000
     19      -9.7709      2.00000
     20      -9.7708      2.00000
     21      -8.5062      2.00000
     22      -8.3868      2.00000
     23      -7.8793      2.00000
     24      -7.8659      2.00000
     25      -7.8019      2.00000
     26      -7.5550      2.00000
     27      -6.9583      2.00000
     28      -6.9577      2.00000
     29      -2.4990      2.00000
     30      -2.3356      2.00000
     31      -2.0639      2.00000
     32      -1.9576      2.00000
     33      -1.9044      2.00000
     34      -1.8958      2.00000
     35      -1.8212      2.00000
     36      -1.7850      2.00000
     37      -1.7745      2.00000
     38      -1.5355      2.00000
     39      -1.4969      2.00000
     40      -1.4452      2.00000
     41      -1.4312      2.00000
     42      -1.3365      2.00000
     43      -0.3366      2.00000
     44      -0.1319      2.00000
     45      -0.0012      2.00000
     46       0.1064      2.00000
     47       0.1612      2.00000
     48       0.2826      2.00000
     49       0.5895      2.00000
     50       0.7452      2.00000
     51       1.0624      2.00000
     52       1.3267      2.00000
     53       1.3729      2.00000
     54       1.7116      2.00000
     55       1.7512      2.00000
     56       2.1782      2.00000
     57       2.3876      2.00000
     58       2.5027      2.00000
     59       2.6729      2.00000
     60       3.1280      2.00000
     61       3.4060      2.00000
     62       3.5715      2.00000
     63       6.0502      0.00000
     64       6.2830      0.00000
     65       6.3326      0.00000
     66       6.5326      0.00000
     67       7.4633      0.00000
     68       7.5353      0.00000
     69       8.6249      0.00000
     70       8.8874      0.00000
     71       8.9747      0.00000
     72       9.2123      0.00000
     73       9.2970      0.00000
     74       9.3797      0.00000
     75       9.7674      0.00000
     76      10.2178      0.00000
     77      10.3848      0.00000
     78      10.5224      0.00000
     79      10.8167      0.00000
     80      11.1107      0.00000

 k-point   154 :      -0.4444    0.1667    0.3333
  band No.  band energies     occupation 
      1     -11.3645      2.00000
      2     -11.3557      2.00000
      3     -11.0878      2.00000
      4     -11.0845      2.00000
      5     -10.9492      2.00000
      6     -10.9483      2.00000
      7     -10.8833      2.00000
      8     -10.8823      2.00000
      9     -10.8355      2.00000
     10     -10.8354      2.00000
     11     -10.2711      2.00000
     12     -10.2711      2.00000
     13      -9.9892      2.00000
     14      -9.9892      2.00000
     15      -9.8478      2.00000
     16      -9.8478      2.00000
     17      -9.8181      2.00000
     18      -9.8181      2.00000
     19      -9.7712      2.00000
     20      -9.7712      2.00000
     21      -8.6887      2.00000
     22      -8.5403      2.00000
     23      -8.0085      2.00000
     24      -7.9875      2.00000
     25      -7.9077      2.00000
     26      -7.5825      2.00000
     27      -7.0213      2.00000
     28      -7.0188      2.00000
     29      -2.3398      2.00000
     30      -2.1504      2.00000
     31      -2.1231      2.00000
     32      -1.9901      2.00000
     33      -1.9406      2.00000
     34      -1.8982      2.00000
     35      -1.8343      2.00000
     36      -1.8054      2.00000
     37      -1.7738      2.00000
     38      -1.5382      2.00000
     39      -1.4894      2.00000
     40      -1.3577      2.00000
     41      -1.2297      2.00000
     42      -1.2078      2.00000
     43      -0.1764      2.00000
     44      -0.0506      2.00000
     45       0.1709      2.00000
     46       0.1993      2.00000
     47       0.3579      2.00000
     48       0.4539      2.00000
     49       0.6855      2.00000
     50       0.8205      2.00000
     51       1.0601      2.00000
     52       1.4084      2.00000
     53       1.5457      2.00000
     54       1.8402      2.00000
     55       2.0012      2.00000
     56       2.1755      2.00000
     57       2.4618      2.00000
     58       2.5789      2.00000
     59       2.7478      2.00000
     60       3.0942      2.00000
     61       3.4093      2.00000
     62       3.7209      2.00000
     63       6.0971      0.00000
     64       6.3537      0.00000
     65       6.4531      0.00000
     66       6.5934      0.00000
     67       7.5186      0.00000
     68       7.6593      0.00000
     69       8.4902      0.00000
     70       8.9221      0.00000
     71       9.0147      0.00000
     72       9.2671      0.00000
     73       9.3750      0.00000
     74       9.4840      0.00000
     75       9.7344      0.00000
     76      10.1858      0.00000
     77      10.2940      0.00000
     78      10.5197      0.00000
     79      10.6837      0.00000
     80      11.0874      0.00000

 k-point   155 :      -0.3889    0.1667    0.3333
  band No.  band energies     occupation 
      1     -11.3382      2.00000
      2     -11.3280      2.00000
      3     -11.0913      2.00000
      4     -11.0872      2.00000
      5     -10.9536      2.00000
      6     -10.9528      2.00000
      7     -10.8813      2.00000
      8     -10.8802      2.00000
      9     -10.8379      2.00000
     10     -10.8377      2.00000
     11     -10.2395      2.00000
     12     -10.2395      2.00000
     13      -9.9811      2.00000
     14      -9.9811      2.00000
     15      -9.8447      2.00000
     16      -9.8447      2.00000
     17      -9.8307      2.00000
     18      -9.8307      2.00000
     19      -9.7759      2.00000
     20      -9.7759      2.00000
     21      -8.9066      2.00000
     22      -8.7356      2.00000
     23      -8.1677      2.00000
     24      -8.1425      2.00000
     25      -8.0350      2.00000
     26      -7.6334      2.00000
     27      -7.1143      2.00000
     28      -7.1081      2.00000
     29      -2.1816      2.00000
     30      -2.1458      2.00000
     31      -2.0338      2.00000
     32      -1.9875      2.00000
     33      -1.9702      2.00000
     34      -1.8976      2.00000
     35      -1.8819      2.00000
     36      -1.8016      2.00000
     37      -1.7465      2.00000
     38      -1.5335      2.00000
     39      -1.4840      2.00000
     40      -1.3906      2.00000
     41      -0.9622      2.00000
     42      -0.9185      2.00000
     43      -0.1817      2.00000
     44       0.2704      2.00000
     45       0.3545      2.00000
     46       0.4362      2.00000
     47       0.5916      2.00000
     48       0.6697      2.00000
     49       0.8407      2.00000
     50       0.9465      2.00000
     51       1.1350      2.00000
     52       1.5273      2.00000
     53       1.8204      2.00000
     54       1.8699      2.00000
     55       2.2586      2.00000
     56       2.3754      2.00000
     57       2.5841      2.00000
     58       2.6798      2.00000
     59       2.8965      2.00000
     60       3.0447      2.00000
     61       3.4011      2.00000
     62       3.8766      2.00000
     63       6.1209      0.00000
     64       6.3110      0.00000
     65       6.6201      0.00000
     66       6.7224      0.00000
     67       7.6087      0.00000
     68       7.7679      0.00000
     69       8.3607      0.00000
     70       8.8792      0.00000
     71       8.9662      0.00000
     72       9.2871      0.00000
     73       9.5005      0.00000
     74       9.5543      0.00000
     75       9.6840      0.00000
     76       9.9744      0.00000
     77      10.1574      0.00000
     78      10.3677      0.00000
     79      10.4736      0.00000
     80      10.8620      0.00000

 k-point   156 :       0.2222    0.2222    0.3333
  band No.  band energies     occupation 
      1     -11.3615      2.00000
      2     -11.3525      2.00000
      3     -11.0882      2.00000
      4     -11.0850      2.00000
      5     -10.9511      2.00000
      6     -10.9502      2.00000
      7     -10.8809      2.00000
      8     -10.8800      2.00000
      9     -10.8382      2.00000
     10     -10.8382      2.00000
     11     -10.2585      2.00000
     12     -10.2585      2.00000
     13     -10.0040      2.00000
     14     -10.0040      2.00000
     15      -9.8355      2.00000
     16      -9.8355      2.00000
     17      -9.8305      2.00000
     18      -9.8305      2.00000
     19      -9.7723      2.00000
     20      -9.7723      2.00000
     21      -8.6994      2.00000
     22      -8.5491      2.00000
     23      -8.0063      2.00000
     24      -7.9887      2.00000
     25      -7.9114      2.00000
     26      -7.5845      2.00000
     27      -7.0290      2.00000
     28      -7.0267      2.00000
     29      -2.2970      2.00000
     30      -2.1298      2.00000
     31      -2.1073      2.00000
     32      -1.9949      2.00000
     33      -1.9416      2.00000
     34      -1.8887      2.00000
     35      -1.8364      2.00000
     36      -1.8099      2.00000
     37      -1.7758      2.00000
     38      -1.5317      2.00000
     39      -1.4948      2.00000
     40      -1.3532      2.00000
     41      -1.1782      2.00000
     42      -1.1594      2.00000
     43      -0.1949      2.00000
     44       0.0616      2.00000
     45       0.1182      2.00000
     46       0.1548      2.00000
     47       0.3791      2.00000
     48       0.4151      2.00000
     49       0.7225      2.00000
     50       0.8160      2.00000
     51       0.9574      2.00000
     52       1.3719      2.00000
     53       1.4576      2.00000
     54       1.9064      2.00000
     55       2.0661      2.00000
     56       2.2418      2.00000
     57       2.3539      2.00000
     58       2.4843      2.00000
     59       2.6056      2.00000
     60       3.0891      2.00000
     61       3.4248      2.00000
     62       3.7407      2.00000
     63       6.2170      0.00000
     64       6.4335      0.00000
     65       6.5667      0.00000
     66       6.6276      0.00000
     67       7.7815      0.00000
     68       7.8363      0.00000
     69       8.2042      0.00000
     70       8.9779      0.00000
     71       9.2492      0.00000
     72       9.3519      0.00000
     73       9.6262      0.00000
     74       9.7040      0.00000
     75       9.8563      0.00000
     76       9.9668      0.00000
     77      10.3275      0.00000
     78      10.4920      0.00000
     79      10.5823      0.00000
     80      11.0451      0.00000

 k-point   157 :       0.2778    0.2222    0.3333
  band No.  band energies     occupation 
      1     -11.3790      2.00000
      2     -11.3721      2.00000
      3     -11.0848      2.00000
      4     -11.0824      2.00000
      5     -10.9501      2.00000
      6     -10.9491      2.00000
      7     -10.8795      2.00000
      8     -10.8788      2.00000
      9     -10.8389      2.00000
     10     -10.8388      2.00000
     11     -10.2723      2.00000
     12     -10.2723      2.00000
     13     -10.0230      2.00000
     14     -10.0230      2.00000
     15      -9.8367      2.00000
     16      -9.8367      2.00000
     17      -9.8186      2.00000
     18      -9.8186      2.00000
     19      -9.7736      2.00000
     20      -9.7736      2.00000
     21      -8.5111      2.00000
     22      -8.3893      2.00000
     23      -7.8619      2.00000
     24      -7.8502      2.00000
     25      -7.7994      2.00000
     26      -7.5547      2.00000
     27      -6.9682      2.00000
     28      -6.9678      2.00000
     29      -2.4250      2.00000
     30      -2.2624      2.00000
     31      -2.0656      2.00000
     32      -1.9617      2.00000
     33      -1.9030      2.00000
     34      -1.8720      2.00000
     35      -1.8341      2.00000
     36      -1.8060      2.00000
     37      -1.7726      2.00000
     38      -1.5170      2.00000
     39      -1.5060      2.00000
     40      -1.3763      2.00000
     41      -1.3671      2.00000
     42      -1.3237      2.00000
     43      -0.2218      2.00000
     44      -0.1751      2.00000
     45      -0.0950      2.00000
     46       0.0355      2.00000
     47       0.1239      2.00000
     48       0.2369      2.00000
     49       0.6480      2.00000
     50       0.7664      2.00000
     51       0.9156      2.00000
     52       1.1133      2.00000
     53       1.3056      2.00000
     54       1.7916      2.00000
     55       1.8440      2.00000
     56       2.1465      2.00000
     57       2.2201      2.00000
     58       2.3895      2.00000
     59       2.4612      2.00000
     60       3.1287      2.00000
     61       3.4355      2.00000
     62       3.5904      2.00000
     63       6.2667      0.00000
     64       6.4012      0.00000
     65       6.4958      0.00000
     66       6.5573      0.00000
     67       7.7409      0.00000
     68       7.8402      0.00000
     69       8.3683      0.00000
     70       8.9828      0.00000
     71       9.3155      0.00000
     72       9.3951      0.00000
     73       9.5441      0.00000
     74       9.7585      0.00000
     75       9.8489      0.00000
     76      10.2475      0.00000
     77      10.5454      0.00000
     78      10.6690      0.00000
     79      10.7639      0.00000
     80      11.0360      0.00000

 k-point   158 :       0.3333    0.2222    0.3333
  band No.  band energies     occupation 
      1     -11.3897      2.00000
      2     -11.3849      2.00000
      3     -11.0822      2.00000
      4     -11.0804      2.00000
      5     -10.9499      2.00000
      6     -10.9489      2.00000
      7     -10.8781      2.00000
      8     -10.8773      2.00000
      9     -10.8397      2.00000
     10     -10.8395      2.00000
     11     -10.2808      2.00000
     12     -10.2807      2.00000
     13     -10.0355      2.00000
     14     -10.0355      2.00000
     15      -9.8384      2.00000
     16      -9.8384      2.00000
     17      -9.8053      2.00000
     18      -9.8053      2.00000
     19      -9.7792      2.00000
     20      -9.7792      2.00000
     21      -8.3716      2.00000
     22      -8.2844      2.00000
     23      -7.7587      2.00000
     24      -7.7516      2.00000
     25      -7.7161      2.00000
     26      -7.5479      2.00000
     27      -6.9349      2.00000
     28      -6.9338      2.00000
     29      -2.5071      2.00000
     30      -2.3871      2.00000
     31      -2.0063      2.00000
     32      -1.9422      2.00000
     33      -1.8771      2.00000
     34      -1.8685      2.00000
     35      -1.8362      2.00000
     36      -1.7988      2.00000
     37      -1.7588      2.00000
     38      -1.5413      2.00000
     39      -1.5158      2.00000
     40      -1.4997      2.00000
     41      -1.4561      2.00000
     42      -1.3305      2.00000
     43      -0.3620      2.00000
     44      -0.3376      2.00000
     45      -0.1174      2.00000
     46      -0.0489      2.00000
     47      -0.0325      2.00000
     48       0.1473      2.00000
     49       0.5758      2.00000
     50       0.6806      2.00000
     51       0.8936      2.00000
     52       1.0446      2.00000
     53       1.3221      2.00000
     54       1.5377      2.00000
     55       1.6525      2.00000
     56       2.0179      2.00000
     57       2.2278      2.00000
     58       2.2992      2.00000
     59       2.5342      2.00000
     60       3.1307      2.00000
     61       3.4260      2.00000
     62       3.4796      2.00000
     63       6.2744      0.00000
     64       6.3014      0.00000
     65       6.4074      0.00000
     66       6.5842      0.00000
     67       7.6704      0.00000
     68       7.8153      0.00000
     69       8.5746      0.00000
     70       8.9193      0.00000
     71       9.3039      0.00000
     72       9.4156      0.00000
     73       9.4580      0.00000
     74       9.6484      0.00000
     75       9.9616      0.00000
     76      10.4444      0.00000
     77      10.6461      0.00000
     78      10.7481      0.00000
     79      10.8516      0.00000
     80      11.0437      0.00000

 k-point   159 :       0.3889    0.2222    0.3333
  band No.  band energies     occupation 
      1     -11.3931      2.00000
      2     -11.3895      2.00000
      3     -11.0813      2.00000
      4     -11.0796      2.00000
      5     -10.9499      2.00000
      6     -10.9489      2.00000
      7     -10.8775      2.00000
      8     -10.8767      2.00000
      9     -10.8400      2.00000
     10     -10.8398      2.00000
     11     -10.2836      2.00000
     12     -10.2836      2.00000
     13     -10.0398      2.00000
     14     -10.0398      2.00000
     15      -9.8390      2.00000
     16      -9.8390      2.00000
     17      -9.7970      2.00000
     18      -9.7970      2.00000
     19      -9.7850      2.00000
     20      -9.7850      2.00000
     21      -8.3170      2.00000
     22      -8.2502      2.00000
     23      -7.7205      2.00000
     24      -7.7156      2.00000
     25      -7.6818      2.00000
     26      -7.5520      2.00000
     27      -6.9245      2.00000
     28      -6.9235      2.00000
     29      -2.5328      2.00000
     30      -2.4374      2.00000
     31      -1.9781      2.00000
     32      -1.9385      2.00000
     33      -1.8794      2.00000
     34      -1.8643      2.00000
     35      -1.8336      2.00000
     36      -1.7859      2.00000
     37      -1.7591      2.00000
     38      -1.5742      2.00000
     39      -1.5651      2.00000
     40      -1.5254      2.00000
     41      -1.4082      2.00000
     42      -1.3608      2.00000
     43      -0.4206      2.00000
     44      -0.3953      2.00000
     45      -0.1512      2.00000
     46      -0.1073      2.00000
     47      -0.0040      2.00000
     48       0.1069      2.00000
     49       0.5428      2.00000
     50       0.6413      2.00000
     51       0.8141      2.00000
     52       1.1908      2.00000
     53       1.3110      2.00000
     54       1.4441      2.00000
     55       1.5199      2.00000
     56       1.9772      2.00000
     57       2.1888      2.00000
     58       2.2920      2.00000
     59       2.6060      2.00000
     60       3.1055      2.00000
     61       3.4186      2.00000
     62       3.4462      2.00000
     63       6.2452      0.00000
     64       6.2858      0.00000
     65       6.3728      0.00000
     66       6.6003      0.00000
     67       7.6386      0.00000
     68       7.8101      0.00000
     69       8.6632      0.00000
     70       8.8731      0.00000
     71       9.2900      0.00000
     72       9.4096      0.00000
     73       9.4649      0.00000
     74       9.5842      0.00000
     75       9.9963      0.00000
     76      10.5529      0.00000
     77      10.6686      0.00000
     78      10.7067      0.00000
     79      10.7963      0.00000
     80      11.1457      0.00000

 k-point   160 :       0.4444    0.2222    0.3333
  band No.  band energies     occupation 
      1     -11.3897      2.00000
      2     -11.3849      2.00000
      3     -11.0822      2.00000
      4     -11.0804      2.00000
      5     -10.9499      2.00000
      6     -10.9489      2.00000
      7     -10.8781      2.00000
      8     -10.8773      2.00000
      9     -10.8397      2.00000
     10     -10.8395      2.00000
     11     -10.2808      2.00000
     12     -10.2807      2.00000
     13     -10.0355      2.00000
     14     -10.0355      2.00000
     15      -9.8384      2.00000
     16      -9.8384      2.00000
     17      -9.8053      2.00000
     18      -9.8053      2.00000
     19      -9.7792      2.00000
     20      -9.7792      2.00000
     21      -8.3716      2.00000
     22      -8.2844      2.00000
     23      -7.7595      2.00000
     24      -7.7505      2.00000
     25      -7.7163      2.00000
     26      -7.5479      2.00000
     27      -6.9349      2.00000
     28      -6.9338      2.00000
     29      -2.5071      2.00000
     30      -2.3871      2.00000
     31      -2.0063      2.00000
     32      -1.9422      2.00000
     33      -1.8771      2.00000
     34      -1.8685      2.00000
     35      -1.8362      2.00000
     36      -1.7989      2.00000
     37      -1.7588      2.00000
     38      -1.5411      2.00000
     39      -1.5163      2.00000
     40      -1.4996      2.00000
     41      -1.4560      2.00000
     42      -1.3305      2.00000
     43      -0.3624      2.00000
     44      -0.3374      2.00000
     45      -0.1257      2.00000
     46      -0.0654      2.00000
     47       0.0159      2.00000
     48       0.1188      2.00000
     49       0.5837      2.00000
     50       0.6859      2.00000
     51       0.8879      2.00000
     52       1.0294      2.00000
     53       1.3371      2.00000
     54       1.5757      2.00000
     55       1.6108      2.00000
     56       2.0345      2.00000
     57       2.1750      2.00000
     58       2.3410      2.00000
     59       2.5303      2.00000
     60       3.1305      2.00000
     61       3.4292      2.00000
     62       3.4765      2.00000
     63       6.2661      0.00000
     64       6.3029      0.00000
     65       6.4135      0.00000
     66       6.5855      0.00000
     67       7.6668      0.00000
     68       7.8227      0.00000
     69       8.5548      0.00000
     70       8.9414      0.00000
     71       9.2988      0.00000
     72       9.3906      0.00000
     73       9.4993      0.00000
     74       9.6198      0.00000
     75       9.9639      0.00000
     76      10.5327      0.00000
     77      10.6389      0.00000
     78      10.6522      0.00000
     79      10.8402      0.00000
     80      11.0700      0.00000

 k-point   161 :       0.5000    0.2222    0.3333
  band No.  band energies     occupation 
      1     -11.3790      2.00000
      2     -11.3721      2.00000
      3     -11.0848      2.00000
      4     -11.0824      2.00000
      5     -10.9501      2.00000
      6     -10.9491      2.00000
      7     -10.8795      2.00000
      8     -10.8788      2.00000
      9     -10.8389      2.00000
     10     -10.8388      2.00000
     11     -10.2723      2.00000
     12     -10.2723      2.00000
     13     -10.0230      2.00000
     14     -10.0230      2.00000
     15      -9.8367      2.00000
     16      -9.8367      2.00000
     17      -9.8186      2.00000
     18      -9.8185      2.00000
     19      -9.7736      2.00000
     20      -9.7736      2.00000
     21      -8.5111      2.00000
     22      -8.3893      2.00000
     23      -7.8632      2.00000
     24      -7.8484      2.00000
     25      -7.7999      2.00000
     26      -7.5547      2.00000
     27      -6.9682      2.00000
     28      -6.9677      2.00000
     29      -2.4249      2.00000
     30      -2.2624      2.00000
     31      -2.0655      2.00000
     32      -1.9617      2.00000
     33      -1.9030      2.00000
     34      -1.8719      2.00000
     35      -1.8341      2.00000
     36      -1.8060      2.00000
     37      -1.7726      2.00000
     38      -1.5170      2.00000
     39      -1.5060      2.00000
     40      -1.3748      2.00000
     41      -1.3686      2.00000
     42      -1.3236      2.00000
     43      -0.2224      2.00000
     44      -0.1742      2.00000
     45      -0.0993      2.00000
     46       0.0469      2.00000
     47       0.1242      2.00000
     48       0.2251      2.00000
     49       0.6656      2.00000
     50       0.7632      2.00000
     51       0.8944      2.00000
     52       1.1174      2.00000
     53       1.3191      2.00000
     54       1.8047      2.00000
     55       1.8179      2.00000
     56       2.1513      2.00000
     57       2.2179      2.00000
     58       2.4168      2.00000
     59       2.4371      2.00000
     60       3.1299      2.00000
     61       3.4346      2.00000
     62       3.5907      2.00000
     63       6.2632      0.00000
     64       6.3984      0.00000
     65       6.5039      0.00000
     66       6.5565      0.00000
     67       7.7358      0.00000
     68       7.8472      0.00000
     69       8.3572      0.00000
     70       9.0099      0.00000
     71       9.3146      0.00000
     72       9.3618      0.00000
     73       9.5802      0.00000
     74       9.7263      0.00000
     75       9.8242      0.00000
     76      10.3380      0.00000
     77      10.5060      0.00000
     78      10.6621      0.00000
     79      10.7766      0.00000
     80      11.0289      0.00000

 k-point   162 :       0.2778    0.2778    0.3333
  band No.  band energies     occupation 
      1     -11.3885      2.00000
      2     -11.3839      2.00000
      3     -11.0820      2.00000
      4     -11.0805      2.00000
      5     -10.9516      2.00000
      6     -10.9506      2.00000
      7     -10.8743      2.00000
      8     -10.8737      2.00000
      9     -10.8437      2.00000
     10     -10.8437      2.00000
     11     -10.2684      2.00000
     12     -10.2684      2.00000
     13     -10.0526      2.00000
     14     -10.0526      2.00000
     15      -9.8266      2.00000
     16      -9.8266      2.00000
     17      -9.8162      2.00000
     18      -9.8162      2.00000
     19      -9.7807      2.00000
     20      -9.7807      2.00000
     21      -8.3634      2.00000
     22      -8.2778      2.00000
     23      -7.7432      2.00000
     24      -7.7323      2.00000
     25      -7.7073      2.00000
     26      -7.5475      2.00000
     27      -6.9384      2.00000
     28      -6.9373      2.00000
     29      -2.4708      2.00000
     30      -2.3558      2.00000
     31      -2.0028      2.00000
     32      -1.9380      2.00000
     33      -1.8717      2.00000
     34      -1.8459      2.00000
     35      -1.8390      2.00000
     36      -1.8290      2.00000
     37      -1.7616      2.00000
     38      -1.5418      2.00000
     39      -1.4916      2.00000
     40      -1.4822      2.00000
     41      -1.4493      2.00000
     42      -1.3153      2.00000
     43      -0.4559      2.00000
     44      -0.2381      2.00000
     45      -0.1727      2.00000
     46      -0.1133      2.00000
     47      -0.0313      2.00000
     48       0.0904      2.00000
     49       0.6520      2.00000
     50       0.7012      2.00000
     51       0.7605      2.00000
     52       0.9550      2.00000
     53       1.2975      2.00000
     54       1.5914      2.00000
     55       1.6397      2.00000
     56       2.0015      2.00000
     57       2.0767      2.00000
     58       2.2093      2.00000
     59       2.5447      2.00000
     60       3.1309      2.00000
     61       3.4403      2.00000
     62       3.4745      2.00000
     63       6.2930      0.00000
     64       6.3922      0.00000
     65       6.4837      0.00000
     66       6.5917      0.00000
     67       7.7373      0.00000
     68       8.0231      0.00000
     69       8.4360      0.00000
     70       8.9616      0.00000
     71       9.3866      0.00000
     72       9.4662      0.00000
     73       9.7977      0.00000
     74       9.8449      0.00000
     75      10.0008      0.00000
     76      10.4513      0.00000
     77      10.7530      0.00000
     78      10.8658      0.00000
     79      11.0011      0.00000
     80      11.0235      0.00000

 k-point   163 :       0.3333    0.2778    0.3333
  band No.  band energies     occupation 
      1     -11.3929      2.00000
      2     -11.3904      2.00000
      3     -11.0804      2.00000
      4     -11.0794      2.00000
      5     -10.9526      2.00000
      6     -10.9515      2.00000
      7     -10.8697      2.00000
      8     -10.8691      2.00000
      9     -10.8481      2.00000
     10     -10.8480      2.00000
     11     -10.2641      2.00000
     12     -10.2641      2.00000
     13     -10.0705      2.00000
     14     -10.0705      2.00000
     15      -9.8239      2.00000
     16      -9.8239      2.00000
     17      -9.8055      2.00000
     18      -9.8055      2.00000
     19      -9.7914      2.00000
     20      -9.7914      2.00000
     21      -8.2717      2.00000
     22      -8.2254      2.00000
     23      -7.6695      2.00000
     24      -7.6650      2.00000
     25      -7.6462      2.00000
     26      -7.5603      2.00000
     27      -6.9264      2.00000
     28      -6.9255      2.00000
     29      -2.4802      2.00000
     30      -2.4159      2.00000
     31      -1.9529      2.00000
     32      -1.9267      2.00000
     33      -1.8666      2.00000
     34      -1.8518      2.00000
     35      -1.8348      2.00000
     36      -1.8074      2.00000
     37      -1.7738      2.00000
     38      -1.5808      2.00000
     39      -1.5567      2.00000
     40      -1.5305      2.00000
     41      -1.3786      2.00000
     42      -1.3302      2.00000
     43      -0.6031      2.00000
     44      -0.3132      2.00000
     45      -0.2644      2.00000
     46      -0.1232      2.00000
     47      -0.0758      2.00000
     48       0.0309      2.00000
     49       0.5444      2.00000
     50       0.6306      2.00000
     51       0.6636      2.00000
     52       1.1359      2.00000
     53       1.3129      2.00000
     54       1.3742      2.00000
     55       1.4779      2.00000
     56       1.8879      2.00000
     57       2.0499      2.00000
     58       2.0739      2.00000
     59       2.7124      2.00000
     60       3.0581      2.00000
     61       3.4208      2.00000
     62       3.4398      2.00000
     63       6.2127      0.00000
     64       6.4456      0.00000
     65       6.4632      0.00000
     66       6.6183      0.00000
     67       7.7073      0.00000
     68       8.0612      0.00000
     69       8.5976      0.00000
     70       8.8683      0.00000
     71       9.4339      0.00000
     72       9.4825      0.00000
     73       9.8001      0.00000
     74       9.9634      0.00000
     75      10.0878      0.00000
     76      10.6739      0.00000
     77      10.8112      0.00000
     78      10.9393      0.00000
     79      11.0834      0.00000
     80      11.1559      0.00000

 k-point   164 :       0.3889    0.2778    0.3333
  band No.  band energies     occupation 
      1     -11.3929      2.00000
      2     -11.3904      2.00000
      3     -11.0804      2.00000
      4     -11.0794      2.00000
      5     -10.9526      2.00000
      6     -10.9515      2.00000
      7     -10.8697      2.00000
      8     -10.8691      2.00000
      9     -10.8481      2.00000
     10     -10.8480      2.00000
     11     -10.2641      2.00000
     12     -10.2641      2.00000
     13     -10.0705      2.00000
     14     -10.0705      2.00000
     15      -9.8239      2.00000
     16      -9.8239      2.00000
     17      -9.8055      2.00000
     18      -9.8055      2.00000
     19      -9.7914      2.00000
     20      -9.7914      2.00000
     21      -8.2718      2.00000
     22      -8.2254      2.00000
     23      -7.6695      2.00000
     24      -7.6649      2.00000
     25      -7.6462      2.00000
     26      -7.5603      2.00000
     27      -6.9264      2.00000
     28      -6.9255      2.00000
     29      -2.4802      2.00000
     30      -2.4159      2.00000
     31      -1.9529      2.00000
     32      -1.9267      2.00000
     33      -1.8666      2.00000
     34      -1.8518      2.00000
     35      -1.8348      2.00000
     36      -1.8074      2.00000
     37      -1.7738      2.00000
     38      -1.5808      2.00000
     39      -1.5569      2.00000
     40      -1.5304      2.00000
     41      -1.3787      2.00000
     42      -1.3302      2.00000
     43      -0.6032      2.00000
     44      -0.3126      2.00000
     45      -0.2653      2.00000
     46      -0.1320      2.00000
     47      -0.0579      2.00000
     48       0.0214      2.00000
     49       0.5445      2.00000
     50       0.6310      2.00000
     51       0.6648      2.00000
     52       1.1334      2.00000
     53       1.2938      2.00000
     54       1.4236      2.00000
     55       1.4483      2.00000
     56       1.9132      2.00000
     57       1.9891      2.00000
     58       2.1101      2.00000
     59       2.7127      2.00000
     60       3.0577      2.00000
     61       3.4249      2.00000
     62       3.4358      2.00000
     63       6.2123      0.00000
     64       6.4471      0.00000
     65       6.4611      0.00000
     66       6.6195      0.00000
     67       7.7070      0.00000
     68       8.0625      0.00000
     69       8.5943      0.00000
     70       8.8710      0.00000
     71       9.4171      0.00000
     72       9.4915      0.00000
     73       9.8245      0.00000
     74       9.9609      0.00000
     75      10.0714      0.00000
     76      10.6667      0.00000
     77      10.8312      0.00000
     78      10.9571      0.00000
     79      11.0977      0.00000
     80      11.1866      0.00000

 k-point   165 :       0.3333    0.3333    0.3333
  band No.  band energies     occupation 
      1     -11.3931      2.00000
      2     -11.3931      2.00000
      3     -11.0794      2.00000
      4     -11.0794      2.00000
      5     -10.9537      2.00000
      6     -10.9526      2.00000
      7     -10.8629      2.00000
      8     -10.8622      2.00000
      9     -10.8549      2.00000
     10     -10.8549      2.00000
     11     -10.2557      2.00000
     12     -10.2557      2.00000
     13     -10.0852      2.00000
     14     -10.0852      2.00000
     15      -9.8129      2.00000
     16      -9.8129      2.00000
     17      -9.8041      2.00000
     18      -9.8041      2.00000
     19      -9.8031      2.00000
     20      -9.8031      2.00000
     21      -8.2206      2.00000
     22      -8.2206      2.00000
     23      -7.6334      2.00000
     24      -7.6334      2.00000
     25      -7.5944      2.00000
     26      -7.5944      2.00000
     27      -6.9248      2.00000
     28      -6.9248      2.00000
     29      -2.4439      2.00000
     30      -2.4439      2.00000
     31      -1.9221      2.00000
     32      -1.9221      2.00000
     33      -1.8806      2.00000
     34      -1.8424      2.00000
     35      -1.8116      2.00000
     36      -1.8116      2.00000
     37      -1.7970      2.00000
     38      -1.5975      2.00000
     39      -1.5713      2.00000
     40      -1.5408      2.00000
     41      -1.3363      2.00000
     42      -1.3363      2.00000
     43      -0.6930      2.00000
     44      -0.3977      2.00000
     45      -0.1787      2.00000
     46      -0.1787      2.00000
     47      -0.0510      2.00000
     48      -0.0510      2.00000
     49       0.3932      2.00000
     50       0.6698      2.00000
     51       0.6698      2.00000
     52       1.2315      2.00000
     53       1.3071      2.00000
     54       1.3208      2.00000
     55       1.3208      2.00000
     56       1.8816      2.00000
     57       1.9735      2.00000
     58       1.9735      2.00000
     59       2.9038      2.00000
     60       2.9038      2.00000
     61       3.4260      2.00000
     62       3.4260      2.00000
     63       6.1751      0.00000
     64       6.4521      0.00000
     65       6.5796      0.00000
     66       6.5796      0.00000
     67       7.7068      0.00000
     68       8.1314      0.00000
     69       8.7295      0.00000
     70       8.7295      0.00000
     71       9.4987      0.00000
     72       9.4988      0.00000
     73       9.9686      0.00000
     74      10.1047      0.00000
     75      10.1048      0.00000
     76      10.7016      0.00000
     77      10.9135      0.00000
     78      10.9173      0.00000
     79      11.2773      0.00000
     80      11.3222      0.00000

 k-point   166 :      -0.0000   -0.0000    0.5000
  band No.  band energies     occupation 
      1     -11.1992      2.00000
      2     -11.1987      2.00000
      3     -11.0073      2.00000
      4     -11.0073      2.00000
      5     -11.0069      2.00000
      6     -11.0069      2.00000
      7     -10.8427      2.00000
      8     -10.8427      2.00000
      9     -10.8425      2.00000
     10     -10.8425      2.00000
     11      -9.9916      2.00000
     12      -9.9599      2.00000
     13      -9.9599      2.00000
     14      -9.9599      2.00000
     15      -9.9599      2.00000
     16      -9.9584      2.00000
     17      -9.9457      2.00000
     18      -9.8115      2.00000
     19      -9.8115      2.00000
     20      -9.8115      2.00000
     21      -9.8115      2.00000
     22      -9.7270      2.00000
     23      -8.8569      2.00000
     24      -8.8536      2.00000
     25      -8.6318      2.00000
     26      -8.0339      2.00000
     27      -7.7692      2.00000
     28      -7.7186      2.00000
     29      -2.2207      2.00000
     30      -2.2207      2.00000
     31      -2.1255      2.00000
     32      -2.1255      2.00000
     33      -2.1066      2.00000
     34      -1.8300      2.00000
     35      -1.7242      2.00000
     36      -1.7241      2.00000
     37      -1.7225      2.00000
     38      -1.5631      2.00000
     39      -1.4593      2.00000
     40      -1.4592      2.00000
     41       0.0533      2.00000
     42       0.1764      2.00000
     43       0.8744      2.00000
     44       1.7419      2.00000
     45       1.7419      2.00000
     46       1.9173      2.00000
     47       1.9174      2.00000
     48       2.2187      2.00000
     49       2.8394      2.00000
     50       2.9945      2.00000
     51       2.9945      2.00000
     52       2.9970      2.00000
     53       2.9970      2.00000
     54       3.3029      2.00000
     55       3.3029      2.00000
     56       3.3301      2.00000
     57       3.3301      2.00000
     58       3.5388      2.00000
     59       3.5388      2.00000
     60       3.8091      2.00000
     61       4.1211      2.00000
     62       4.1212      2.00000
     63       4.6369      0.00000
     64       5.1590      0.00000
     65       6.0855      0.00000
     66       6.3827      0.00000
     67       6.7426      0.00000
     68       7.4427      0.00000
     69       7.6752      0.00000
     70       7.7138      0.00000
     71       8.7332      0.00000
     72       8.7461      0.00000
     73       8.7462      0.00000
     74       8.9712      0.00000
     75       8.9712      0.00000
     76       9.1721      0.00000
     77       9.8752      0.00000
     78       9.8754      0.00000
     79       9.9036      0.00000
     80       9.9038      0.00000

 k-point   167 :       0.0556   -0.0000    0.5000
  band No.  band energies     occupation 
      1     -11.2006      2.00000
      2     -11.2003      2.00000
      3     -11.0186      2.00000
      4     -11.0169      2.00000
      5     -11.0045      2.00000
      6     -11.0041      2.00000
      7     -10.8466      2.00000
      8     -10.8461      2.00000
      9     -10.8427      2.00000
     10     -10.8424      2.00000
     11      -9.9873      2.00000
     12      -9.9870      2.00000
     13      -9.9599      2.00000
     14      -9.9577      2.00000
     15      -9.9577      2.00000
     16      -9.9400      2.00000
     17      -9.9168      2.00000
     18      -9.8142      2.00000
     19      -9.8132      2.00000
     20      -9.8108      2.00000
     21      -9.8108      2.00000
     22      -9.6887      2.00000
     23      -8.8363      2.00000
     24      -8.8320      2.00000
     25      -8.6119      2.00000
     26      -8.0154      2.00000
     27      -7.7406      2.00000
     28      -7.6944      2.00000
     29      -2.2235      2.00000
     30      -2.2130      2.00000
     31      -2.1252      2.00000
     32      -2.1176      2.00000
     33      -2.0870      2.00000
     34      -1.8217      2.00000
     35      -1.7675      2.00000
     36      -1.7263      2.00000
     37      -1.6739      2.00000
     38      -1.5670      2.00000
     39      -1.4681      2.00000
     40      -1.4590      2.00000
     41       0.0782      2.00000
     42       0.1696      2.00000
     43       0.8115      2.00000
     44       1.6288      2.00000
     45       1.6951      2.00000
     46       1.7028      2.00000
     47       1.8847      2.00000
     48       2.2201      2.00000
     49       2.7363      2.00000
     50       2.8110      2.00000
     51       2.9183      2.00000
     52       2.9191      2.00000
     53       2.9256      2.00000
     54       3.1935      2.00000
     55       3.2343      2.00000
     56       3.3091      2.00000
     57       3.3102      2.00000
     58       3.3539      2.00000
     59       3.5009      2.00000
     60       3.9564      2.00000
     61       3.9685      2.00000
     62       4.0854      2.00000
     63       4.7543      0.00000
     64       5.2694      0.00000
     65       6.2485      0.00000
     66       6.4881      0.00000
     67       6.9324      0.00000
     68       7.5819      0.00000
     69       7.8069      0.00000
     70       7.8546      0.00000
     71       8.5150      0.00000
     72       8.5996      0.00000
     73       8.8003      0.00000
     74       8.9905      0.00000
     75       9.0214      0.00000
     76       9.1855      0.00000
     77       9.8747      0.00000
     78       9.9221      0.00000
     79       9.9485      0.00000
     80       9.9835      0.00000

 k-point   168 :       0.1111    0.0000    0.5000
  band No.  band energies     occupation 
      1     -11.2077      2.00000
      2     -11.2068      2.00000
      3     -11.0469      2.00000
      4     -11.0408      2.00000
      5     -10.9966      2.00000
      6     -10.9961      2.00000
      7     -10.8555      2.00000
      8     -10.8541      2.00000
      9     -10.8425      2.00000
     10     -10.8422      2.00000
     11     -10.0323      2.00000
     12     -10.0317      2.00000
     13      -9.9515      2.00000
     14      -9.9515      2.00000
     15      -9.9227      2.00000
     16      -9.9198      2.00000
     17      -9.8285      2.00000
     18      -9.8196      2.00000
     19      -9.8087      2.00000
     20      -9.8087      2.00000
     21      -9.8053      2.00000
     22      -9.5819      2.00000
     23      -8.7745      2.00000
     24      -8.7675      2.00000
     25      -8.5533      2.00000
     26      -7.9641      2.00000
     27      -7.6598      2.00000
     28      -7.6243      2.00000
     29      -2.2304      2.00000
     30      -2.1907      2.00000
     31      -2.1213      2.00000
     32      -2.0946      2.00000
     33      -2.0347      2.00000
     34      -1.8050      2.00000
     35      -1.8031      2.00000
     36      -1.7325      2.00000
     37      -1.6215      2.00000
     38      -1.5821      2.00000
     39      -1.4868      2.00000
     40      -1.4586      2.00000
     41       0.1235      2.00000
     42       0.1398      2.00000
     43       0.6366      2.00000
     44       1.1820      2.00000
     45       1.3955      2.00000
     46       1.5949      2.00000
     47       1.7919      2.00000
     48       2.0842      2.00000
     49       2.3777      2.00000
     50       2.4335      2.00000
     51       2.7365      2.00000
     52       2.7482      2.00000
     53       2.7574      2.00000
     54       2.8778      2.00000
     55       2.9651      2.00000
     56       3.0474      2.00000
     57       3.2440      2.00000
     58       3.3822      2.00000
     59       3.4472      2.00000
     60       3.6248      2.00000
     61       3.9848      2.00000
     62       4.1136      2.00000
     63       5.0584      0.00000
     64       5.5097      0.00000
     65       6.5898      0.00000
     66       6.7110      0.00000
     67       7.3678      0.00000
     68       7.9019      0.00000
     69       7.9932      0.00000
     70       8.0748      0.00000
     71       8.3150      0.00000
     72       8.3914      0.00000
     73       8.9285      0.00000
     74       8.9509      0.00000
     75       9.1526      0.00000
     76       9.1644      0.00000
     77       9.9192      0.00000
     78      10.1225      0.00000
     79      10.1678      0.00000
     80      10.2164      0.00000

 k-point   169 :       0.1667    0.0000    0.5000
  band No.  band energies     occupation 
      1     -11.2272      2.00000
      2     -11.2233      2.00000
      3     -11.0748      2.00000
      4     -11.0664      2.00000
      5     -10.9849      2.00000
      6     -10.9844      2.00000
      7     -10.8650      2.00000
      8     -10.8632      2.00000
      9     -10.8416      2.00000
     10     -10.8413      2.00000
     11     -10.0904      2.00000
     12     -10.0900      2.00000
     13      -9.9430      2.00000
     14      -9.9430      2.00000
     15      -9.8986      2.00000
     16      -9.8982      2.00000
     17      -9.8256      2.00000
     18      -9.8252      2.00000
     19      -9.8043      2.00000
     20      -9.8043      2.00000
     21      -9.6409      2.00000
     22      -9.4203      2.00000
     23      -8.6731      2.00000
     24      -8.6627      2.00000
     25      -8.4598      2.00000
     26      -7.8900      2.00000
     27      -7.5395      2.00000
     28      -7.5159      2.00000
     29      -2.2366      2.00000
     30      -2.1555      2.00000
     31      -2.1115      2.00000
     32      -2.0583      2.00000
     33      -1.9663      2.00000
     34      -1.8324      2.00000
     35      -1.7960      2.00000
     36      -1.7418      2.00000
     37      -1.6191      2.00000
     38      -1.5639      2.00000
     39      -1.5020      2.00000
     40      -1.4583      2.00000
     41       0.0142      2.00000
     42       0.0610      2.00000
     43       0.5174      2.00000
     44       0.6117      2.00000
     45       1.0812      2.00000
     46       1.4404      2.00000
     47       1.6538      2.00000
     48       1.7262      2.00000
     49       1.9002      2.00000
     50       1.9470      2.00000
     51       2.4479      2.00000
     52       2.5350      2.00000
     53       2.5371      2.00000
     54       2.5476      2.00000
     55       2.7082      2.00000
     56       2.8294      2.00000
     57       3.0527      2.00000
     58       3.3810      2.00000
     59       3.3821      2.00000
     60       3.4294      2.00000
     61       3.8384      2.00000
     62       4.1394      2.00000
     63       5.4153      0.00000
     64       5.7335      0.00000
     65       6.8043      0.00000
     66       6.8567      0.00000
     67       7.6402      0.00000
     68       7.7936      0.00000
     69       7.9214      0.00000
     70       8.2431      0.00000
     71       8.5922      0.00000
     72       8.6378      0.00000
     73       9.0041      0.00000
     74       9.1629      0.00000
     75       9.3062      0.00000
     76       9.3118      0.00000
     77       9.9352      0.00000
     78      10.1861      0.00000
     79      10.3935      0.00000
     80      10.5702      0.00000

 k-point   170 :       0.2222   -0.0000    0.5000
  band No.  band energies     occupation 
      1     -11.2617      2.00000
      2     -11.2539      2.00000
      3     -11.0895      2.00000
      4     -11.0820      2.00000
      5     -10.9714      2.00000
      6     -10.9708      2.00000
      7     -10.8736      2.00000
      8     -10.8719      2.00000
      9     -10.8396      2.00000
     10     -10.8393      2.00000
     11     -10.1545      2.00000
     12     -10.1544      2.00000
     13      -9.9343      2.00000
     14      -9.9342      2.00000
     15      -9.8794      2.00000
     16      -9.8793      2.00000
     17      -9.8281      2.00000
     18      -9.8280      2.00000
     19      -9.7971      2.00000
     20      -9.7971      2.00000
     21      -9.4260      2.00000
     22      -9.2192      2.00000
     23      -8.5376      2.00000
     24      -8.5238      2.00000
     25      -8.3383      2.00000
     26      -7.8041      2.00000
     27      -7.3967      2.00000
     28      -7.3827      2.00000
     29      -2.2351      2.00000
     30      -2.1105      2.00000
     31      -2.0928      2.00000
     32      -2.0121      2.00000
     33      -1.9197      2.00000
     34      -1.8469      2.00000
     35      -1.8364      2.00000
     36      -1.7528      2.00000
     37      -1.6638      2.00000
     38      -1.5242      2.00000
     39      -1.5004      2.00000
     40      -1.4585      2.00000
     41      -0.3280      2.00000
     42      -0.1745      2.00000
     43       0.1366      2.00000
     44       0.5814      2.00000
     45       0.7438      2.00000
     46       1.2490      2.00000
     47       1.2648      2.00000
     48       1.4022      2.00000
     49       1.4862      2.00000
     50       1.4916      2.00000
     51       2.1131      2.00000
     52       2.1922      2.00000
     53       2.3165      2.00000
     54       2.3271      2.00000
     55       2.3956      2.00000
     56       2.7916      2.00000
     57       2.8113      2.00000
     58       3.2760      2.00000
     59       3.3463      2.00000
     60       3.4073      2.00000
     61       3.6748      2.00000
     62       4.0786      2.00000
     63       5.6944      0.00000
     64       5.8365      0.00000
     65       6.6671      0.00000
     66       6.8168      0.00000
     67       7.3595      0.00000
     68       7.6930      0.00000
     69       7.9905      0.00000
     70       8.5042      0.00000
     71       8.7760      0.00000
     72       8.8462      0.00000
     73       9.3722      0.00000
     74       9.3845      0.00000
     75       9.4341      0.00000
     76       9.7455      0.00000
     77       9.7926      0.00000
     78      10.5217      0.00000
     79      10.8011      0.00000
     80      10.8455      0.00000

 k-point   171 :       0.2778    0.0000    0.5000
  band No.  band energies     occupation 
      1     -11.3030      2.00000
      2     -11.2929      2.00000
      3     -11.0925      2.00000
      4     -11.0867      2.00000
      5     -10.9583      2.00000
      6     -10.9576      2.00000
      7     -10.8813      2.00000
      8     -10.8797      2.00000
      9     -10.8359      2.00000
     10     -10.8356      2.00000
     11     -10.2170      2.00000
     12     -10.2170      2.00000
     13      -9.9272      2.00000
     14      -9.9272      2.00000
     15      -9.8693      2.00000
     16      -9.8693      2.00000
     17      -9.8235      2.00000
     18      -9.8235      2.00000
     19      -9.7870      2.00000
     20      -9.7870      2.00000
     21      -9.1861      2.00000
     22      -8.9953      2.00000
     23      -8.3789      2.00000
     24      -8.3627      2.00000
     25      -8.1994      2.00000
     26      -7.7177      2.00000
     27      -7.2500      2.00000
     28      -7.2423      2.00000
     29      -2.2192      2.00000
     30      -2.0620      2.00000
     31      -2.0596      2.00000
     32      -1.9862      2.00000
     33      -1.9615      2.00000
     34      -1.9186      2.00000
     35      -1.8696      2.00000
     36      -1.7641      2.00000
     37      -1.7084      2.00000
     38      -1.5303      2.00000
     39      -1.4593      2.00000
     40      -1.4574      2.00000
     41      -0.7083      2.00000
     42      -0.6142      2.00000
     43      -0.0919      2.00000
     44       0.4379      2.00000
     45       0.6162      2.00000
     46       0.7073      2.00000
     47       0.9962      2.00000
     48       1.0913      2.00000
     49       1.1530      2.00000
     50       1.3273      2.00000
     51       1.8381      2.00000
     52       1.8543      2.00000
     53       2.1084      2.00000
     54       2.1183      2.00000
     55       2.1742      2.00000
     56       2.5656      2.00000
     57       2.8084      2.00000
     58       3.2238      2.00000
     59       3.2775      2.00000
     60       3.3752      2.00000
     61       3.5283      2.00000
     62       3.9577      2.00000
     63       5.7835      0.00000
     64       5.8279      0.00000
     65       6.4366      0.00000
     66       6.6297      0.00000
     67       7.1256      0.00000
     68       7.4738      0.00000
     69       7.9694      0.00000
     70       8.6171      0.00000
     71       8.8548      0.00000
     72       8.9733      0.00000
     73       9.4819      0.00000
     74       9.5647      0.00000
     75       9.5967      0.00000
     76       9.8391      0.00000
     77      10.1638      0.00000
     78      10.6147      0.00000
     79      10.7608      0.00000
     80      10.9067      0.00000

 k-point   172 :       0.3333   -0.0000    0.5000
  band No.  band energies     occupation 
      1     -11.3414      2.00000
      2     -11.3312      2.00000
      3     -11.0905      2.00000
      4     -11.0859      2.00000
      5     -10.9477      2.00000
      6     -10.9470      2.00000
      7     -10.8877      2.00000
      8     -10.8862      2.00000
      9     -10.8306      2.00000
     10     -10.8304      2.00000
     11     -10.2714      2.00000
     12     -10.2713      2.00000
     13      -9.9225      2.00000
     14      -9.9225      2.00000
     15      -9.8688      2.00000
     16      -9.8688      2.00000
     17      -9.8122      2.00000
     18      -9.8122      2.00000
     19      -9.7753      2.00000
     20      -9.7753      2.00000
     21      -8.9411      2.00000
     22      -8.7694      2.00000
     23      -8.2152      2.00000
     24      -8.1987      2.00000
     25      -8.0574      2.00000
     26      -7.6424      2.00000
     27      -7.1172      2.00000
     28      -7.1134      2.00000
     29      -2.2234      2.00000
     30      -2.1802      2.00000
     31      -2.0367      2.00000
     32      -2.0076      2.00000
     33      -2.0071      2.00000
     34      -1.9189      2.00000
     35      -1.9137      2.00000
     36      -1.7741      2.00000
     37      -1.7422      2.00000
     38      -1.5439      2.00000
     39      -1.4601      2.00000
     40      -1.4165      2.00000
     41      -1.0589      2.00000
     42      -1.0209      2.00000
     43      -0.1712      2.00000
     44       0.1058      2.00000
     45       0.3240      2.00000
     46       0.5154      2.00000
     47       0.6472      2.00000
     48       0.9007      2.00000
     49       0.9383      2.00000
     50       1.1799      2.00000
     51       1.6900      2.00000
     52       1.7185      2.00000
     53       1.9299      2.00000
     54       1.9380      2.00000
     55       1.9620      2.00000
     56       2.3446      2.00000
     57       2.8373      2.00000
     58       3.1786      2.00000
     59       3.1884      2.00000
     60       3.3399      2.00000
     61       3.4261      2.00000
     62       3.7996      2.00000
     63       5.6391      0.00000
     64       5.8098      0.00000
     65       6.2428      0.00000
     66       6.4475      0.00000
     67       6.9419      0.00000
     68       7.2855      0.00000
     69       7.8567      0.00000
     70       8.5611      0.00000
     71       8.8446      0.00000
     72       8.9538      0.00000
     73       9.4662      0.00000
     74       9.5983      0.00000
     75       9.6781      0.00000
     76       9.8657      0.00000
     77      10.2533      0.00000
     78      10.4768      0.00000
     79      10.6643      0.00000
     80      11.0799      0.00000

 k-point   173 :       0.3889    0.0000    0.5000
  band No.  band energies     occupation 
      1     -11.3711      2.00000
      2     -11.3624      2.00000
      3     -11.0874      2.00000
      4     -11.0835      2.00000
      5     -10.9405      2.00000
      6     -10.9396      2.00000
      7     -10.8925      2.00000
      8     -10.8912      2.00000
      9     -10.8248      2.00000
     10     -10.8246      2.00000
     11     -10.3130      2.00000
     12     -10.3129      2.00000
     13      -9.9200      2.00000
     14      -9.9200      2.00000
     15      -9.8716      2.00000
     16      -9.8716      2.00000
     17      -9.8007      2.00000
     18      -9.8007      2.00000
     19      -9.7644      2.00000
     20      -9.7644      2.00000
     21      -8.7174      2.00000
     22      -8.5689      2.00000
     23      -8.0707      2.00000
     24      -8.0575      2.00000
     25      -7.9292      2.00000
     26      -7.5890      2.00000
     27      -7.0132      2.00000
     28      -7.0117      2.00000
     29      -2.4674      2.00000
     30      -2.2657      2.00000
     31      -2.1327      2.00000
     32      -1.9602      2.00000
     33      -1.9528      2.00000
     34      -1.9324      2.00000
     35      -1.8775      2.00000
     36      -1.7812      2.00000
     37      -1.7566      2.00000
     38      -1.5644      2.00000
     39      -1.4603      2.00000
     40      -1.4056      2.00000
     41      -1.3403      2.00000
     42      -1.3252      2.00000
     43      -0.2997      2.00000
     44      -0.1175      2.00000
     45       0.1492      2.00000
     46       0.3616      2.00000
     47       0.3983      2.00000
     48       0.6904      2.00000
     49       0.8196      2.00000
     50       1.0643      2.00000
     51       1.5931      2.00000
     52       1.7264      2.00000
     53       1.7937      2.00000
     54       1.7994      2.00000
     55       1.8375      2.00000
     56       2.1703      2.00000
     57       2.8609      2.00000
     58       3.0780      2.00000
     59       3.1548      2.00000
     60       3.3089      2.00000
     61       3.3649      2.00000
     62       3.6369      2.00000
     63       5.4984      0.00000
     64       5.7093      0.00000
     65       6.0998      0.00000
     66       6.3000      0.00000
     67       6.8361      0.00000
     68       7.1333      0.00000
     69       7.7372      0.00000
     70       8.4905      0.00000
     71       8.7497      0.00000
     72       8.8637      0.00000
     73       9.4235      0.00000
     74       9.5355      0.00000
     75       9.7330      0.00000
     76       9.7662      0.00000
     77      10.1823      0.00000
     78      10.3167      0.00000
     79      10.6905      0.00000
     80      11.0493      0.00000

 k-point   174 :       0.4444   -0.0000    0.5000
  band No.  band energies     occupation 
      1     -11.3895      2.00000
      2     -11.3825      2.00000
      3     -11.0850      2.00000
      4     -11.0815      2.00000
      5     -10.9365      2.00000
      6     -10.9356      2.00000
      7     -10.8956      2.00000
      8     -10.8943      2.00000
      9     -10.8203      2.00000
     10     -10.8201      2.00000
     11     -10.3389      2.00000
     12     -10.3389      2.00000
     13      -9.9189      2.00000
     14      -9.9189      2.00000
     15      -9.8741      2.00000
     16      -9.8741      2.00000
     17      -9.7930      2.00000
     18      -9.7930      2.00000
     19      -9.7567      2.00000
     20      -9.7567      2.00000
     21      -8.5515      2.00000
     22      -8.4280      2.00000
     23      -7.9718      2.00000
     24      -7.9649      2.00000
     25      -7.8343      2.00000
     26      -7.5627      2.00000
     27      -6.9482      2.00000
     28      -6.9476      2.00000
     29      -2.6444      2.00000
     30      -2.4724      2.00000
     31      -2.0886      2.00000
     32      -1.9489      2.00000
     33      -1.9243      2.00000
     34      -1.8737      2.00000
     35      -1.8591      2.00000
     36      -1.7841      2.00000
     37      -1.7518      2.00000
     38      -1.5953      2.00000
     39      -1.5527      2.00000
     40      -1.5321      2.00000
     41      -1.4598      2.00000
     42      -1.3799      2.00000
     43      -0.5611      2.00000
     44      -0.1021      2.00000
     45       0.0607      2.00000
     46       0.2226      2.00000
     47       0.2729      2.00000
     48       0.6256      2.00000
     49       0.7447      2.00000
     50       0.9909      2.00000
     51       1.5054      2.00000
     52       1.5704      2.00000
     53       1.7089      2.00000
     54       1.7117      2.00000
     55       1.9807      2.00000
     56       2.0587      2.00000
     57       2.8619      2.00000
     58       3.0071      2.00000
     59       3.1259      2.00000
     60       3.2880      2.00000
     61       3.3316      2.00000
     62       3.5139      2.00000
     63       5.4157      0.00000
     64       5.6030      0.00000
     65       6.0136      0.00000
     66       6.1982      0.00000
     67       6.8060      0.00000
     68       7.0138      0.00000
     69       7.6535      0.00000
     70       8.4525      0.00000
     71       8.6516      0.00000
     72       8.7868      0.00000
     73       9.3857      0.00000
     74       9.4801      0.00000
     75       9.6554      0.00000
     76       9.7528      0.00000
     77      10.1168      0.00000
     78      10.1945      0.00000
     79      10.7845      0.00000
     80      10.9604      0.00000

 k-point   175 :       0.5000    0.0000    0.5000
  band No.  band energies     occupation 
      1     -11.3957      2.00000
      2     -11.3896      2.00000
      3     -11.0841      2.00000
      4     -11.0807      2.00000
      5     -10.9352      2.00000
      6     -10.9343      2.00000
      7     -10.8966      2.00000
      8     -10.8953      2.00000
      9     -10.8186      2.00000
     10     -10.8184      2.00000
     11     -10.3477      2.00000
     12     -10.3477      2.00000
     13      -9.9186      2.00000
     14      -9.9186      2.00000
     15      -9.8751      2.00000
     16      -9.8751      2.00000
     17      -9.7903      2.00000
     18      -9.7903      2.00000
     19      -9.7539      2.00000
     20      -9.7539      2.00000
     21      -8.4878      2.00000
     22      -8.3774      2.00000
     23      -7.9368      2.00000
     24      -7.9338      2.00000
     25      -7.7974      2.00000
     26      -7.5567      2.00000
     27      -6.9264      2.00000
     28      -6.9257      2.00000
     29      -2.7068      2.00000
     30      -2.5536      2.00000
     31      -2.0722      2.00000
     32      -1.9557      2.00000
     33      -1.9099      2.00000
     34      -1.8552      2.00000
     35      -1.8260      2.00000
     36      -1.7843      2.00000
     37      -1.7471      2.00000
     38      -1.6332      2.00000
     39      -1.6067      2.00000
     40      -1.5914      2.00000
     41      -1.4595      2.00000
     42      -1.3995      2.00000
     43      -0.6457      2.00000
     44      -0.1515      2.00000
     45       0.0661      2.00000
     46       0.1910      2.00000
     47       0.2267      2.00000
     48       0.6282      2.00000
     49       0.7191      2.00000
     50       0.9658      2.00000
     51       1.4397      2.00000
     52       1.5306      2.00000
     53       1.6807      2.00000
     54       1.6812      2.00000
     55       2.0204      2.00000
     56       2.0522      2.00000
     57       2.8506      2.00000
     58       2.9820      2.00000
     59       3.1166      2.00000
     60       3.2806      2.00000
     61       3.3207      2.00000
     62       3.4683      2.00000
     63       5.3927      0.00000
     64       5.5560      0.00000
     65       5.9854      0.00000
     66       6.1614      0.00000
     67       6.8128      0.00000
     68       6.9576      0.00000
     69       7.6239      0.00000
     70       8.4435      0.00000
     71       8.6103      0.00000
     72       8.7588      0.00000
     73       9.3711      0.00000
     74       9.4615      0.00000
     75       9.6077      0.00000
     76       9.7571      0.00000
     77      10.0925      0.00000
     78      10.1491      0.00000
     79      10.8809      0.00000
     80      10.8904      0.00000

 k-point   176 :       0.0556    0.0556    0.5000
  band No.  band energies     occupation 
      1     -11.2048      2.00000
      2     -11.2044      2.00000
      3     -11.0385      2.00000
      4     -11.0335      2.00000
      5     -10.9992      2.00000
      6     -10.9988      2.00000
      7     -10.8529      2.00000
      8     -10.8517      2.00000
      9     -10.8426      2.00000
     10     -10.8424      2.00000
     11     -10.0175      2.00000
     12     -10.0170      2.00000
     13      -9.9569      2.00000
     14      -9.9560      2.00000
     15      -9.9281      2.00000
     16      -9.9240      2.00000
     17      -9.8539      2.00000
     18      -9.8180      2.00000
     19      -9.8143      2.00000
     20      -9.8095      2.00000
     21      -9.8094      2.00000
     22      -9.6164      2.00000
     23      -8.7949      2.00000
     24      -8.7889      2.00000
     25      -8.5726      2.00000
     26      -7.9806      2.00000
     27      -7.6860      2.00000
     28      -7.6473      2.00000
     29      -2.2284      2.00000
     30      -2.1981      2.00000
     31      -2.1227      2.00000
     32      -2.1022      2.00000
     33      -2.0512      2.00000
     34      -1.8083      2.00000
     35      -1.7955      2.00000
     36      -1.7308      2.00000
     37      -1.6352      2.00000
     38      -1.5768      2.00000
     39      -1.4818      2.00000
     40      -1.4586      2.00000
     41       0.1147      2.00000
     42       0.1516      2.00000
     43       0.6908      2.00000
     44       1.3402      2.00000
     45       1.4601      2.00000
     46       1.6310      2.00000
     47       1.8152      2.00000
     48       2.1498      2.00000
     49       2.5507      2.00000
     50       2.5604      2.00000
     51       2.6816      2.00000
     52       2.6908      2.00000
     53       2.8486      2.00000
     54       3.0158      2.00000
     55       3.1522      2.00000
     56       3.1581      2.00000
     57       3.2845      2.00000
     58       3.3024      2.00000
     59       3.4157      2.00000
     60       3.7263      2.00000
     61       4.0043      2.00000
     62       4.0932      2.00000
     63       4.9674      0.00000
     64       5.4431      0.00000
     65       6.4991      0.00000
     66       6.6539      0.00000
     67       7.2461      0.00000
     68       7.8150      0.00000
     69       8.0138      0.00000
     70       8.0721      0.00000
     71       8.3341      0.00000
     72       8.3353      0.00000
     73       8.8997      0.00000
     74       8.9618      0.00000
     75       9.0119      0.00000
     76       9.2557      0.00000
     77       9.8736      0.00000
     78      10.0321      0.00000
     79      10.0969      0.00000
     80      10.1604      0.00000

 k-point   177 :       0.1111    0.0556    0.5000
  band No.  band energies     occupation 
      1     -11.2183      2.00000
      2     -11.2157      2.00000
      3     -11.0661      2.00000
      4     -11.0580      2.00000
      5     -10.9896      2.00000
      6     -10.9891      2.00000
      7     -10.8614      2.00000
      8     -10.8597      2.00000
      9     -10.8422      2.00000
     10     -10.8420      2.00000
     11     -10.0658      2.00000
     12     -10.0655      2.00000
     13      -9.9528      2.00000
     14      -9.9524      2.00000
     15      -9.9031      2.00000
     16      -9.9026      2.00000
     17      -9.8242      2.00000
     18      -9.8234      2.00000
     19      -9.8062      2.00000
     20      -9.8062      2.00000
     21      -9.7074      2.00000
     22      -9.4826      2.00000
     23      -8.7127      2.00000
     24      -8.7040      2.00000
     25      -8.4964      2.00000
     26      -7.9182      2.00000
     27      -7.5857      2.00000
     28      -7.5580      2.00000
     29      -2.2349      2.00000
     30      -2.1696      2.00000
     31      -2.1155      2.00000
     32      -2.0724      2.00000
     33      -1.9904      2.00000
     34      -1.8235      2.00000
     35      -1.7948      2.00000
     36      -1.7394      2.00000
     37      -1.6036      2.00000
     38      -1.5840      2.00000
     39      -1.4979      2.00000
     40      -1.4580      2.00000
     41       0.0915      2.00000
     42       0.0998      2.00000
     43       0.5344      2.00000
     44       0.8330      2.00000
     45       1.1934      2.00000
     46       1.4821      2.00000
     47       1.6866      2.00000
     48       1.9100      2.00000
     49       2.1158      2.00000
     50       2.1720      2.00000
     51       2.3538      2.00000
     52       2.4066      2.00000
     53       2.6554      2.00000
     54       2.8016      2.00000
     55       2.9586      2.00000
     56       2.9997      2.00000
     57       3.1215      2.00000
     58       3.2944      2.00000
     59       3.3381      2.00000
     60       3.4799      2.00000
     61       3.8601      2.00000
     62       4.1548      2.00000
     63       5.3052      0.00000
     64       5.6756      0.00000
     65       6.7991      0.00000
     66       6.8363      0.00000
     67       7.6939      0.00000
     68       7.8565      0.00000
     69       8.0108      0.00000
     70       8.1522      0.00000
     71       8.4816      0.00000
     72       8.5383      0.00000
     73       8.8032      0.00000
     74       8.9400      0.00000
     75       9.2116      0.00000
     76       9.3950      0.00000
     77       9.9831      0.00000
     78      10.0865      0.00000
     79      10.1845      0.00000
     80      10.4390      0.00000

 k-point   178 :       0.1667    0.0556    0.5000
  band No.  band energies     occupation 
      1     -11.2461      2.00000
      2     -11.2398      2.00000
      3     -11.0856      2.00000
      4     -11.0775      2.00000
      5     -10.9772      2.00000
      6     -10.9766      2.00000
      7     -10.8698      2.00000
      8     -10.8681      2.00000
      9     -10.8410      2.00000
     10     -10.8408      2.00000
     11     -10.1248      2.00000
     12     -10.1247      2.00000
     13      -9.9465      2.00000
     14      -9.9464      2.00000
     15      -9.8821      2.00000
     16      -9.8820      2.00000
     17      -9.8282      2.00000
     18      -9.8280      2.00000
     19      -9.8002      2.00000
     20      -9.8002      2.00000
     21      -9.5142      2.00000
     22      -9.3016      2.00000
     23      -8.5928      2.00000
     24      -8.5811      2.00000
     25      -8.3887      2.00000
     26      -7.8386      2.00000
     27      -7.4548      2.00000
     28      -7.4374      2.00000
     29      -2.2372      2.00000
     30      -2.1305      2.00000
     31      -2.1002      2.00000
     32      -2.0305      2.00000
     33      -1.9312      2.00000
     34      -1.8397      2.00000
     35      -1.8111      2.00000
     36      -1.7507      2.00000
     37      -1.6437      2.00000
     38      -1.5343      2.00000
     39      -1.5083      2.00000
     40      -1.4573      2.00000
     41      -0.1652      2.00000
     42      -0.0468      2.00000
     43       0.3158      2.00000
     44       0.5475      2.00000
     45       0.8819      2.00000
     46       1.2945      2.00000
     47       1.5013      2.00000
     48       1.5207      2.00000
     49       1.6075      2.00000
     50       1.6924      2.00000
     51       2.0393      2.00000
     52       2.1979      2.00000
     53       2.3415      2.00000
     54       2.6070      2.00000
     55       2.7170      2.00000
     56       2.8024      2.00000
     57       2.8957      2.00000
     58       3.2367      2.00000
     59       3.3196      2.00000
     60       3.3777      2.00000
     61       3.6860      2.00000
     62       4.1287      2.00000
     63       5.6337      0.00000
     64       5.8468      0.00000
     65       6.8100      0.00000
     66       6.9124      0.00000
     67       7.5431      0.00000
     68       7.8302      0.00000
     69       8.0423      0.00000
     70       8.4353      0.00000
     71       8.7191      0.00000
     72       8.7973      0.00000
     73       8.9726      0.00000
     74       9.1333      0.00000
     75       9.4808      0.00000
     76       9.6052      0.00000
     77       9.8365      0.00000
     78      10.2693      0.00000
     79      10.4299      0.00000
     80      10.7196      0.00000

 k-point   179 :       0.2222    0.0556    0.5000
  band No.  band energies     occupation 
      1     -11.2848      2.00000
      2     -11.2753      2.00000
      3     -11.0925      2.00000
      4     -11.0860      2.00000
      5     -10.9643      2.00000
      6     -10.9637      2.00000
      7     -10.8774      2.00000
      8     -10.8759      2.00000
      9     -10.8385      2.00000
     10     -10.8382      2.00000
     11     -10.1865      2.00000
     12     -10.1865      2.00000
     13      -9.9399      2.00000
     14      -9.9399      2.00000
     15      -9.8679      2.00000
     16      -9.8679      2.00000
     17      -9.8281      2.00000
     18      -9.8281      2.00000
     19      -9.7912      2.00000
     20      -9.7912      2.00000
     21      -9.2870      2.00000
     22      -9.0890      2.00000
     23      -8.4433      2.00000
     24      -8.4292      2.00000
     25      -8.2579      2.00000
     26      -7.7529      2.00000
     27      -7.3110      2.00000
     28      -7.3011      2.00000
     29      -2.2282      2.00000
     30      -2.0871      2.00000
     31      -2.0708      2.00000
     32      -1.9807      2.00000
     33      -1.9170      2.00000
     34      -1.9011      2.00000
     35      -1.8460      2.00000
     36      -1.7631      2.00000
     37      -1.6889      2.00000
     38      -1.5249      2.00000
     39      -1.4825      2.00000
     40      -1.4537      2.00000
     41      -0.5323      2.00000
     42      -0.4035      2.00000
     43      -0.0093      2.00000
     44       0.5710      2.00000
     45       0.6192      2.00000
     46       0.9654      2.00000
     47       1.0932      2.00000
     48       1.1739      2.00000
     49       1.2962      2.00000
     50       1.3565      2.00000
     51       1.7849      2.00000
     52       1.9636      2.00000
     53       2.0396      2.00000
     54       2.3447      2.00000
     55       2.4382      2.00000
     56       2.5959      2.00000
     57       2.8272      2.00000
     58       3.1550      2.00000
     59       3.2932      2.00000
     60       3.3465      2.00000
     61       3.5141      2.00000
     62       4.0359      2.00000
     63       5.8502      0.00000
     64       5.8890      0.00000
     65       6.6044      0.00000
     66       6.7750      0.00000
     67       7.3036      0.00000
     68       7.6366      0.00000
     69       8.1386      0.00000
     70       8.6645      0.00000
     71       8.8669      0.00000
     72       8.9794      0.00000
     73       9.1521      0.00000
     74       9.3440      0.00000
     75       9.6619      0.00000
     76       9.8372      0.00000
     77       9.9870      0.00000
     78      10.5793      0.00000
     79      10.7277      0.00000
     80      10.8201      0.00000

 k-point   180 :       0.2778    0.0556    0.5000
  band No.  band energies     occupation 
      1     -11.3246      2.00000
      2     -11.3142      2.00000
      3     -11.0919      2.00000
      4     -11.0869      2.00000
      5     -10.9530      2.00000
      6     -10.9523      2.00000
      7     -10.8841      2.00000
      8     -10.8826      2.00000
      9     -10.8342      2.00000
     10     -10.8339      2.00000
     11     -10.2436      2.00000
     12     -10.2435      2.00000
     13      -9.9348      2.00000
     14      -9.9348      2.00000
     15      -9.8643      2.00000
     16      -9.8643      2.00000
     17      -9.8197      2.00000
     18      -9.8197      2.00000
     19      -9.7804      2.00000
     20      -9.7804      2.00000
     21      -9.0441      2.00000
     22      -8.8635      2.00000
     23      -8.2790      2.00000
     24      -8.2636      2.00000
     25      -8.1165      2.00000
     26      -7.6724      2.00000
     27      -7.1726      2.00000
     28      -7.1675      2.00000
     29      -2.2021      2.00000
     30      -2.0980      2.00000
     31      -2.0446      2.00000
     32      -2.0240      2.00000
     33      -1.9451      2.00000
     34      -1.9293      2.00000
     35      -1.9035      2.00000
     36      -1.7748      2.00000
     37      -1.7286      2.00000
     38      -1.5360      2.00000
     39      -1.4661      2.00000
     40      -1.4272      2.00000
     41      -0.8920      2.00000
     42      -0.8337      2.00000
     43      -0.1524      2.00000
     44       0.2974      2.00000
     45       0.4624      2.00000
     46       0.5839      2.00000
     47       0.7976      2.00000
     48       0.8917      2.00000
     49       1.0534      2.00000
     50       1.1829      2.00000
     51       1.6039      2.00000
     52       1.7635      2.00000
     53       1.8519      2.00000
     54       2.1134      2.00000
     55       2.1882      2.00000
     56       2.3495      2.00000
     57       2.8387      2.00000
     58       3.0668      2.00000
     59       3.2555      2.00000
     60       3.3144      2.00000
     61       3.3846      2.00000
     62       3.8957      2.00000
     63       5.7925      0.00000
     64       5.9247      0.00000
     65       6.3877      0.00000
     66       6.5843      0.00000
     67       7.0974      0.00000
     68       7.4385      0.00000
     69       8.0713      0.00000
     70       8.7011      0.00000
     71       8.9366      0.00000
     72       9.0282      0.00000
     73       9.2355      0.00000
     74       9.4684      0.00000
     75       9.6690      0.00000
     76       9.9580      0.00000
     77      10.2408      0.00000
     78      10.5553      0.00000
     79      10.8241      0.00000
     80      10.9195      0.00000

 k-point   181 :       0.3333    0.0556    0.5000
  band No.  band energies     occupation 
      1     -11.3582      2.00000
      2     -11.3487      2.00000
      3     -11.0888      2.00000
      4     -11.0847      2.00000
      5     -10.9446      2.00000
      6     -10.9438      2.00000
      7     -10.8894      2.00000
      8     -10.8881      2.00000
      9     -10.8288      2.00000
     10     -10.8285      2.00000
     11     -10.2905      2.00000
     12     -10.2905      2.00000
     13      -9.9315      2.00000
     14      -9.9315      2.00000
     15      -9.8667      2.00000
     16      -9.8667      2.00000
     17      -9.8076      2.00000
     18      -9.8076      2.00000
     19      -9.7698      2.00000
     20      -9.7698      2.00000
     21      -8.8081      2.00000
     22      -8.6487      2.00000
     23      -8.1212      2.00000
     24      -8.1071      2.00000
     25      -7.9803      2.00000
     26      -7.6086      2.00000
     27      -7.0559      2.00000
     28      -7.0536      2.00000
     29      -2.3451      2.00000
     30      -2.1547      2.00000
     31      -2.1417      2.00000
     32      -1.9923      2.00000
     33      -1.9726      2.00000
     34      -1.9233      2.00000
     35      -1.8830      2.00000
     36      -1.7832      2.00000
     37      -1.7540      2.00000
     38      -1.5517      2.00000
     39      -1.4653      2.00000
     40      -1.3950      2.00000
     41      -1.2111      2.00000
     42      -1.1874      2.00000
     43      -0.1668      2.00000
     44      -0.0873      2.00000
     45       0.2340      2.00000
     46       0.4416      2.00000
     47       0.4942      2.00000
     48       0.6861      2.00000
     49       0.8776      2.00000
     50       1.0399      2.00000
     51       1.5110      2.00000
     52       1.6945      2.00000
     53       1.7475      2.00000
     54       1.9487      2.00000
     55       1.9696      2.00000
     56       2.1402      2.00000
     57       2.8486      2.00000
     58       2.9718      2.00000
     59       3.2112      2.00000
     60       3.2569      2.00000
     61       3.3369      2.00000
     62       3.7326      2.00000
     63       5.6530      0.00000
     64       5.8653      0.00000
     65       6.2224      0.00000
     66       6.4246      0.00000
     67       6.9525      0.00000
     68       7.2678      0.00000
     69       7.9547      0.00000
     70       8.6252      0.00000
     71       8.8949      0.00000
     72       8.9385      0.00000
     73       9.2945      0.00000
     74       9.5156      0.00000
     75       9.6462      0.00000
     76       9.8798      0.00000
     77      10.2446      0.00000
     78      10.4291      0.00000
     79      10.7947      0.00000
     80      11.0419      0.00000

 k-point   182 :       0.3889    0.0556    0.5000
  band No.  band energies     occupation 
      1     -11.3818      2.00000
      2     -11.3740      2.00000
      3     -11.0859      2.00000
      4     -11.0823      2.00000
      5     -10.9394      2.00000
      6     -10.9385      2.00000
      7     -10.8931      2.00000
      8     -10.8918      2.00000
      9     -10.8237      2.00000
     10     -10.8235      2.00000
     11     -10.3236      2.00000
     12     -10.3236      2.00000
     13      -9.9299      2.00000
     14      -9.9299      2.00000
     15      -9.8698      2.00000
     16      -9.8698      2.00000
     17      -9.7973      2.00000
     18      -9.7972      2.00000
     19      -9.7617      2.00000
     20      -9.7617      2.00000
     21      -8.6099      2.00000
     22      -8.4758      2.00000
     23      -7.9959      2.00000
     24      -7.9867      2.00000
     25      -7.8672      2.00000
     26      -7.5701      2.00000
     27      -6.9732      2.00000
     28      -6.9725      2.00000
     29      -2.5588      2.00000
     30      -2.3728      2.00000
     31      -2.1030      2.00000
     32      -1.9479      2.00000
     33      -1.9328      2.00000
     34      -1.9192      2.00000
     35      -1.8459      2.00000
     36      -1.7865      2.00000
     37      -1.7588      2.00000
     38      -1.5740      2.00000
     39      -1.4739      2.00000
     40      -1.4636      2.00000
     41      -1.4445      2.00000
     42      -1.3631      2.00000
     43      -0.4380      2.00000
     44      -0.0902      2.00000
     45       0.0842      2.00000
     46       0.2838      2.00000
     47       0.3294      2.00000
     48       0.5316      2.00000
     49       0.7874      2.00000
     50       0.9351      2.00000
     51       1.4578      2.00000
     52       1.5773      2.00000
     53       1.6991      2.00000
     54       1.7711      2.00000
     55       1.9888      2.00000
     56       1.9970      2.00000
     57       2.8419      2.00000
     58       2.8892      2.00000
     59       3.1621      2.00000
     60       3.2276      2.00000
     61       3.3168      2.00000
     62       3.5837      2.00000
     63       5.5433      0.00000
     64       5.7556      0.00000
     65       6.1124      0.00000
     66       6.3064      0.00000
     67       6.8844      0.00000
     68       7.1300      0.00000
     69       7.8530      0.00000
     70       8.5663      0.00000
     71       8.7827      0.00000
     72       8.8448      0.00000
     73       9.3228      0.00000
     74       9.5020      0.00000
     75       9.6134      0.00000
     76       9.7515      0.00000
     77      10.1981      0.00000
     78      10.3067      0.00000
     79      10.8240      0.00000
     80      10.9941      0.00000

 k-point   183 :       0.4444    0.0556    0.5000
  band No.  band energies     occupation 
      1     -11.3938      2.00000
      2     -11.3875      2.00000
      3     -11.0842      2.00000
      4     -11.0809      2.00000
      5     -10.9370      2.00000
      6     -10.9361      2.00000
      7     -10.8951      2.00000
      8     -10.8938      2.00000
      9     -10.8206      2.00000
     10     -10.8204      2.00000
     11     -10.3407      2.00000
     12     -10.3406      2.00000
     13      -9.9292      2.00000
     14      -9.9292      2.00000
     15      -9.8717      2.00000
     16      -9.8717      2.00000
     17      -9.7915      2.00000
     18      -9.7915      2.00000
     19      -9.7573      2.00000
     20      -9.7573      2.00000
     21      -8.4909      2.00000
     22      -8.3790      2.00000
     23      -7.9271      2.00000
     24      -7.9235      2.00000
     25      -7.7986      2.00000
     26      -7.5564      2.00000
     27      -6.9312      2.00000
     28      -6.9305      2.00000
     29      -2.6779      2.00000
     30      -2.5222      2.00000
     31      -2.0698      2.00000
     32      -1.9509      2.00000
     33      -1.9104      2.00000
     34      -1.8851      2.00000
     35      -1.8071      2.00000
     36      -1.7851      2.00000
     37      -1.7508      2.00000
     38      -1.6137      2.00000
     39      -1.5867      2.00000
     40      -1.5709      2.00000
     41      -1.4672      2.00000
     42      -1.3878      2.00000
     43      -0.6096      2.00000
     44      -0.1290      2.00000
     45       0.0659      2.00000
     46       0.1989      2.00000
     47       0.2411      2.00000
     48       0.4815      2.00000
     49       0.7638      2.00000
     50       0.8802      2.00000
     51       1.4349      2.00000
     52       1.4935      2.00000
     53       1.6111      2.00000
     54       1.6839      2.00000
     55       1.9094      2.00000
     56       2.1032      2.00000
     57       2.8239      2.00000
     58       2.8376      2.00000
     59       3.1319      2.00000
     60       3.2205      2.00000
     61       3.3053      2.00000
     62       3.4937      2.00000
     63       5.4932      0.00000
     64       5.6723      0.00000
     65       6.0580      0.00000
     66       6.2415      0.00000
     67       6.8761      0.00000
     68       7.0371      0.00000
     69       7.7964      0.00000
     70       8.5413      0.00000
     71       8.7039      0.00000
     72       8.7891      0.00000
     73       9.3356      0.00000
     74       9.4726      0.00000
     75       9.6008      0.00000
     76       9.6622      0.00000
     77      10.1772      0.00000
     78      10.2250      0.00000
     79      10.8839      0.00000
     80      10.9744      0.00000

 k-point   184 :       0.1111    0.1111    0.5000
  band No.  band energies     occupation 
      1     -11.2407      2.00000
      2     -11.2349      2.00000
      3     -11.0837      2.00000
      4     -11.0754      2.00000
      5     -10.9796      2.00000
      6     -10.9790      2.00000
      7     -10.8681      2.00000
      8     -10.8664      2.00000
      9     -10.8418      2.00000
     10     -10.8416      2.00000
     11     -10.1111      2.00000
     12     -10.1109      2.00000
     13      -9.9565      2.00000
     14      -9.9563      2.00000
     15      -9.8813      2.00000
     16      -9.8812      2.00000
     17      -9.8282      2.00000
     18      -9.8281      2.00000
     19      -9.8012      2.00000
     20      -9.8012      2.00000
     21      -9.5443      2.00000
     22      -9.3297      2.00000
     23      -8.6106      2.00000
     24      -8.6002      2.00000
     25      -8.4057      2.00000
     26      -7.8509      2.00000
     27      -7.4754      2.00000
     28      -7.4566      2.00000
     29      -2.2375      2.00000
     30      -2.1377      2.00000
     31      -2.1021      2.00000
     32      -2.0365      2.00000
     33      -1.9371      2.00000
     34      -1.8370      2.00000
     35      -1.8034      2.00000
     36      -1.7514      2.00000
     37      -1.6352      2.00000
     38      -1.5413      2.00000
     39      -1.5089      2.00000
     40      -1.4564      2.00000
     41      -0.0992      2.00000
     42      -0.0138      2.00000
     43       0.4113      2.00000
     44       0.5361      2.00000
     45       0.9306      2.00000
     46       1.2851      2.00000
     47       1.5082      2.00000
     48       1.6675      2.00000
     49       1.6990      2.00000
     50       1.8599      2.00000
     51       1.8607      2.00000
     52       2.0826      2.00000
     53       2.3940      2.00000
     54       2.7453      2.00000
     55       2.8265      2.00000
     56       2.9925      2.00000
     57       3.0182      2.00000
     58       3.0706      2.00000
     59       3.1463      2.00000
     60       3.4013      2.00000
     61       3.6521      2.00000
     62       4.1532      2.00000
     63       5.6242      0.00000
     64       5.8604      0.00000
     65       6.9006      0.00000
     66       6.9694      0.00000
     67       7.7755      0.00000
     68       7.8043      0.00000
     69       8.1146      0.00000
     70       8.4309      0.00000
     71       8.6878      0.00000
     72       8.7108      0.00000
     73       8.8727      0.00000
     74       8.9149      0.00000
     75       9.4852      0.00000
     76       9.5162      0.00000
     77       9.9289      0.00000
     78      10.1312      0.00000
     79      10.2014      0.00000
     80      10.5409      0.00000

 k-point   185 :       0.1667    0.1111    0.5000
  band No.  band energies     occupation 
      1     -11.2741      2.00000
      2     -11.2652      2.00000
      3     -11.0922      2.00000
      4     -11.0854      2.00000
      5     -10.9685      2.00000
      6     -10.9678      2.00000
      7     -10.8745      2.00000
      8     -10.8730      2.00000
      9     -10.8405      2.00000
     10     -10.8403      2.00000
     11     -10.1630      2.00000
     12     -10.1630      2.00000
     13      -9.9581      2.00000
     14      -9.9580      2.00000
     15      -9.8639      2.00000
     16      -9.8639      2.00000
     17      -9.8316      2.00000
     18      -9.8316      2.00000
     19      -9.7931      2.00000
     20      -9.7931      2.00000
     21      -9.3391      2.00000
     22      -9.1375      2.00000
     23      -8.4736      2.00000
     24      -8.4623      2.00000
     25      -8.2879      2.00000
     26      -7.7722      2.00000
     27      -7.3448      2.00000
     28      -7.3335      2.00000
     29      -2.2319      2.00000
     30      -2.1012      2.00000
     31      -2.0750      2.00000
     32      -1.9895      2.00000
     33      -1.9103      2.00000
     34      -1.8644      2.00000
     35      -1.8372      2.00000
     36      -1.7663      2.00000
     37      -1.6760      2.00000
     38      -1.5196      2.00000
     39      -1.4990      2.00000
     40      -1.4508      2.00000
     41      -0.4107      2.00000
     42      -0.2736      2.00000
     43       0.0662      2.00000
     44       0.6058      2.00000
     45       0.6572      2.00000
     46       1.0441      2.00000
     47       1.1761      2.00000
     48       1.2766      2.00000
     49       1.3621      2.00000
     50       1.4378      2.00000
     51       1.5772      2.00000
     52       1.8749      2.00000
     53       2.0994      2.00000
     54       2.5425      2.00000
     55       2.6150      2.00000
     56       2.7232      2.00000
     57       2.8980      2.00000
     58       2.9943      2.00000
     59       3.0892      2.00000
     60       3.3724      2.00000
     61       3.4266      2.00000
     62       4.0907      2.00000
     63       5.9111      0.00000
     64       5.9825      0.00000
     65       6.8088      0.00000
     66       6.9321      0.00000
     67       7.5838      0.00000
     68       7.7823      0.00000
     69       8.4249      0.00000
     70       8.5655      0.00000
     71       8.7034      0.00000
     72       8.9047      0.00000
     73       9.1484      0.00000
     74       9.2397      0.00000
     75       9.5982      0.00000
     76       9.7394      0.00000
     77       9.8306      0.00000
     78      10.1997      0.00000
     79      10.5014      0.00000
     80      10.7582      0.00000

 k-point   186 :       0.2222    0.1111    0.5000
  band No.  band energies     occupation 
      1     -11.3116      2.00000
      2     -11.3013      2.00000
      3     -11.0931      2.00000
      4     -11.0878      2.00000
      5     -10.9581      2.00000
      6     -10.9574      2.00000
      7     -10.8802      2.00000
      8     -10.8788      2.00000
      9     -10.8379      2.00000
     10     -10.8377      2.00000
     11     -10.2154      2.00000
     12     -10.2153      2.00000
     13      -9.9581      2.00000
     14      -9.9581      2.00000
     15      -9.8557      2.00000
     16      -9.8557      2.00000
     17      -9.8288      2.00000
     18      -9.8288      2.00000
     19      -9.7831      2.00000
     20      -9.7831      2.00000
     21      -9.1088      2.00000
     22      -8.9225      2.00000
     23      -8.3135      2.00000
     24      -8.3019      2.00000
     25      -8.1532      2.00000
     26      -7.6930      2.00000
     27      -7.2114      2.00000
     28      -7.2054      2.00000
     29      -2.2114      2.00000
     30      -2.0641      2.00000
     31      -2.0319      2.00000
     32      -2.0095      2.00000
     33      -1.9361      2.00000
     34      -1.9156      2.00000
     35      -1.8721      2.00000
     36      -1.7813      2.00000
     37      -1.7167      2.00000
     38      -1.5295      2.00000
     39      -1.4783      2.00000
     40      -1.4278      2.00000
     41      -0.7452      2.00000
     42      -0.6646      2.00000
     43      -0.1180      2.00000
     44       0.4152      2.00000
     45       0.6028      2.00000
     46       0.6727      2.00000
     47       0.7970      2.00000
     48       0.9338      2.00000
     49       1.0841      2.00000
     50       1.1702      2.00000
     51       1.4002      2.00000
     52       1.7268      2.00000
     53       1.8648      2.00000
     54       2.2409      2.00000
     55       2.3651      2.00000
     56       2.4197      2.00000
     57       2.8292      2.00000
     58       2.9253      2.00000
     59       3.0811      2.00000
     60       3.2280      2.00000
     61       3.3711      2.00000
     62       3.9758      2.00000
     63       5.9924      0.00000
     64       6.0955      0.00000
     65       6.6124      0.00000
     66       6.7670      0.00000
     67       7.3949      0.00000
     68       7.6824      0.00000
     69       8.4966      0.00000
     70       8.7012      0.00000
     71       8.8514      0.00000
     72       9.0410      0.00000
     73       9.2454      0.00000
     74       9.4284      0.00000
     75       9.5980      0.00000
     76       9.9761      0.00000
     77      10.0588      0.00000
     78      10.4616      0.00000
     79      10.5905      0.00000
     80      10.8529      0.00000

 k-point   187 :       0.2778    0.1111    0.5000
  band No.  band energies     occupation 
      1     -11.3459      2.00000
      2     -11.3359      2.00000
      3     -11.0903      2.00000
      4     -11.0862      2.00000
      5     -10.9499      2.00000
      6     -10.9491      2.00000
      7     -10.8849      2.00000
      8     -10.8836      2.00000
      9     -10.8340      2.00000
     10     -10.8337      2.00000
     11     -10.2619      2.00000
     12     -10.2619      2.00000
     13      -9.9578      2.00000
     14      -9.9578      2.00000
     15      -9.8569      2.00000
     16      -9.8569      2.00000
     17      -9.8181      2.00000
     18      -9.8181      2.00000
     19      -9.7740      2.00000
     20      -9.7740      2.00000
     21      -8.8730      2.00000
     22      -8.7059      2.00000
     23      -8.1487      2.00000
     24      -8.1376      2.00000
     25      -8.0158      2.00000
     26      -7.6246      2.00000
     27      -7.0920      2.00000
     28      -7.0892      2.00000
     29      -2.2265      2.00000
     30      -2.1685      2.00000
     31      -2.0398      2.00000
     32      -2.0135      2.00000
     33      -1.9819      2.00000
     34      -1.9096      2.00000
     35      -1.8824      2.00000
     36      -1.7926      2.00000
     37      -1.7497      2.00000
     38      -1.5406      2.00000
     39      -1.4757      2.00000
     40      -1.3925      2.00000
     41      -1.0659      2.00000
     42      -1.0329      2.00000
     43      -0.1773      2.00000
     44       0.1250      2.00000
     45       0.3046      2.00000
     46       0.4820      2.00000
     47       0.5891      2.00000
     48       0.6178      2.00000
     49       0.8722      2.00000
     50       0.9827      2.00000
     51       1.3032      2.00000
     52       1.5923      2.00000
     53       1.7894      2.00000
     54       1.9744      2.00000
     55       2.1321      2.00000
     56       2.1476      2.00000
     57       2.7394      2.00000
     58       2.8582      2.00000
     59       3.0698      2.00000
     60       3.1052      2.00000
     61       3.3742      2.00000
     62       3.8245      2.00000
     63       5.9183      0.00000
     64       6.1364      0.00000
     65       6.4204      0.00000
     66       6.6001      0.00000
     67       7.2345      0.00000
     68       7.5223      0.00000
     69       8.4340      0.00000
     70       8.8181      0.00000
     71       8.9180      0.00000
     72       9.0228      0.00000
     73       9.1831      0.00000
     74       9.5244      0.00000
     75       9.6185      0.00000
     76      10.0126      0.00000
     77      10.2514      0.00000
     78      10.4805      0.00000
     79      10.7574      0.00000
     80      10.9883      0.00000

 k-point   188 :       0.3333    0.1111    0.5000
  band No.  band energies     occupation 
      1     -11.3724      2.00000
      2     -11.3640      2.00000
      3     -11.0868      2.00000
      4     -11.0834      2.00000
      5     -10.9445      2.00000
      6     -10.9436      2.00000
      7     -10.8885      2.00000
      8     -10.8873      2.00000
      9     -10.8295      2.00000
     10     -10.8293      2.00000
     11     -10.2981      2.00000
     12     -10.2981      2.00000
     13      -9.9577      2.00000
     14      -9.9576      2.00000
     15      -9.8604      2.00000
     16      -9.8604      2.00000
     17      -9.8056      2.00000
     18      -9.8056      2.00000
     19      -9.7676      2.00000
     20      -9.7676      2.00000
     21      -8.6577      2.00000
     22      -8.5150      2.00000
     23      -8.0030      2.00000
     24      -7.9942      2.00000
     25      -7.8923      2.00000
     26      -7.5772      2.00000
     27      -7.0000      2.00000
     28      -6.9990      2.00000
     29      -2.4436      2.00000
     30      -2.2509      2.00000
     31      -2.1152      2.00000
     32      -1.9735      2.00000
     33      -1.9362      2.00000
     34      -1.9166      2.00000
     35      -1.8362      2.00000
     36      -1.7949      2.00000
     37      -1.7676      2.00000
     38      -1.5537      2.00000
     39      -1.4779      2.00000
     40      -1.3831      2.00000
     41      -1.3302      2.00000
     42      -1.3181      2.00000
     43      -0.2563      2.00000
     44      -0.1263      2.00000
     45       0.1542      2.00000
     46       0.3201      2.00000
     47       0.3575      2.00000
     48       0.4314      2.00000
     49       0.7411      2.00000
     50       0.8437      2.00000
     51       1.2638      2.00000
     52       1.4723      2.00000
     53       1.7359      2.00000
     54       1.7974      2.00000
     55       1.8917      2.00000
     56       2.0695      2.00000
     57       2.6412      2.00000
     58       2.7919      2.00000
     59       2.9896      2.00000
     60       3.1174      2.00000
     61       3.3719      2.00000
     62       3.6639      2.00000
     63       5.8179      0.00000
     64       6.0618      0.00000
     65       6.2888      0.00000
     66       6.4784      0.00000
     67       7.1328      0.00000
     68       7.3685      0.00000
     69       8.3402      0.00000
     70       8.8007      0.00000
     71       8.8921      0.00000
     72       9.0217      0.00000
     73       9.1184      0.00000
     74       9.4817      0.00000
     75       9.6403      0.00000
     76       9.9209      0.00000
     77      10.2814      0.00000
     78      10.4432      0.00000
     79      10.9436      0.00000
     80      11.0942      0.00000

 k-point   189 :       0.3889    0.1111    0.5000
  band No.  band energies     occupation 
      1     -11.3888      2.00000
      2     -11.3823      2.00000
      3     -11.0843      2.00000
      4     -11.0812      2.00000
      5     -10.9415      2.00000
      6     -10.9406      2.00000
      7     -10.8907      2.00000
      8     -10.8895      2.00000
      9     -10.8260      2.00000
     10     -10.8258      2.00000
     11     -10.3210      2.00000
     12     -10.3209      2.00000
     13      -9.9577      2.00000
     14      -9.9577      2.00000
     15      -9.8632      2.00000
     16      -9.8632      2.00000
     17      -9.7958      2.00000
     18      -9.7958      2.00000
     19      -9.7647      2.00000
     20      -9.7647      2.00000
     21      -8.4982      2.00000
     22      -8.3828      2.00000
     23      -7.9024      2.00000
     24      -7.8982      2.00000
     25      -7.8008      2.00000
     26      -7.5557      2.00000
     27      -6.9436      2.00000
     28      -6.9429      2.00000
     29      -2.5995      2.00000
     30      -2.4387      2.00000
     31      -2.0653      2.00000
     32      -1.9470      2.00000
     33      -1.9140      2.00000
     34      -1.9035      2.00000
     35      -1.8077      2.00000
     36      -1.7795      2.00000
     37      -1.7637      2.00000
     38      -1.5695      2.00000
     39      -1.5312      2.00000
     40      -1.5129      2.00000
     41      -1.4806      2.00000
     42      -1.3624      2.00000
     43      -0.5023      2.00000
     44      -0.0894      2.00000
     45       0.0493      2.00000
     46       0.2231      2.00000
     47       0.2319      2.00000
     48       0.2893      2.00000
     49       0.6767      2.00000
     50       0.7673      2.00000
     51       1.2831      2.00000
     52       1.4271      2.00000
     53       1.5912      2.00000
     54       1.6521      2.00000
     55       1.7189      2.00000
     56       2.1696      2.00000
     57       2.5775      2.00000
     58       2.7307      2.00000
     59       2.9374      2.00000
     60       3.1384      2.00000
     61       3.3606      2.00000
     62       3.5371      2.00000
     63       5.7483      0.00000
     64       5.9583      0.00000
     65       6.2130      0.00000
     66       6.4097      0.00000
     67       7.0921      0.00000
     68       7.2528      0.00000
     69       8.2676      0.00000
     70       8.7249      0.00000
     71       8.8573      0.00000
     72       8.9487      0.00000
     73       9.2045      0.00000
     74       9.4140      0.00000
     75       9.6020      0.00000
     76       9.8361      0.00000
     77      10.2911      0.00000
     78      10.3804      0.00000
     79      10.9438      0.00000
     80      10.9762      0.00000

 k-point   190 :       0.4444    0.1111    0.5000
  band No.  band energies     occupation 
      1     -11.3942      2.00000
      2     -11.3887      2.00000
      3     -11.0834      2.00000
      4     -11.0804      2.00000
      5     -10.9406      2.00000
      6     -10.9396      2.00000
      7     -10.8914      2.00000
      8     -10.8903      2.00000
      9     -10.8246      2.00000
     10     -10.8244      2.00000
     11     -10.3288      2.00000
     12     -10.3287      2.00000
     13      -9.9578      2.00000
     14      -9.9578      2.00000
     15      -9.8642      2.00000
     16      -9.8642      2.00000
     17      -9.7919      2.00000
     18      -9.7919      2.00000
     19      -9.7641      2.00000
     20      -9.7641      2.00000
     21      -8.4370      2.00000
     22      -8.3362      2.00000
     23      -7.8662      2.00000
     24      -7.8656      2.00000
     25      -7.7648      2.00000
     26      -7.5519      2.00000
     27      -6.9249      2.00000
     28      -6.9240      2.00000
     29      -2.6540      2.00000
     30      -2.5127      2.00000
     31      -2.0459      2.00000
     32      -1.9459      2.00000
     33      -1.9025      2.00000
     34      -1.8961      2.00000
     35      -1.8020      2.00000
     36      -1.7584      2.00000
     37      -1.7577      2.00000
     38      -1.6077      2.00000
     39      -1.5876      2.00000
     40      -1.5435      2.00000
     41      -1.4870      2.00000
     42      -1.3832      2.00000
     43      -0.5827      2.00000
     44      -0.1247      2.00000
     45       0.0622      2.00000
     46       0.1864      2.00000
     47       0.2073      2.00000
     48       0.2217      2.00000
     49       0.6552      2.00000
     50       0.7459      2.00000
     51       1.3485      2.00000
     52       1.4073      2.00000
     53       1.4898      2.00000
     54       1.5936      2.00000
     55       1.6555      2.00000
     56       2.2287      2.00000
     57       2.5616      2.00000
     58       2.6992      2.00000
     59       2.9192      2.00000
     60       3.1445      2.00000
     61       3.3543      2.00000
     62       3.4889      2.00000
     63       5.7266      0.00000
     64       5.9127      0.00000
     65       6.1864      0.00000
     66       6.3878      0.00000
     67       7.0884      0.00000
     68       7.2046      0.00000
     69       8.2411      0.00000
     70       8.6894      0.00000
     71       8.8616      0.00000
     72       8.8972      0.00000
     73       9.3045      0.00000
     74       9.3318      0.00000
     75       9.5790      0.00000
     76       9.8043      0.00000
     77      10.3238      0.00000
     78      10.3246      0.00000
     79      10.9333      0.00000
     80      10.9869      0.00000

 k-point   191 :       0.1667    0.1667    0.5000
  band No.  band energies     occupation 
      1     -11.3067      2.00000
      2     -11.2964      2.00000
      3     -11.0936      2.00000
      4     -11.0882      2.00000
      5     -10.9602      2.00000
      6     -10.9595      2.00000
      7     -10.8784      2.00000
      8     -10.8771      2.00000
      9     -10.8396      2.00000
     10     -10.8395      2.00000
     11     -10.2023      2.00000
     12     -10.2023      2.00000
     13      -9.9705      2.00000
     14      -9.9705      2.00000
     15      -9.8496      2.00000
     16      -9.8496      2.00000
     17      -9.8349      2.00000
     18      -9.8349      2.00000
     19      -9.7840      2.00000
     20      -9.7840      2.00000
     21      -9.1308      2.00000
     22      -8.9426      2.00000
     23      -8.3238      2.00000
     24      -8.3148      2.00000
     25      -8.1656      2.00000
     26      -7.7004      2.00000
     27      -7.2253      2.00000
     28      -7.2190      2.00000
     29      -2.2145      2.00000
     30      -2.0705      2.00000
     31      -2.0342      2.00000
     32      -1.9773      2.00000
     33      -1.9380      2.00000
     34      -1.9098      2.00000
     35      -1.8575      2.00000
     36      -1.7850      2.00000
     37      -1.7119      2.00000
     38      -1.5265      2.00000
     39      -1.4841      2.00000
     40      -1.4272      2.00000
     41      -0.6812      2.00000
     42      -0.5924      2.00000
     43      -0.0994      2.00000
     44       0.4470      2.00000
     45       0.6335      2.00000
     46       0.7349      2.00000
     47       0.7662      2.00000
     48       0.9916      2.00000
     49       1.1387      2.00000
     50       1.1611      2.00000
     51       1.2416      2.00000
     52       1.6768      2.00000
     53       1.9019      2.00000
     54       2.2001      2.00000
     55       2.4937      2.00000
     56       2.6405      2.00000
     57       2.7122      2.00000
     58       2.8260      2.00000
     59       2.9928      2.00000
     60       3.1382      2.00000
     61       3.3850      2.00000
     62       4.0049      2.00000
     63       6.0842      0.00000
     64       6.1607      0.00000
     65       6.7555      0.00000
     66       6.8530      0.00000
     67       7.7148      0.00000
     68       7.7186      0.00000
     69       8.4161      0.00000
     70       8.7185      0.00000
     71       8.8166      0.00000
     72       9.1207      0.00000
     73       9.4394      0.00000
     74       9.5293      0.00000
     75       9.6379      0.00000
     76       9.7982      0.00000
     77       9.9132      0.00000
     78      10.1277      0.00000
     79      10.5459      0.00000
     80      10.6836      0.00000

 k-point   192 :       0.2222    0.1667    0.5000
  band No.  band energies     occupation 
      1     -11.3383      2.00000
      2     -11.3280      2.00000
      3     -11.0913      2.00000
      4     -11.0872      2.00000
      5     -10.9536      2.00000
      6     -10.9528      2.00000
      7     -10.8813      2.00000
      8     -10.8802      2.00000
      9     -10.8379      2.00000
     10     -10.8377      2.00000
     11     -10.2395      2.00000
     12     -10.2394      2.00000
     13      -9.9811      2.00000
     14      -9.9811      2.00000
     15      -9.8447      2.00000
     16      -9.8447      2.00000
     17      -9.8307      2.00000
     18      -9.8307      2.00000
     19      -9.7759      2.00000
     20      -9.7759      2.00000
     21      -8.9066      2.00000
     22      -8.7356      2.00000
     23      -8.1588      2.00000
     24      -8.1529      2.00000
     25      -8.0334      2.00000
     26      -7.6336      2.00000
     27      -7.1127      2.00000
     28      -7.1096      2.00000
     29      -2.1821      2.00000
     30      -2.1448      2.00000
     31      -2.0345      2.00000
     32      -1.9876      2.00000
     33      -1.9700      2.00000
     34      -1.8975      2.00000
     35      -1.8819      2.00000
     36      -1.8016      2.00000
     37      -1.7465      2.00000
     38      -1.5336      2.00000
     39      -1.4839      2.00000
     40      -1.3905      2.00000
     41      -0.9612      2.00000
     42      -0.9195      2.00000
     43      -0.1816      2.00000
     44       0.2737      2.00000
     45       0.3502      2.00000
     46       0.4398      2.00000
     47       0.5792      2.00000
     48       0.6731      2.00000
     49       0.8462      2.00000
     50       0.9597      2.00000
     51       1.1192      2.00000
     52       1.5337      2.00000
     53       1.8206      2.00000
     54       1.8671      2.00000
     55       2.2649      2.00000
     56       2.3609      2.00000
     57       2.5883      2.00000
     58       2.6856      2.00000
     59       2.8964      2.00000
     60       3.0417      2.00000
     61       3.4028      2.00000
     62       3.8758      2.00000
     63       6.1196      0.00000
     64       6.3127      0.00000
     65       6.6222      0.00000
     66       6.7193      0.00000
     67       7.6110      0.00000
     68       7.7669      0.00000
     69       8.3594      0.00000
     70       8.8944      0.00000
     71       8.9477      0.00000
     72       9.2906      0.00000
     73       9.5079      0.00000
     74       9.5565      0.00000
     75       9.6722      0.00000
     76       9.9807      0.00000
     77      10.1533      0.00000
     78      10.3688      0.00000
     79      10.4707      0.00000
     80      10.8390      0.00000

 k-point   193 :       0.2778    0.1667    0.5000
  band No.  band energies     occupation 
      1     -11.3645      2.00000
      2     -11.3557      2.00000
      3     -11.0878      2.00000
      4     -11.0845      2.00000
      5     -10.9492      2.00000
      6     -10.9483      2.00000
      7     -10.8833      2.00000
      8     -10.8823      2.00000
      9     -10.8355      2.00000
     10     -10.8354      2.00000
     11     -10.2711      2.00000
     12     -10.2711      2.00000
     13      -9.9892      2.00000
     14      -9.9892      2.00000
     15      -9.8478      2.00000
     16      -9.8478      2.00000
     17      -9.8181      2.00000
     18      -9.8181      2.00000
     19      -9.7712      2.00000
     20      -9.7712      2.00000
     21      -8.6887      2.00000
     22      -8.5403      2.00000
     23      -8.0013      2.00000
     24      -7.9960      2.00000
     25      -7.9063      2.00000
     26      -7.5826      2.00000
     27      -7.0206      2.00000
     28      -7.0196      2.00000
     29      -2.3399      2.00000
     30      -2.1490      2.00000
     31      -2.1245      2.00000
     32      -1.9901      2.00000
     33      -1.9406      2.00000
     34      -1.8982      2.00000
     35      -1.8343      2.00000
     36      -1.8054      2.00000
     37      -1.7738      2.00000
     38      -1.5382      2.00000
     39      -1.4894      2.00000
     40      -1.3581      2.00000
     41      -1.2264      2.00000
     42      -1.2107      2.00000
     43      -0.1768      2.00000
     44      -0.0474      2.00000
     45       0.1658      2.00000
     46       0.1936      2.00000
     47       0.3826      2.00000
     48       0.4374      2.00000
     49       0.6727      2.00000
     50       0.8420      2.00000
     51       1.0530      2.00000
     52       1.3981      2.00000
     53       1.5467      2.00000
     54       1.8529      2.00000
     55       2.0097      2.00000
     56       2.1621      2.00000
     57       2.4479      2.00000
     58       2.5982      2.00000
     59       2.7446      2.00000
     60       3.0861      2.00000
     61       3.4153      2.00000
     62       3.7205      2.00000
     63       6.0945      0.00000
     64       6.3565      0.00000
     65       6.4557      0.00000
     66       6.5904      0.00000
     67       7.5129      0.00000
     68       7.6642      0.00000
     69       8.4974      0.00000
     70       8.9445      0.00000
     71       8.9735      0.00000
     72       9.2583      0.00000
     73       9.3788      0.00000
     74       9.5187      0.00000
     75       9.7337      0.00000
     76      10.1343      0.00000
     77      10.3285      0.00000
     78      10.4992      0.00000
     79      10.6974      0.00000
     80      11.0825      0.00000

 k-point   194 :       0.3333    0.1667    0.5000
  band No.  band energies     occupation 
      1     -11.3829      2.00000
      2     -11.3762      2.00000
      3     -11.0845      2.00000
      4     -11.0819      2.00000
      5     -10.9467      2.00000
      6     -10.9457      2.00000
      7     -10.8846      2.00000
      8     -10.8836      2.00000
      9     -10.8332      2.00000
     10     -10.8330      2.00000
     11     -10.2941      2.00000
     12     -10.2941      2.00000
     13      -9.9946      2.00000
     14      -9.9946      2.00000
     15      -9.8509      2.00000
     16      -9.8509      2.00000
     17      -9.8052      2.00000
     18      -9.8052      2.00000
     19      -9.7708      2.00000
     20      -9.7708      2.00000
     21      -8.5061      2.00000
     22      -8.3868      2.00000
     23      -7.8753      2.00000
     24      -7.8705      2.00000
     25      -7.8013      2.00000
     26      -7.5550      2.00000
     27      -6.9583      2.00000
     28      -6.9577      2.00000
     29      -2.4991      2.00000
     30      -2.3355      2.00000
     31      -2.0640      2.00000
     32      -1.9576      2.00000
     33      -1.9044      2.00000
     34      -1.8958      2.00000
     35      -1.8212      2.00000
     36      -1.7850      2.00000
     37      -1.7745      2.00000
     38      -1.5355      2.00000
     39      -1.4968      2.00000
     40      -1.4449      2.00000
     41      -1.4314      2.00000
     42      -1.3366      2.00000
     43      -0.3370      2.00000
     44      -0.1257      2.00000
     45      -0.0007      2.00000
     46       0.0697      2.00000
     47       0.1978      2.00000
     48       0.2824      2.00000
     49       0.5756      2.00000
     50       0.7527      2.00000
     51       1.0755      2.00000
     52       1.3167      2.00000
     53       1.3579      2.00000
     54       1.6998      2.00000
     55       1.7804      2.00000
     56       2.1825      2.00000
     57       2.3649      2.00000
     58       2.5262      2.00000
     59       2.6650      2.00000
     60       3.1181      2.00000
     61       3.4131      2.00000
     62       3.5726      2.00000
     63       6.0477      0.00000
     64       6.2796      0.00000
     65       6.3408      0.00000
     66       6.5303      0.00000
     67       7.4534      0.00000
     68       7.5431      0.00000
     69       8.6483      0.00000
     70       8.8925      0.00000
     71       8.9354      0.00000
     72       9.1822      0.00000
     73       9.3199      0.00000
     74       9.4153      0.00000
     75       9.7682      0.00000
     76      10.1566      0.00000
     77      10.4023      0.00000
     78      10.5439      0.00000
     79      10.8567      0.00000
     80      11.0423      0.00000

 k-point   195 :       0.3889    0.1667    0.5000
  band No.  band energies     occupation 
      1     -11.3922      2.00000
      2     -11.3872      2.00000
      3     -11.0827      2.00000
      4     -11.0803      2.00000
      5     -10.9456      2.00000
      6     -10.9446      2.00000
      7     -10.8852      2.00000
      8     -10.8843      2.00000
      9     -10.8317      2.00000
     10     -10.8315      2.00000
     11     -10.3061      2.00000
     12     -10.3061      2.00000
     13      -9.9973      2.00000
     14      -9.9973      2.00000
     15      -9.8527      2.00000
     16      -9.8527      2.00000
     17      -9.7956      2.00000
     18      -9.7955      2.00000
     19      -9.7733      2.00000
     20      -9.7733      2.00000
     21      -8.3963      2.00000
     22      -8.3040      2.00000
     23      -7.8042      2.00000
     24      -7.8018      2.00000
     25      -7.7367      2.00000
     26      -7.5492      2.00000
     27      -6.9280      2.00000
     28      -6.9270      2.00000
     29      -2.5856      2.00000
     30      -2.4558      2.00000
     31      -2.0214      2.00000
     32      -1.9441      2.00000
     33      -1.8985      2.00000
     34      -1.8833      2.00000
     35      -1.8179      2.00000
     36      -1.7728      2.00000
     37      -1.7529      2.00000
     38      -1.5683      2.00000
     39      -1.5601      2.00000
     40      -1.5084      2.00000
     41      -1.4863      2.00000
     42      -1.3628      2.00000
     43      -0.4856      2.00000
     44      -0.1292      2.00000
     45      -0.0838      2.00000
     46       0.0074      2.00000
     47       0.1380      2.00000
     48       0.1928      2.00000
     49       0.5129      2.00000
     50       0.6855      2.00000
     51       1.1723      2.00000
     52       1.2364      2.00000
     53       1.3718      2.00000
     54       1.4847      2.00000
     55       1.6356      2.00000
     56       2.1784      2.00000
     57       2.4157      2.00000
     58       2.4737      2.00000
     59       2.6330      2.00000
     60       3.1244      2.00000
     61       3.4017      2.00000
     62       3.4842      2.00000
     63       6.0176      0.00000
     64       6.1979      0.00000
     65       6.2784      0.00000
     66       6.5218      0.00000
     67       7.4343      0.00000
     68       7.4657      0.00000
     69       8.7387      0.00000
     70       8.8188      0.00000
     71       8.8894      0.00000
     72       9.1806      0.00000
     73       9.2979      0.00000
     74       9.3456      0.00000
     75       9.7514      0.00000
     76      10.1403      0.00000
     77      10.4576      0.00000
     78      10.5255      0.00000
     79      10.8333      0.00000
     80      11.0592      0.00000

 k-point   196 :       0.2222    0.2222    0.5000
  band No.  band energies     occupation 
      1     -11.3615      2.00000
      2     -11.3525      2.00000
      3     -11.0882      2.00000
      4     -11.0850      2.00000
      5     -10.9511      2.00000
      6     -10.9502      2.00000
      7     -10.8809      2.00000
      8     -10.8800      2.00000
      9     -10.8382      2.00000
     10     -10.8382      2.00000
     11     -10.2585      2.00000
     12     -10.2585      2.00000
     13     -10.0040      2.00000
     14     -10.0040      2.00000
     15      -9.8355      2.00000
     16      -9.8355      2.00000
     17      -9.8305      2.00000
     18      -9.8305      2.00000
     19      -9.7723      2.00000
     20      -9.7723      2.00000
     21      -8.6994      2.00000
     22      -8.5491      2.00000
     23      -7.9988      2.00000
     24      -7.9971      2.00000
     25      -7.9103      2.00000
     26      -7.5845      2.00000
     27      -7.0283      2.00000
     28      -7.0274      2.00000
     29      -2.2971      2.00000
     30      -2.1280      2.00000
     31      -2.1091      2.00000
     32      -1.9948      2.00000
     33      -1.9416      2.00000
     34      -1.8886      2.00000
     35      -1.8364      2.00000
     36      -1.8099      2.00000
     37      -1.7759      2.00000
     38      -1.5317      2.00000
     39      -1.4948      2.00000
     40      -1.3530      2.00000
     41      -1.1781      2.00000
     42      -1.1595      2.00000
     43      -0.1946      2.00000
     44       0.0621      2.00000
     45       0.1185      2.00000
     46       0.1516      2.00000
     47       0.3775      2.00000
     48       0.4208      2.00000
     49       0.7231      2.00000
     50       0.8139      2.00000
     51       0.9557      2.00000
     52       1.3705      2.00000
     53       1.4604      2.00000
     54       1.9058      2.00000
     55       2.0605      2.00000
     56       2.2538      2.00000
     57       2.3600      2.00000
     58       2.4718      2.00000
     59       2.6064      2.00000
     60       3.0844      2.00000
     61       3.4294      2.00000
     62       3.7407      2.00000
     63       6.2145      0.00000
     64       6.4369      0.00000
     65       6.5676      0.00000
     66       6.6253      0.00000
     67       7.7846      0.00000
     68       7.8333      0.00000
     69       8.2008      0.00000
     70       9.0053      0.00000
     71       9.2235      0.00000
     72       9.3515      0.00000
     73       9.6335      0.00000
     74       9.7057      0.00000
     75       9.8527      0.00000
     76       9.9422      0.00000
     77      10.3640      0.00000
     78      10.4718      0.00000
     79      10.5888      0.00000
     80      11.0016      0.00000

 k-point   197 :       0.2778    0.2222    0.5000
  band No.  band energies     occupation 
      1     -11.3790      2.00000
      2     -11.3721      2.00000
      3     -11.0848      2.00000
      4     -11.0824      2.00000
      5     -10.9501      2.00000
      6     -10.9491      2.00000
      7     -10.8795      2.00000
      8     -10.8788      2.00000
      9     -10.8389      2.00000
     10     -10.8388      2.00000
     11     -10.2723      2.00000
     12     -10.2723      2.00000
     13     -10.0230      2.00000
     14     -10.0230      2.00000
     15      -9.8367      2.00000
     16      -9.8367      2.00000
     17      -9.8186      2.00000
     18      -9.8186      2.00000
     19      -9.7736      2.00000
     20      -9.7736      2.00000
     21      -8.5111      2.00000
     22      -8.3893      2.00000
     23      -7.8597      2.00000
     24      -7.8528      2.00000
     25      -7.7990      2.00000
     26      -7.5547      2.00000
     27      -6.9682      2.00000
     28      -6.9678      2.00000
     29      -2.4250      2.00000
     30      -2.2623      2.00000
     31      -2.0656      2.00000
     32      -1.9617      2.00000
     33      -1.9030      2.00000
     34      -1.8720      2.00000
     35      -1.8342      2.00000
     36      -1.8060      2.00000
     37      -1.7726      2.00000
     38      -1.5170      2.00000
     39      -1.5060      2.00000
     40      -1.3757      2.00000
     41      -1.3676      2.00000
     42      -1.3237      2.00000
     43      -0.2213      2.00000
     44      -0.1746      2.00000
     45      -0.0969      2.00000
     46       0.0393      2.00000
     47       0.1177      2.00000
     48       0.2401      2.00000
     49       0.6496      2.00000
     50       0.7739      2.00000
     51       0.9032      2.00000
     52       1.1133      2.00000
     53       1.3106      2.00000
     54       1.7956      2.00000
     55       1.8303      2.00000
     56       2.1505      2.00000
     57       2.2347      2.00000
     58       2.3920      2.00000
     59       2.4501      2.00000
     60       3.1204      2.00000
     61       3.4408      2.00000
     62       3.5920      2.00000
     63       6.2616      0.00000
     64       6.4032      0.00000
     65       6.4988      0.00000
     66       6.5574      0.00000
     67       7.7399      0.00000
     68       7.8419      0.00000
     69       8.3570      0.00000
     70       9.0264      0.00000
     71       9.2974      0.00000
     72       9.3673      0.00000
     73       9.5755      0.00000
     74       9.7337      0.00000
     75       9.8263      0.00000
     76      10.2862      0.00000
     77      10.5519      0.00000
     78      10.6643      0.00000
     79      10.7456      0.00000
     80      11.0519      0.00000

 k-point   198 :       0.3333    0.2222    0.5000
  band No.  band energies     occupation 
      1     -11.3897      2.00000
      2     -11.3849      2.00000
      3     -11.0822      2.00000
      4     -11.0804      2.00000
      5     -10.9499      2.00000
      6     -10.9489      2.00000
      7     -10.8781      2.00000
      8     -10.8773      2.00000
      9     -10.8397      2.00000
     10     -10.8395      2.00000
     11     -10.2808      2.00000
     12     -10.2807      2.00000
     13     -10.0355      2.00000
     14     -10.0355      2.00000
     15      -9.8384      2.00000
     16      -9.8384      2.00000
     17      -9.8053      2.00000
     18      -9.8053      2.00000
     19      -9.7792      2.00000
     20      -9.7792      2.00000
     21      -8.3716      2.00000
     22      -8.2844      2.00000
     23      -7.7582      2.00000
     24      -7.7521      2.00000
     25      -7.7160      2.00000
     26      -7.5479      2.00000
     27      -6.9349      2.00000
     28      -6.9338      2.00000
     29      -2.5071      2.00000
     30      -2.3870      2.00000
     31      -2.0063      2.00000
     32      -1.9422      2.00000
     33      -1.8771      2.00000
     34      -1.8685      2.00000
     35      -1.8362      2.00000
     36      -1.7989      2.00000
     37      -1.7588      2.00000
     38      -1.5411      2.00000
     39      -1.5166      2.00000
     40      -1.4993      2.00000
     41      -1.4561      2.00000
     42      -1.3305      2.00000
     43      -0.3621      2.00000
     44      -0.3372      2.00000
     45      -0.1217      2.00000
     46      -0.0553      2.00000
     47      -0.0185      2.00000
     48       0.1440      2.00000
     49       0.5737      2.00000
     50       0.6836      2.00000
     51       0.8916      2.00000
     52       1.0428      2.00000
     53       1.3256      2.00000
     54       1.5507      2.00000
     55       1.6365      2.00000
     56       2.0204      2.00000
     57       2.2164      2.00000
     58       2.3107      2.00000
     59       2.5365      2.00000
     60       3.1229      2.00000
     61       3.4327      2.00000
     62       3.4781      2.00000
     63       6.2685      0.00000
     64       6.3037      0.00000
     65       6.4076      0.00000
     66       6.5876      0.00000
     67       7.6694      0.00000
     68       7.8192      0.00000
     69       8.5556      0.00000
     70       8.9471      0.00000
     71       9.3031      0.00000
     72       9.3855      0.00000
     73       9.4977      0.00000
     74       9.6221      0.00000
     75       9.9497      0.00000
     76      10.4983      0.00000
     77      10.6422      0.00000
     78      10.7074      0.00000
     79      10.8449      0.00000
     80      11.0569      0.00000

 k-point   199 :       0.3889    0.2222    0.5000
  band No.  band energies     occupation 
      1     -11.3931      2.00000
      2     -11.3895      2.00000
      3     -11.0813      2.00000
      4     -11.0796      2.00000
      5     -10.9499      2.00000
      6     -10.9489      2.00000
      7     -10.8775      2.00000
      8     -10.8767      2.00000
      9     -10.8400      2.00000
     10     -10.8398      2.00000
     11     -10.2836      2.00000
     12     -10.2836      2.00000
     13     -10.0398      2.00000
     14     -10.0398      2.00000
     15      -9.8390      2.00000
     16      -9.8390      2.00000
     17      -9.7970      2.00000
     18      -9.7970      2.00000
     19      -9.7850      2.00000
     20      -9.7850      2.00000
     21      -8.3170      2.00000
     22      -8.2502      2.00000
     23      -7.7201      2.00000
     24      -7.7161      2.00000
     25      -7.6817      2.00000
     26      -7.5520      2.00000
     27      -6.9245      2.00000
     28      -6.9235      2.00000
     29      -2.5328      2.00000
     30      -2.4374      2.00000
     31      -1.9781      2.00000
     32      -1.9385      2.00000
     33      -1.8794      2.00000
     34      -1.8643      2.00000
     35      -1.8336      2.00000
     36      -1.7859      2.00000
     37      -1.7591      2.00000
     38      -1.5739      2.00000
     39      -1.5654      2.00000
     40      -1.5254      2.00000
     41      -1.4082      2.00000
     42      -1.3608      2.00000
     43      -0.4205      2.00000
     44      -0.3950      2.00000
     45      -0.1513      2.00000
     46      -0.1079      2.00000
     47      -0.0095      2.00000
     48       0.1163      2.00000
     49       0.5370      2.00000
     50       0.6402      2.00000
     51       0.8139      2.00000
     52       1.2030      2.00000
     53       1.3095      2.00000
     54       1.4362      2.00000
     55       1.5208      2.00000
     56       1.9699      2.00000
     57       2.2155      2.00000
     58       2.2687      2.00000
     59       2.6120      2.00000
     60       3.1015      2.00000
     61       3.4242      2.00000
     62       3.4425      2.00000
     63       6.2473      0.00000
     64       6.2841      0.00000
     65       6.3693      0.00000
     66       6.6033      0.00000
     67       7.6391      0.00000
     68       7.8115      0.00000
     69       8.6531      0.00000
     70       8.8821      0.00000
     71       9.2991      0.00000
     72       9.3918      0.00000
     73       9.4878      0.00000
     74       9.5700      0.00000
     75       9.9808      0.00000
     76      10.5781      0.00000
     77      10.6430      0.00000
     78      10.7635      0.00000
     79      10.7736      0.00000
     80      11.1314      0.00000

 k-point   200 :       0.2778    0.2778    0.5000
  band No.  band energies     occupation 
      1     -11.3886      2.00000
      2     -11.3839      2.00000
      3     -11.0821      2.00000
      4     -11.0805      2.00000
      5     -10.9516      2.00000
      6     -10.9506      2.00000
      7     -10.8743      2.00000
      8     -10.8737      2.00000
      9     -10.8437      2.00000
     10     -10.8437      2.00000
     11     -10.2684      2.00000
     12     -10.2684      2.00000
     13     -10.0526      2.00000
     14     -10.0526      2.00000
     15      -9.8266      2.00000
     16      -9.8266      2.00000
     17      -9.8162      2.00000
     18      -9.8162      2.00000
     19      -9.7807      2.00000
     20      -9.7807      2.00000
     21      -8.3634      2.00000
     22      -8.2778      2.00000
     23      -7.7425      2.00000
     24      -7.7333      2.00000
     25      -7.7070      2.00000
     26      -7.5475      2.00000
     27      -6.9384      2.00000
     28      -6.9373      2.00000
     29      -2.4708      2.00000
     30      -2.3557      2.00000
     31      -2.0028      2.00000
     32      -1.9380      2.00000
     33      -1.8717      2.00000
     34      -1.8459      2.00000
     35      -1.8390      2.00000
     36      -1.8291      2.00000
     37      -1.7616      2.00000
     38      -1.5418      2.00000
     39      -1.4917      2.00000
     40      -1.4821      2.00000
     41      -1.4493      2.00000
     42      -1.3153      2.00000
     43      -0.4558      2.00000
     44      -0.2378      2.00000
     45      -0.1733      2.00000
     46      -0.1071      2.00000
     47      -0.0445      2.00000
     48       0.0989      2.00000
     49       0.6470      2.00000
     50       0.7001      2.00000
     51       0.7621      2.00000
     52       0.9610      2.00000
     53       1.2951      2.00000
     54       1.5856      2.00000
     55       1.6426      2.00000
     56       2.0308      2.00000
     57       2.0423      2.00000
     58       2.2161      2.00000
     59       2.5485      2.00000
     60       3.1235      2.00000
     61       3.4456      2.00000
     62       3.4736      2.00000
     63       6.2960      0.00000
     64       6.3895      0.00000
     65       6.4800      0.00000
     66       6.5947      0.00000
     67       7.7402      0.00000
     68       8.0213      0.00000
     69       8.4278      0.00000
     70       8.9818      0.00000
     71       9.3893      0.00000
     72       9.4446      0.00000
     73       9.8062      0.00000
     74       9.8422      0.00000
     75      10.0042      0.00000
     76      10.4308      0.00000
     77      10.7906      0.00000
     78      10.8222      0.00000
     79      11.0215      0.00000
     80      11.0377      0.00000

 k-point   201 :       0.3333    0.2778    0.5000
  band No.  band energies     occupation 
      1     -11.3929      2.00000
      2     -11.3904      2.00000
      3     -11.0804      2.00000
      4     -11.0794      2.00000
      5     -10.9526      2.00000
      6     -10.9515      2.00000
      7     -10.8697      2.00000
      8     -10.8691      2.00000
      9     -10.8481      2.00000
     10     -10.8480      2.00000
     11     -10.2641      2.00000
     12     -10.2641      2.00000
     13     -10.0705      2.00000
     14     -10.0705      2.00000
     15      -9.8239      2.00000
     16      -9.8239      2.00000
     17      -9.8055      2.00000
     18      -9.8055      2.00000
     19      -9.7914      2.00000
     20      -9.7914      2.00000
     21      -8.2717      2.00000
     22      -8.2254      2.00000
     23      -7.6694      2.00000
     24      -7.6651      2.00000
     25      -7.6462      2.00000
     26      -7.5603      2.00000
     27      -6.9264      2.00000
     28      -6.9255      2.00000
     29      -2.4802      2.00000
     30      -2.4159      2.00000
     31      -1.9529      2.00000
     32      -1.9267      2.00000
     33      -1.8666      2.00000
     34      -1.8518      2.00000
     35      -1.8348      2.00000
     36      -1.8074      2.00000
     37      -1.7738      2.00000
     38      -1.5811      2.00000
     39      -1.5561      2.00000
     40      -1.5309      2.00000
     41      -1.3786      2.00000
     42      -1.3302      2.00000
     43      -0.6030      2.00000
     44      -0.3132      2.00000
     45      -0.2649      2.00000
     46      -0.1261      2.00000
     47      -0.0737      2.00000
     48       0.0338      2.00000
     49       0.5449      2.00000
     50       0.6267      2.00000
     51       0.6613      2.00000
     52       1.1401      2.00000
     53       1.3058      2.00000
     54       1.3978      2.00000
     55       1.4642      2.00000
     56       1.8951      2.00000
     57       2.0196      2.00000
     58       2.0888      2.00000
     59       2.7202      2.00000
     60       3.0582      2.00000
     61       3.4234      2.00000
     62       3.4342      2.00000
     63       6.2152      0.00000
     64       6.4431      0.00000
     65       6.4603      0.00000
     66       6.6213      0.00000
     67       7.7107      0.00000
     68       8.0597      0.00000
     69       8.5889      0.00000
     70       8.8788      0.00000
     71       9.4210      0.00000
     72       9.4738      0.00000
     73       9.8322      0.00000
     74       9.9612      0.00000
     75      10.0759      0.00000
     76      10.6631      0.00000
     77      10.8258      0.00000
     78      11.0213      0.00000
     79      11.0871      0.00000
     80      11.1997      0.00000

 k-point   202 :       0.3333    0.3333    0.5000
  band No.  band energies     occupation 
      1     -11.3931      2.00000
      2     -11.3931      2.00000
      3     -11.0794      2.00000
      4     -11.0794      2.00000
      5     -10.9537      2.00000
      6     -10.9526      2.00000
      7     -10.8629      2.00000
      8     -10.8622      2.00000
      9     -10.8549      2.00000
     10     -10.8549      2.00000
     11     -10.2557      2.00000
     12     -10.2557      2.00000
     13     -10.0852      2.00000
     14     -10.0852      2.00000
     15      -9.8129      2.00000
     16      -9.8129      2.00000
     17      -9.8041      2.00000
     18      -9.8041      2.00000
     19      -9.8031      2.00000
     20      -9.8031      2.00000
     21      -8.2206      2.00000
     22      -8.2206      2.00000
     23      -7.6334      2.00000
     24      -7.6334      2.00000
     25      -7.5944      2.00000
     26      -7.5944      2.00000
     27      -6.9248      2.00000
     28      -6.9248      2.00000
     29      -2.4439      2.00000
     30      -2.4439      2.00000
     31      -1.9221      2.00000
     32      -1.9221      2.00000
     33      -1.8806      2.00000
     34      -1.8424      2.00000
     35      -1.8116      2.00000
     36      -1.8116      2.00000
     37      -1.7970      2.00000
     38      -1.5980      2.00000
     39      -1.5702      2.00000
     40      -1.5415      2.00000
     41      -1.3363      2.00000
     42      -1.3363      2.00000
     43      -0.6928      2.00000
     44      -0.3979      2.00000
     45      -0.1803      2.00000
     46      -0.1803      2.00000
     47      -0.0485      2.00000
     48      -0.0485      2.00000
     49       0.3936      2.00000
     50       0.6664      2.00000
     51       0.6664      2.00000
     52       1.2265      2.00000
     53       1.3123      2.00000
     54       1.3274      2.00000
     55       1.3274      2.00000
     56       1.8812      2.00000
     57       1.9664      2.00000
     58       1.9664      2.00000
     59       2.9104      2.00000
     60       2.9104      2.00000
     61       3.4223      2.00000
     62       3.4223      2.00000
     63       6.1777      0.00000
     64       6.4482      0.00000
     65       6.5803      0.00000
     66       6.5803      0.00000
     67       7.7115      0.00000
     68       8.1278      0.00000
     69       8.7287      0.00000
     70       8.7287      0.00000
     71       9.4916      0.00000
     72       9.4916      0.00000
     73       9.9686      0.00000
     74      10.1195      0.00000
     75      10.1195      0.00000
     76      10.7016      0.00000
     77      10.9220      0.00000
     78      10.9254      0.00000
     79      11.2999      0.00000
     80      11.3204      0.00000


--------------------------------------------------------------------------------------------------------


 soft charge-density along one line, spin component           1
         0         1         2         3         4         5         6         7         8         9
 total charge-density along one line
 
 pseudopotential strength for first ion, spin component:           1
-12.310   0.000  -0.000   0.004   0.000   2.775  -0.000   0.000
  0.000 -12.333  -0.000   0.000   0.004  -0.000   2.788   0.000
 -0.000  -0.000 -12.346   0.000   0.000   0.000   0.000   2.796
  0.004   0.000   0.000 -12.333   0.000  -0.002  -0.000  -0.000
  0.000   0.004   0.000   0.000 -12.310  -0.000  -0.002  -0.000
  2.775  -0.000   0.000  -0.002  -0.000   5.020   0.000  -0.000
 -0.000   2.788   0.000  -0.000  -0.002   0.000   5.011  -0.000
  0.000   0.000   2.796  -0.000  -0.000  -0.000  -0.000   5.007
 -0.002  -0.000  -0.000   2.788  -0.000   0.000   0.000   0.000
 -0.000  -0.002  -0.000  -0.000   2.775   0.000   0.000   0.000
 -0.000   0.000  -0.003  -0.000   0.000  -0.000   0.000   0.001
 -0.000   0.000  -0.004  -0.000   0.000  -0.000   0.000   0.001
 -0.000  -0.009  -0.000  -0.000  -0.000  -0.000   0.004  -0.000
 -0.000   0.000  -0.010  -0.000   0.000  -0.000   0.000   0.006
 -0.000  -0.000   0.000  -0.009  -0.000  -0.001  -0.000   0.000
 -0.000  -0.016  -0.000  -0.000  -0.001  -0.000   0.007  -0.000
 -0.000   0.000  -0.018  -0.000   0.000  -0.000   0.000   0.011
 -0.001  -0.000   0.000  -0.016  -0.000  -0.003  -0.000   0.000
 total augmentation occupancy for first ion, spin component:           1
  2.000   0.000   0.000   0.000   0.000   0.000   0.000   0.000   0.000   0.000   0.000   0.000   0.000   0.000   0.000   0.000
  0.000   2.000   0.000   0.000   0.000   0.000   0.000   0.000   0.000   0.000   0.000   0.000   0.000   0.000   0.000   0.000
  0.000   0.000   2.000   0.000   0.000   0.000   0.000   0.000   0.000   0.000   0.000   0.000   0.000   0.000   0.000   0.000
  0.000   0.000   0.000   2.000   0.000   0.000   0.000   0.000   0.000   0.000   0.000   0.000   0.000   0.000   0.000   0.000
  0.000   0.000   0.000   0.000   2.000   0.000   0.000   0.000   0.000   0.000   0.000   0.000   0.000   0.000   0.000   0.000
  0.000   0.000   0.000   0.000   0.000   0.000   0.000   0.000   0.000   0.000   0.000   0.000   0.000   0.000   0.000   0.000
  0.000   0.000   0.000   0.000   0.000   0.000   0.000   0.000   0.000   0.000   0.000   0.000   0.000   0.000   0.000   0.000
  0.000   0.000   0.000   0.000   0.000   0.000   0.000   0.000   0.000   0.000   0.000   0.000   0.000   0.000   0.000   0.000
  0.000   0.000   0.000   0.000   0.000   0.000   0.000   0.000   0.000   0.000   0.000   0.000   0.000   0.000   0.000   0.000
  0.000   0.000   0.000   0.000   0.000   0.000   0.000   0.000   0.000   0.000   0.000   0.000   0.000   0.000   0.000   0.000
  0.000   0.000   0.000   0.000   0.000   0.000   0.000   0.000   0.000   0.000   2.000   0.000   0.000   0.000   0.000   0.000
  0.000   0.000   0.000   0.000   0.000   0.000   0.000   0.000   0.000   0.000   0.000   0.000   0.000   0.000   0.000   0.000
  0.000   0.000   0.000   0.000   0.000   0.000   0.000   0.000   0.000   0.000   0.000   0.000   0.333   0.000   0.000   0.000
  0.000   0.000   0.000   0.000   0.000   0.000   0.000   0.000   0.000   0.000   0.000   0.000   0.000   0.333   0.000   0.000
  0.000   0.000   0.000   0.000   0.000   0.000   0.000   0.000   0.000   0.000   0.000   0.000   0.000   0.000   0.333   0.000
  0.000   0.000   0.000   0.000   0.000   0.000   0.000   0.000   0.000   0.000   0.000   0.000   0.000   0.000   0.000   0.000
  0.000   0.000   0.000   0.000   0.000   0.000   0.000   0.000   0.000   0.000   0.000   0.000   0.000   0.000   0.000   0.000
  0.000   0.000   0.000   0.000   0.000   0.000   0.000   0.000   0.000   0.000   0.000   0.000   0.000   0.000   0.000   0.000


------------------------ aborting loop because EDIFF is reached ----------------------------------------


 


 total charge     
 
# of ion       s       p       d       tot
------------------------------------------
    1        0.741   0.610   9.945  11.297
    2        0.741   0.610   9.945  11.297
    3        0.794   0.692   9.933  11.419
    4        0.794   0.692   9.933  11.419
    5        1.347   2.377   0.000   3.724
    6        1.347   2.377   0.000   3.724
    7        1.351   2.359   0.000   3.710
    8        1.351   2.359   0.000   3.710
    9        1.355   2.352   0.000   3.706
   10        1.355   2.352   0.000   3.706
   11        1.328   2.414   0.000   3.741
   12        1.328   2.414   0.000   3.741
   13        0.516   0.464   9.807  10.787
   14        0.516   0.464   9.807  10.787
--------------------------------------------------
tot         14.865  22.535  59.370  96.771
 
    CHARGE:  cpu time    2.7928: real time    2.8041
    FORLOC:  cpu time    0.0269: real time    0.0273
    FORNL :  cpu time   18.5084: real time   18.8072
    STRESS:  cpu time   36.8066: real time   38.1430
    FORCOR:  cpu time    0.1034: real time    0.1596
    FORHAR:  cpu time    0.0401: real time    0.0402
    OFIELD:  cpu time    0.0003: real time    0.0003

 ---------------------------------------------------------------------------------------------

         DFTD3 V3.0 Rev 1        
 IVDW         = 12
 DF pbe       
 parameters
 VDW_S6       =    1.0000
 VDW_S8       =    0.7875
 VDW_A1       =    0.4289
 VDW_A2       =    4.4407
 k1-k3        =   16.0000    1.3333   -4.0000
 VDW_RADIUS   =   50.2022 A
 VDW_CNRADIUS =   21.1671 A
 Edisp (eV)   -4.15841

 E6    (eV) :    -2.4325
 E8    (eV) :    -1.7259
 % E8        : 41.50
    FORVDW:  cpu time    0.0347: real time    0.0543

  FORCE on cell =-STRESS in cart. coord.  units (eV):
  Direction    XX          YY          ZZ          XY          YZ          ZX
  --------------------------------------------------------------------------------------
  Alpha Z   288.02087   288.02087   288.02087
  Ewald   -1631.23413 -1631.23386 -4142.14152    -0.00011     0.00001     0.00001
  Hartree  2234.29526  2234.29532    53.23935    -0.00003    -0.00001    -0.00001
  E(xc)    -578.96244  -578.96245  -579.21916    -0.00001    -0.00000     0.00000
  Local   -2743.27506 -2743.27573  1938.78824    -0.00021     0.00001     0.00001
  n-local   663.23597   673.23683   664.44198   -11.73350     0.98324     2.39805
  augment   580.94488   580.94520   581.60193     0.00027    -0.00001     0.00002
  Kinetic  1173.83014  1199.21326  1199.81582   -25.86890    -0.28544     0.01145
  Fock        0.00000     0.00000     0.00000     0.00000     0.00000     0.00000
  vdW        -4.53993    -4.53993    -4.55176    -0.00000     0.00000     0.00000
  -------------------------------------------------------------------------------------
  Total       0.00755     0.00755    -0.00425     0.00000    -0.00000     0.00000
  in kB       0.03758     0.03758    -0.02117     0.00000    -0.00000     0.00000
  external pressure =        0.02 kB  Pullay stress =        0.00 kB


 VOLUME and BASIS-vectors are now :
 -----------------------------------------------------------------------------
  energy-cutoff  :      500.00
  volume of cell :      321.80
      direct lattice vectors                 reciprocal lattice vectors
     3.889649070  0.000000000 -0.000000000     0.257092602  0.148432483  0.000000000
    -1.944824535  3.368534906  0.000000000    -0.000000000  0.296864966  0.000000000
    -0.000000000 -0.000000000 24.560598922     0.000000000 -0.000000000  0.040715619

  length of vectors
     3.889649070  3.889649070 24.560598922     0.296864966  0.296864966  0.040715619


 FORCES acting on ions
    electron-ion (+dipol)            ewald-force                    non-local-force                 convergence-correction
 -----------------------------------------------------------------------------------------------
   -.132E-05 -.485E-06 0.290E+03   -.112E-04 -.269E-05 -.286E+03   0.519E-15 0.328E-15 -.416E+01   0.569E-04 -.265E-04 -.103E+00
   -.962E-06 0.485E-06 -.290E+03   -.679E-05 0.269E-05 0.286E+03   -.509E-15 -.328E-15 0.416E+01   -.436E-04 0.265E-04 0.103E+00
   -.117E-05 -.249E-04 0.304E+03   -.117E-04 -.143E-04 -.301E+03   0.396E-15 0.185E-15 -.332E+01   0.430E-02 -.233E-02 -.431E-01
   0.405E-04 0.249E-04 -.304E+03   0.119E-04 0.143E-04 0.301E+03   -.424E-15 -.240E-15 0.332E+01   -.455E-02 0.233E-02 0.430E-01
   0.867E-06 -.383E-04 0.167E+03   -.382E-06 -.436E-05 -.163E+03   0.706E-15 0.132E-15 -.381E+01   0.268E-03 -.145E-03 -.360E-01
   0.638E-04 0.383E-04 -.167E+03   0.680E-05 0.436E-05 0.163E+03   -.540E-15 -.207E-16 0.381E+01   -.283E-03 0.145E-03 0.361E-01
   0.730E-05 -.306E-04 -.221E+03   -.121E-04 -.147E-04 0.227E+03   0.728E-15 0.420E-15 -.585E+01   0.362E-03 -.192E-03 0.861E-02
   0.580E-04 0.306E-04 0.221E+03   0.121E-04 0.147E-04 -.227E+03   -.839E-15 -.420E-15 0.585E+01   -.365E-03 0.192E-03 -.864E-02
   0.679E-06 -.351E-04 -.141E+02   -.540E-06 -.748E-05 0.929E+01   -.605E-15 -.192E-15 0.475E+01   0.221E-03 -.119E-03 0.309E-01
   0.587E-04 0.351E-04 0.141E+02   0.118E-04 0.748E-05 -.929E+01   0.550E-15 0.248E-15 -.475E+01   -.233E-03 0.119E-03 -.309E-01
   0.139E-04 -.212E-04 0.323E+03   -.200E-04 -.243E-04 -.327E+03   -.486E-15 -.244E-15 0.395E+01   0.511E-03 -.269E-03 -.182E-01
   0.503E-04 0.212E-04 -.323E+03   0.200E-04 0.243E-04 0.327E+03   0.430E-15 0.299E-15 -.395E+01   -.511E-03 0.269E-03 0.182E-01
   -.105E-06 -.159E-05 -.393E+03   -.252E-04 -.306E-04 0.394E+03   0.252E-15 0.641E-16 -.157E+01   0.735E-02 -.398E-02 0.607E-01
   0.697E-05 0.159E-05 0.393E+03   0.252E-04 0.306E-04 -.394E+03   -.266E-15 -.363E-16 0.157E+01   -.775E-02 0.398E-02 -.607E-01
 -----------------------------------------------------------------------------------------------
   0.297E-03 0.252E-10 -.260E-03   -.227E-15 0.499E-13 0.171E-12   -.867E-16 0.194E-15 0.888E-15   -.658E-03 -.607E-09 -.470E-04
 
 
 POSITION                                       TOTAL-FORCE (eV/Angst)
 -----------------------------------------------------------------------------------
     -0.00000     -0.00000      6.62006        -0.000000     -0.000000      0.002866
     -0.00000     -0.00000     17.94054         0.000000      0.000000     -0.002866
     -0.00000      2.24569      2.61472         0.000000      0.000000     -0.011513
      1.94482      1.12284     21.94588        -0.000000     -0.000000      0.011513
     -0.00000      2.24569      5.00814        -0.000000     -0.000000      0.011778
      1.94482      1.12284     19.55246         0.000000      0.000000     -0.011778
     -0.00000      2.24569     23.09234         0.000000      0.000000     -0.002780
      1.94482      1.12284      1.46826        -0.000000     -0.000000      0.002780
     -0.00000      2.24569     16.73524         0.000000      0.000000     -0.000900
      1.94482      1.12284      7.82536        -0.000000     -0.000000      0.000900
     -0.00000      2.24569     10.73163        -0.000000     -0.000000      0.003853
      1.94482      1.12284     13.82897         0.000000      0.000000     -0.003853
     -0.00000      2.24569     13.30456         0.000000     -0.000000     -0.000488
      1.94482      1.12284     11.25604         0.000000      0.000000      0.000488
 -----------------------------------------------------------------------------------
    total drift:                               -0.000360     -0.000000     -0.000307


--------------------------------------------------------------------------------------------------------



  FREE ENERGIE OF THE ION-ELECTRON SYSTEM (eV)
  ---------------------------------------------------
  free  energy   TOTEN  =       -57.45177555 eV

  energy  without entropy=      -57.45177555  energy(sigma->0) =      -57.45177555
 


--------------------------------------------------------------------------------------------------------


    POTLOK:  cpu time    0.2694: real time    0.2700


--------------------------------------------------------------------------------------------------------


     LOOP+:  cpu time  884.4398: real time  927.7302
    4ORBIT:  cpu time    0.0000: real time    0.0000
 


 total charge     
 
# of ion       s       p       d       tot
------------------------------------------
    1        0.741   0.610   9.945  11.297
    2        0.741   0.610   9.945  11.297
    3        0.794   0.692   9.933  11.419
    4        0.794   0.692   9.933  11.419
    5        1.347   2.377   0.000   3.724
    6        1.347   2.377   0.000   3.724
    7        1.351   2.359   0.000   3.710
    8        1.351   2.359   0.000   3.710
    9        1.355   2.352   0.000   3.706
   10        1.355   2.352   0.000   3.706
   11        1.328   2.414   0.000   3.741
   12        1.328   2.414   0.000   3.741
   13        0.516   0.464   9.807  10.787
   14        0.516   0.464   9.807  10.787
--------------------------------------------------
tot         14.865  22.535  59.370  96.771
 
 BZINTS: Fermi energy:  4.163632;124.000000 electrons
         Band energy:-524.970499;  BLOECHL correction:  0.000000

 total amount of memory used by VASP MPI-rank0  1060938. kBytes
=======================================================================

   base      :      30000. kBytes
   nonl-proj :     722300. kBytes
   fftplans  :      21173. kBytes
   grid      :      14726. kBytes
   one-center:        217. kBytes
   wavefun   :     272522. kBytes
 
  
  
 General timing and accounting informations for this job:
 ========================================================
  
                  Total CPU time used (sec):      905.227
                            User time (sec):      881.899
                          System time (sec):       23.329
                         Elapsed time (sec):      949.313
  
                   Maximum memory used (kb):     1203284.
                   Average memory used (kb):           0.
  
                          Minor page faults:        81785
                          Major page faults:            0
                 Voluntary context switches:         1455
