ZnIn2S4 DOS/PDOS                        
           1
     3.889649    0.000000   -0.000000
    -1.944825    3.368535    0.000000
    -0.000000   -0.000000   24.560599
   In   S    Zn
   4   8   2
Direct configuration=     1
   0.00000000  0.00000000  0.26953970
   0.00000000  0.00000000  0.73046030
   0.33333334  0.66666669  0.10645982
   0.66666663  0.33333331  0.89354018
   0.33333334  0.66666669  0.20390956
   0.66666663  0.33333331  0.79609047
   0.33333334  0.66666669  0.94021881
   0.66666663  0.33333331  0.05978119
   0.33333334  0.66666669  0.68138550
   0.66666663  0.33333331  0.31861450
   0.33333334  0.66666669  0.43694477
   0.66666663  0.33333331  0.56305523
   0.33333334  0.66666669  0.54170330
   0.66666663  0.33333331  0.45829670
