WP2-P02-beta001-thickness-6L-relax-500-k
   1.0000000000000000     
     3.8782842923155867    0.0000000000000000    0.0000000000000000
    -1.9391421461577933    3.3586927202930394    0.0000000000000000
     0.0000000000000000    0.0000000000000000   90.1620238765702595
   S    In   Zn   S    In   Zn   S    In   Zn   S    In   Zn   S    In   Zn   S    In   Zn
     4     2     1     4     2     1     4     2     1     4     2     1     4     2     1     4     2     1
Direct
     0.0000008558689055    0.9999991742678398    0.1102806803608919
     0.6666673106503151    0.3333326442643272    0.1499337410766357
     0.0000005011602510    0.9999996199849515    0.1810419850457931
     0.3333320816137435    0.6666679681343365    0.2151886230077463
     0.6666675095915843    0.3333325042602266    0.1229014092726877
     0.3333339102457477    0.6666661728653190    0.1671718584234245
     0.9999982804705699    0.0000017619844148    0.2095533904137488
     0.0000006704838023    0.9999992831606207    0.2457570343630891
     0.6666673045906093    0.3333326511627863    0.2849184242064225
     0.0000004777428400    0.9999996172195595    0.3158460165764901
     0.3333322104384705    0.6666679309728351    0.3499460589999169
     0.6666673331892191    0.3333326171806488    0.2578388699608179
     0.3333338935665412    0.6666661659317548    0.3019068653838106
     0.9999983629687142    0.0000017944226042    0.3440680318929846
     0.0000006834107316    0.9999992479679300    0.3804367938906812
     0.6666673175613146    0.3333326278720685    0.4196303416244339
     0.0000004784859671    0.9999995979045322    0.4505669584103685
     0.3333320491500507    0.6666680045463693    0.4847155837242521
     0.6666673339190654    0.3333325918625200    0.3925123790596651
     0.3333338923859161    0.6666661531288169    0.4365986718047314
     0.9999981733452651    0.0000018856551317    0.4787772892317461
     0.0000006501924006    0.9999993083987736    0.5151637236036937
     0.6666672381536396    0.3333326948814667    0.5543630054924901
     0.0000003754601822    0.9999996689480173    0.5853032009316689
     0.3333319683609898    0.6666679589914487    0.6194626937499098
     0.6666673012163994    0.3333326605870336    0.5272387122078057
     0.3333337945511161    0.6666662274558226    0.5713278982781300
     0.9999980945101661    0.0000018241606989    0.6135145655983145
     0.0000007087822929    0.9999992493347581    0.6498932281702666
     0.6666672678805152    0.3333326333350268    0.6890821378516622
     0.0000004256500374    0.9999995712829727    0.7199999472876408
     0.3333322875483865    0.6666675305143904    0.7541003128846808
     0.6666673743961883    0.3333325918633320    0.6619632964884963
     0.3333338210662757    0.6666661638319263    0.7060348340329903
     0.9999982956752566    0.0000015051572301    0.7481797882775091
     0.0000007792190226    0.9999991670376859    0.7845822765710939
     0.6666671692691863    0.3333326732974675    0.8237791667715205
     0.0000002950518819    0.9999996334591401    0.8547878360325876
     0.3333319453949252    0.6666679748577039    0.8892805055960576
     0.6666674423386028    0.3333325199454448    0.7967022813352198
     0.3333337167453343    0.6666661890640189    0.8408169729409742
     0.9999980576975463    0.0000018788460174    0.8834418521206011

  0.00000000E+00  0.00000000E+00  0.00000000E+00
  0.00000000E+00  0.00000000E+00  0.00000000E+00
  0.00000000E+00  0.00000000E+00  0.00000000E+00
  0.00000000E+00  0.00000000E+00  0.00000000E+00
  0.00000000E+00  0.00000000E+00  0.00000000E+00
  0.00000000E+00  0.00000000E+00  0.00000000E+00
  0.00000000E+00  0.00000000E+00  0.00000000E+00
  0.00000000E+00  0.00000000E+00  0.00000000E+00
  0.00000000E+00  0.00000000E+00  0.00000000E+00
  0.00000000E+00  0.00000000E+00  0.00000000E+00
  0.00000000E+00  0.00000000E+00  0.00000000E+00
  0.00000000E+00  0.00000000E+00  0.00000000E+00
  0.00000000E+00  0.00000000E+00  0.00000000E+00
  0.00000000E+00  0.00000000E+00  0.00000000E+00
  0.00000000E+00  0.00000000E+00  0.00000000E+00
  0.00000000E+00  0.00000000E+00  0.00000000E+00
  0.00000000E+00  0.00000000E+00  0.00000000E+00
  0.00000000E+00  0.00000000E+00  0.00000000E+00
  0.00000000E+00  0.00000000E+00  0.00000000E+00
  0.00000000E+00  0.00000000E+00  0.00000000E+00
  0.00000000E+00  0.00000000E+00  0.00000000E+00
  0.00000000E+00  0.00000000E+00  0.00000000E+00
  0.00000000E+00  0.00000000E+00  0.00000000E+00
  0.00000000E+00  0.00000000E+00  0.00000000E+00
  0.00000000E+00  0.00000000E+00  0.00000000E+00
  0.00000000E+00  0.00000000E+00  0.00000000E+00
  0.00000000E+00  0.00000000E+00  0.00000000E+00
  0.00000000E+00  0.00000000E+00  0.00000000E+00
  0.00000000E+00  0.00000000E+00  0.00000000E+00
  0.00000000E+00  0.00000000E+00  0.00000000E+00
  0.00000000E+00  0.00000000E+00  0.00000000E+00
  0.00000000E+00  0.00000000E+00  0.00000000E+00
  0.00000000E+00  0.00000000E+00  0.00000000E+00
  0.00000000E+00  0.00000000E+00  0.00000000E+00
  0.00000000E+00  0.00000000E+00  0.00000000E+00
  0.00000000E+00  0.00000000E+00  0.00000000E+00
  0.00000000E+00  0.00000000E+00  0.00000000E+00
  0.00000000E+00  0.00000000E+00  0.00000000E+00
  0.00000000E+00  0.00000000E+00  0.00000000E+00
  0.00000000E+00  0.00000000E+00  0.00000000E+00
  0.00000000E+00  0.00000000E+00  0.00000000E+00
  0.00000000E+00  0.00000000E+00  0.00000000E+00
