 running    8 mpi-ranks, on    1 nodes
 distrk:  each k-point on    8 cores,    1 groups
 distr:  one band on    4 cores,    2 groups
 vasp.6.6.1 17Jul2026 (build Sep  7 2026 10:40:42) complex                       
 POSCAR found type information on POSCAR S InZnS InZnS InZnS InZnS InZnS InZn
 POSCAR found : 18 types and      42 ions
 scaLAPACK will be used
 -----------------------------------------------------------------------------
|                                                                             |
|               ----> ADVICE to this user running VASP <----                  |
|                                                                             |
|     You have a (more or less) 'large supercell' and for larger cells it     |
|     might be more efficient to use real-space projection operators.         |
|     Therefore, try LREAL= Auto in the INCAR file.                           |
|     Mind: For very accurate calculation, you might also keep the            |
|     reciprocal projection scheme (i.e. LREAL=.FALSE.).                      |
|                                                                             |
 -----------------------------------------------------------------------------

 LDA part: xc-table for (Slater+PW92), standard interpolation
 POSCAR, INCAR and KPOINTS ok, starting setup
 FFT: planning ... GRIDC
 FFT: planning ... GRID_SOFT
 FFT: planning ... GRID
 WAVECAR not read
 entering main loop
       N       E                     dE             d eps       ncg     rms          rms(c)
DAV:   1     0.416808327306E+04    0.41681E+04   -0.15330E+05 23816   0.176E+03
DAV:   2     0.724796777486E+03   -0.34433E+04   -0.33302E+04 23336   0.466E+02
DAV:   3    -0.752186325496E+02   -0.80002E+03   -0.76119E+03 26368   0.225E+02
DAV:   4    -0.166798882434E+03   -0.91580E+02   -0.90246E+02 29536   0.702E+01
DAV:   5    -0.170372267190E+03   -0.35734E+01   -0.35531E+01 28736   0.159E+01    0.358E+01
DAV:   6    -0.159658413716E+03    0.10714E+02   -0.16537E+01 36288   0.422E+01    0.241E+01
DAV:   7    -0.163376338211E+03   -0.37179E+01   -0.56746E+01 32976   0.173E+01    0.146E+01
DAV:   8    -0.202729564283E+03   -0.39353E+02   -0.26449E+02 35992   0.197E+01    0.368E+01
DAV:   9    -0.160967116849E+03    0.41762E+02   -0.11759E+02 35168   0.131E+01    0.618E+00
DAV:  10    -0.160774445282E+03    0.19267E+00   -0.24979E+00 32776   0.510E+00    0.457E+00
DAV:  11    -0.160432849048E+03    0.34160E+00   -0.43644E-01 32576   0.243E+00    0.292E+00
DAV:  12    -0.160180461683E+03    0.25239E+00   -0.23434E-01 37376   0.196E+00    0.207E+00
DAV:  13    -0.159943648453E+03    0.23681E+00   -0.12289E-01 39024   0.205E+00    0.117E+00
DAV:  14    -0.159784313406E+03    0.15934E+00   -0.11110E-01 35832   0.159E+00    0.770E-01
DAV:  15    -0.159729471330E+03    0.54842E-01   -0.91743E-02 32720   0.829E-01    0.789E-01
DAV:  16    -0.159717226146E+03    0.12245E-01   -0.26971E-02 29336   0.303E-01    0.865E-01
DAV:  17    -0.159717397765E+03   -0.17162E-03   -0.24909E-03 29088   0.103E-01    0.912E-01
DAV:  18    -0.159675522221E+03    0.41876E-01   -0.15095E-03 36784   0.483E-01    0.813E-01
DAV:  19    -0.159627595198E+03    0.47927E-01   -0.87825E-01 37640   0.189E+00    0.120E+00
DAV:  20    -0.159630183960E+03   -0.25888E-02   -0.18698E-02 25992   0.190E-01    0.127E+00
DAV:  21    -0.159632869315E+03   -0.26854E-02   -0.10848E-03 39808   0.107E-01    0.145E+00
DAV:  22    -0.159632263173E+03    0.60614E-03   -0.24326E-04 30056   0.378E-02    0.142E+00
DAV:  23    -0.159632565925E+03   -0.30275E-03   -0.17772E-05 24704   0.165E-02    0.144E+00
DAV:  24    -0.159632736058E+03   -0.17013E-03   -0.20309E-04 34104   0.104E-01    0.142E+00
DAV:  25    -0.159633228495E+03   -0.49244E-03   -0.20197E-02 33096   0.988E-01    0.120E+00
DAV:  26    -0.159628915736E+03    0.43128E-02   -0.24042E-02 35312   0.673E-01    0.132E+00
DAV:  27    -0.159629997179E+03   -0.10814E-02   -0.12671E-02 27048   0.244E-01    0.139E+00
DAV:  28    -0.159630188008E+03   -0.19083E-03   -0.18137E-03 30384   0.961E-02    0.142E+00
DAV:  29    -0.159630954247E+03   -0.76624E-03   -0.11320E-04 30688   0.677E-02    0.143E+00
DAV:  30    -0.159631482462E+03   -0.52821E-03   -0.81043E-05 36784   0.852E-02    0.144E+00
DAV:  31    -0.159632225735E+03   -0.74327E-03   -0.60648E-04 35056   0.303E-01    0.149E+00
DAV:  32    -0.159649373448E+03   -0.17148E-01   -0.10849E-01 36912   0.133E+00    0.205E+00
DAV:  33    -0.159651238524E+03   -0.18651E-02   -0.10109E-02 28376   0.169E-01    0.207E+00
DAV:  34    -0.159651281025E+03   -0.42501E-04   -0.82712E-04 31056   0.661E-02    0.206E+00
DAV:  35    -0.159651874148E+03   -0.59312E-03   -0.32751E-05 30760   0.239E-02    0.207E+00
DAV:  36    -0.159652745611E+03   -0.87146E-03   -0.79727E-05 33344   0.814E-02    0.208E+00
DAV:  37    -0.159646442873E+03    0.63027E-02   -0.97292E-04 36424   0.254E-01    0.206E+00
DAV:  38    -0.159636812871E+03    0.96300E-02   -0.12562E-02 34216   0.386E-01    0.195E+00
DAV:  39    -0.159624402958E+03    0.12410E-01   -0.58815E-03 33760   0.524E-01    0.172E+00
DAV:  40    -0.159617784644E+03    0.66183E-02   -0.54748E-03 33952   0.531E-01    0.148E+00
DAV:  41    -0.159617118097E+03    0.66655E-03   -0.52740E-03 32920   0.167E-01    0.142E+00
DAV:  42    -0.159616850295E+03    0.26780E-03   -0.78932E-04 27480   0.633E-02    0.143E+00
DAV:  43    -0.159616837840E+03    0.12455E-04   -0.61750E-05 29944   0.182E-02    0.143E+00
DAV:  44    -0.159616400330E+03    0.43751E-03   -0.70235E-06 24968   0.173E-02    0.142E+00
DAV:  45    -0.159617453746E+03   -0.10534E-02   -0.17487E-04 32664   0.165E-01    0.136E+00
DAV:  46    -0.159618060542E+03   -0.60680E-03   -0.26266E-04 35592   0.126E-01    0.132E+00
DAV:  47    -0.159616658161E+03    0.14024E-02   -0.16412E-04 33048   0.844E-02    0.133E+00
DAV:  48    -0.159615448357E+03    0.12098E-02   -0.20493E-04 35872   0.951E-02    0.128E+00
DAV:  49    -0.159618817134E+03   -0.33688E-02   -0.79446E-04 36048   0.255E-01    0.132E+00
DAV:  50    -0.159622869061E+03   -0.40519E-02   -0.11607E-03 35160   0.123E-01    0.144E+00
DAV:  51    -0.159771604976E+03   -0.14874E+00   -0.54757E-01 37912   0.103E+00    0.425E+00
DAV:  52    -0.159704175450E+03    0.67430E-01   -0.42733E-02 32520   0.275E-01    0.342E+00
DAV:  53    -0.159684308083E+03    0.19867E-01   -0.14812E-03 35848   0.188E-01    0.298E+00
DAV:  54    -0.159681362641E+03    0.29454E-02   -0.86631E-04 30544   0.544E-02    0.291E+00
DAV:  55    -0.159685797777E+03   -0.44351E-02   -0.93917E-05 27128   0.373E-02    0.299E+00
DAV:  56    -0.159693782035E+03   -0.79843E-02   -0.19931E-04 34728   0.987E-02    0.316E+00
DAV:  57    -0.159699600995E+03   -0.58190E-02   -0.18356E-04 33576   0.476E-02    0.328E+00
DAV:  58    -0.159699583916E+03    0.17079E-04   -0.58208E-05 24856   0.170E-02    0.328E+00
DAV:  59    -0.159699577704E+03    0.62124E-05   -0.25452E-06 20888   0.385E-03    0.328E+00
DAV:  60    -0.159699539567E+03    0.38137E-04   -0.16714E-07 13848   0.142E-03    0.328E+00
DAV:  61    -0.160472233442E+03   -0.77269E+00   -0.36308E+00 33648   0.188E+00    0.843E+00
DAV:  62    -0.160479820694E+03   -0.75873E-02   -0.25127E-02 25720   0.247E-01    0.846E+00
DAV:  63    -0.160505010767E+03   -0.25190E-01   -0.11765E-03 35960   0.769E-02    0.852E+00
DAV:  64    -0.160550303745E+03   -0.45293E-01   -0.33998E-04 34152   0.598E-02    0.862E+00
DAV:  65    -0.160557521697E+03   -0.72180E-02   -0.94796E-05 27912   0.252E-02    0.863E+00
DAV:  66    -0.160586104831E+03   -0.28583E-01   -0.60585E-03 35304   0.401E-01    0.868E+00
DAV:  67    -0.160613794211E+03   -0.27689E-01   -0.28898E-03 31320   0.179E-01    0.873E+00
DAV:  68    -0.160733424068E+03   -0.11963E+00   -0.11748E-03 36336   0.141E-01    0.903E+00
DAV:  69    -0.160833884294E+03   -0.10046E+00   -0.77477E-04 34640   0.879E-02    0.923E+00
DAV:  70    -0.160950015185E+03   -0.11613E+00   -0.64167E-04 36512   0.897E-02    0.936E+00
DAV:  71    -0.160291481749E+03    0.65853E+00   -0.12484E-01 36144   0.791E-01    0.808E+00
DAV:  72    -0.160659300515E+03   -0.36782E+00   -0.48089E-02 35240   0.644E-01    0.903E+00
DAV:  73    -0.160882937506E+03   -0.22364E+00   -0.10281E-02 35056   0.272E-01    0.959E+00
DAV:  74    -0.160902559349E+03   -0.19622E-01   -0.35510E-03 34008   0.177E-01    0.965E+00
DAV:  75    -0.160969757864E+03   -0.67199E-01   -0.14880E-03 33112   0.104E-01    0.977E+00
DAV:  76    -0.161639794780E+03   -0.67004E+00   -0.29699E-01 34704   0.680E-01    0.106E+01
DAV:  77    -0.161236256497E+03    0.40354E+00   -0.15569E-02 33848   0.490E-01    0.974E+00
DAV:  78    -0.161223716917E+03    0.12540E-01   -0.33100E-03 28208   0.981E-02    0.971E+00
DAV:  79    -0.161227899158E+03   -0.41822E-02   -0.27018E-04 30120   0.419E-02    0.971E+00
DAV:  80    -0.161103472022E+03    0.12443E+00   -0.78563E-04 31824   0.886E-02    0.941E+00
DAV:  81    -0.160024388580E+03    0.10791E+01   -0.89280E-01 35592   0.103E+00    0.680E+00
DAV:  82    -0.160028344560E+03   -0.39560E-02   -0.95394E-03 26728   0.165E-01    0.679E+00
DAV:  83    -0.160067788691E+03   -0.39444E-01   -0.68864E-04 33192   0.810E-02    0.708E+00
DAV:  84    -0.160009202040E+03    0.58587E-01   -0.43360E-03 32616   0.174E-01    0.663E+00
DAV:  85    -0.159948093682E+03    0.61108E-01   -0.79009E-03 35672   0.336E-01    0.602E+00
DAV:  86    -0.159749829488E+03    0.19826E+00   -0.21346E-01 35792   0.922E-01    0.374E+00
DAV:  87    -0.159782807161E+03   -0.32978E-01   -0.15848E-02 31880   0.430E-01    0.390E+00
DAV:  88    -0.159816728740E+03   -0.33922E-01   -0.10073E-02 36712   0.439E-01    0.390E+00
DAV:  89    -0.159872288861E+03   -0.55560E-01   -0.12471E-02 37056   0.490E-01    0.404E+00
DAV:  90    -0.159838376058E+03    0.33913E-01   -0.93261E-03 30912   0.298E-01    0.376E+00
DAV:  91    -0.159739467565E+03    0.98908E-01   -0.84596E-02 31296   0.332E-01    0.246E+00
DAV:  92    -0.159776272313E+03   -0.36805E-01   -0.46280E-02 35664   0.392E-01    0.298E+00
DAV:  93    -0.159762067854E+03    0.14204E-01   -0.90868E-03 34328   0.449E-01    0.280E+00
DAV:  94    -0.159756782710E+03    0.52851E-02   -0.40468E-03 34472   0.186E-01    0.277E+00
DAV:  95    -0.159733153931E+03    0.23629E-01   -0.19588E-03 34416   0.160E-01    0.252E+00
DAV:  96    -0.159840133842E+03   -0.10698E+00   -0.25682E-01 33736   0.576E-01    0.406E+00
DAV:  97    -0.159797710623E+03    0.42423E-01   -0.98072E-03 33168   0.273E-01    0.387E+00
DAV:  98    -0.159767561513E+03    0.30149E-01   -0.41879E-03 32352   0.265E-01    0.346E+00
DAV:  99    -0.159757749547E+03    0.98120E-02   -0.68183E-04 31608   0.103E-01    0.342E+00
DAV: 100    -0.159710054728E+03    0.47695E-01   -0.37090E-02 38360   0.279E-01    0.240E+00
DAV: 101    -0.159768803425E+03   -0.58749E-01   -0.10797E-01 36432   0.787E-01    0.375E+00
DAV: 102    -0.159665010706E+03    0.10379E+00   -0.18981E-01 33368   0.460E-01    0.170E+00
DAV: 103    -0.159659508539E+03    0.55022E-02   -0.58023E-03 30480   0.226E-01    0.161E+00
DAV: 104    -0.159679126142E+03   -0.19618E-01   -0.12775E-02 34280   0.244E-01    0.194E+00
DAV: 105    -0.159690197704E+03   -0.11072E-01   -0.20854E-03 34576   0.146E-01    0.210E+00
DAV: 106    -0.159713307220E+03   -0.23110E-01   -0.50000E-02 36608   0.718E-01    0.237E+00
DAV: 107    -0.159723687663E+03   -0.10380E-01   -0.10097E-02 27576   0.201E-01    0.250E+00
DAV: 108    -0.159704894622E+03    0.18793E-01   -0.28461E-03 36664   0.289E-01    0.221E+00
DAV: 109    -0.159681944509E+03    0.22950E-01   -0.67131E-03 37112   0.400E-01    0.174E+00
DAV: 110    -0.159681249358E+03    0.69515E-03   -0.38413E-03 27224   0.111E-01    0.172E+00
DAV: 111    -0.159634477089E+03    0.46772E-01   -0.10775E-01 36672   0.386E-01    0.106E+00
DAV: 112    -0.159622461092E+03    0.12016E-01   -0.39233E-03 35592   0.342E-01    0.910E-01
DAV: 113    -0.159617491135E+03    0.49700E-02   -0.36835E-03 33520   0.261E-01    0.717E-01
DAV: 114    -0.159615229567E+03    0.22616E-02   -0.22707E-03 34024   0.184E-01    0.655E-01
DAV: 115    -0.159616446123E+03   -0.12166E-02   -0.88630E-04 36824   0.215E-01    0.622E-01
DAV: 116    -0.159629021802E+03   -0.12576E-01   -0.31066E-02 37664   0.419E-01    0.816E-01
DAV: 117    -0.159629070790E+03   -0.48988E-04   -0.32810E-03 25840   0.868E-02    0.829E-01
DAV: 118    -0.159629303787E+03   -0.23300E-03   -0.13995E-04 34120   0.259E-02    0.834E-01
DAV: 119    -0.159629257779E+03    0.46008E-04   -0.76674E-06 25032   0.899E-03    0.832E-01
DAV: 120    -0.159626137163E+03    0.31206E-02   -0.38297E-03 37736   0.138E-01    0.807E-01
DAV: 121    -0.159620114935E+03    0.60222E-02   -0.23854E-03 31472   0.171E-01    0.728E-01
DAV: 122    -0.159616943406E+03    0.31715E-02   -0.17599E-03 34264   0.152E-01    0.645E-01
DAV: 123    -0.159618334268E+03   -0.13909E-02   -0.65604E-04 35424   0.134E-01    0.652E-01
DAV: 124    -0.159615501089E+03    0.28332E-02   -0.81598E-04 36536   0.152E-01    0.565E-01
DAV: 125    -0.159614159444E+03    0.13416E-02   -0.14762E-03 35992   0.215E-01    0.536E-01
DAV: 126    -0.159613961602E+03    0.19784E-03   -0.17972E-03 36048   0.162E-01    0.555E-01
DAV: 127    -0.159613765191E+03    0.19641E-03   -0.82752E-04 26984   0.563E-02    0.561E-01
DAV: 128    -0.159612770554E+03    0.99464E-03   -0.43746E-05 34760   0.469E-02    0.530E-01
DAV: 129    -0.159612778345E+03   -0.77908E-05   -0.47405E-05 24392   0.145E-02    0.530E-01
DAV: 130    -0.159611744310E+03    0.10340E-02   -0.20356E-05 28912   0.559E-02    0.501E-01
DAV: 131    -0.159606221392E+03    0.55229E-02   -0.68662E-04 37360   0.347E-01    0.360E-01
DAV: 132    -0.159605759380E+03    0.46201E-03   -0.94070E-04 31224   0.724E-02    0.361E-01
DAV: 133    -0.159605774624E+03   -0.15244E-04   -0.12844E-04 28264   0.290E-02    0.363E-01
DAV: 134    -0.159605314080E+03    0.46054E-03   -0.13416E-05 28480   0.392E-02    0.362E-01
DAV: 135    -0.159604423828E+03    0.89025E-03   -0.26062E-04 36512   0.113E-01    0.382E-01
DAV: 136    -0.159604653868E+03   -0.23004E-03   -0.43213E-04 35784   0.101E-01    0.417E-01
DAV: 137    -0.159605306391E+03   -0.65252E-03   -0.29217E-04 34920   0.101E-01    0.457E-01
DAV: 138    -0.159605543152E+03   -0.23676E-03   -0.37203E-04 31496   0.485E-02    0.483E-01
DAV: 139    -0.159605760162E+03   -0.21701E-03   -0.11822E-04 33376   0.241E-02    0.500E-01
DAV: 140    -0.159605647659E+03    0.11250E-03   -0.27259E-05 27704   0.293E-02    0.494E-01
DAV: 141    -0.159605453742E+03    0.19392E-03   -0.26843E-05 28848   0.369E-02    0.510E-01
DAV: 142    -0.159605524294E+03   -0.70553E-04   -0.83101E-06 25840   0.132E-02    0.510E-01
DAV: 143    -0.159605584266E+03   -0.59972E-04   -0.19143E-06 21320   0.745E-03    0.512E-01
DAV: 144    -0.159605393899E+03    0.19037E-03   -0.75173E-06 26400   0.304E-02    0.506E-01
DAV: 145    -0.159605810970E+03   -0.41707E-03   -0.15861E-05 27272   0.401E-02    0.513E-01
DAV: 146    -0.159604423701E+03    0.13873E-02   -0.19077E-04 35488   0.124E-01    0.491E-01
DAV: 147    -0.159604024797E+03    0.39890E-03   -0.26739E-04 36992   0.104E-01    0.481E-01
DAV: 148    -0.159603835480E+03    0.18932E-03   -0.28497E-04 28712   0.349E-02    0.479E-01
DAV: 149    -0.159604090446E+03   -0.25497E-03   -0.34669E-05 28824   0.263E-02    0.487E-01
DAV: 150    -0.159603842226E+03    0.24822E-03   -0.47048E-05 32904   0.474E-02    0.487E-01
DAV: 151    -0.159603136123E+03    0.70610E-03   -0.61636E-04 35904   0.196E-01    0.543E-01
DAV: 152    -0.159603858702E+03   -0.72258E-03   -0.66581E-04 36336   0.164E-01    0.634E-01
DAV: 153    -0.159604100350E+03   -0.24165E-03   -0.79890E-04 30376   0.568E-02    0.677E-01
DAV: 154    -0.159604490237E+03   -0.38989E-03   -0.11348E-04 35408   0.309E-02    0.710E-01
DAV: 155    -0.159604595279E+03   -0.10504E-03   -0.32068E-05 25792   0.219E-02    0.710E-01
DAV: 156    -0.159605284065E+03   -0.68879E-03   -0.29554E-04 37464   0.141E-01    0.747E-01
DAV: 157    -0.159604202687E+03    0.10814E-02   -0.25174E-04 29704   0.536E-02    0.688E-01
DAV: 158    -0.159605270212E+03   -0.10675E-02   -0.93278E-05 32040   0.777E-02    0.739E-01
DAV: 159    -0.159603877745E+03    0.13925E-02   -0.87817E-05 34792   0.812E-02    0.635E-01
DAV: 160    -0.159604273733E+03   -0.39599E-03   -0.65485E-05 33376   0.395E-02    0.651E-01
DAV: 161    -0.159603222830E+03    0.10509E-02   -0.20224E-03 36184   0.308E-01    0.556E-01
DAV: 162    -0.159602843297E+03    0.37953E-03   -0.12289E-03 27328   0.719E-02    0.523E-01
DAV: 163    -0.159602527523E+03    0.31577E-03   -0.16005E-04 35104   0.510E-02    0.482E-01
DAV: 164    -0.159602416949E+03    0.11057E-03   -0.67716E-05 35768   0.534E-02    0.454E-01
DAV: 165    -0.159602196069E+03    0.22088E-03   -0.89584E-05 32952   0.418E-02    0.434E-01
DAV: 166    -0.159602194486E+03    0.15833E-05   -0.84948E-05 33288   0.473E-02    0.445E-01
DAV: 167    -0.159602148387E+03    0.46099E-04   -0.82039E-05 37096   0.822E-02    0.436E-01
DAV: 168    -0.159602363785E+03   -0.21540E-03   -0.12040E-04 36120   0.385E-02    0.434E-01
DAV: 169    -0.159602906187E+03   -0.54240E-03   -0.35553E-05 30560   0.373E-02    0.468E-01
DAV: 170    -0.159602681379E+03    0.22481E-03   -0.31000E-05 29080   0.284E-02    0.450E-01
DAV: 171    -0.159680667274E+03   -0.77986E-01   -0.36467E-01 37216   0.674E-01    0.290E+00
DAV: 172    -0.159693405809E+03   -0.12739E-01   -0.32171E-03 27768   0.153E-01    0.313E+00
DAV: 173    -0.159671471420E+03    0.21934E-01   -0.41122E-04 32640   0.100E-01    0.268E+00
DAV: 174    -0.159640408450E+03    0.31063E-01   -0.10367E-03 38720   0.139E-01    0.205E+00
DAV: 175    -0.159610219585E+03    0.30189E-01   -0.13692E-02 38920   0.218E-01    0.838E-01
DAV: 176    -0.159600336690E+03    0.98829E-02   -0.16196E-03 36984   0.311E-01    0.159E-01
DAV: 177    -0.159600173545E+03    0.16315E-03   -0.97015E-04 30688   0.148E-01    0.137E-01
DAV: 178    -0.159600045561E+03    0.12798E-03   -0.32025E-04 32656   0.850E-02    0.129E-01
DAV: 179    -0.159599801532E+03    0.24403E-03   -0.22316E-04 39752   0.170E-01    0.171E-01
DAV: 180    -0.159599526789E+03    0.27474E-03   -0.25491E-04 32864   0.476E-02    0.150E-01
DAV: 181    -0.159599294196E+03    0.23259E-03   -0.69492E-05 34888   0.794E-02    0.107E-01
DAV: 182    -0.159599185745E+03    0.10845E-03   -0.11607E-04 34712   0.745E-02    0.124E-01
DAV: 183    -0.159600562666E+03   -0.13769E-02   -0.11723E-04 37136   0.116E-01    0.301E-01
DAV: 184    -0.159602891634E+03   -0.23290E-02   -0.25618E-04 35472   0.908E-02    0.554E-01
DAV: 185    -0.159604534802E+03   -0.16432E-02   -0.20571E-04 31864   0.559E-02    0.723E-01
DAV: 186    -0.159603580864E+03    0.95394E-03   -0.11380E-04 30432   0.384E-02    0.640E-01
DAV: 187    -0.159605348930E+03   -0.17681E-02   -0.47931E-05 28872   0.432E-02    0.787E-01
DAV: 188    -0.159603827832E+03    0.15211E-02   -0.71435E-05 29856   0.284E-02    0.660E-01
DAV: 189    -0.159603753452E+03    0.74380E-04   -0.35780E-05 28392   0.244E-02    0.657E-01
DAV: 190    -0.159601958306E+03    0.17951E-02   -0.25967E-05 30840   0.404E-02    0.491E-01
DAV: 191    -0.159599165744E+03    0.27926E-02   -0.16153E-04 35040   0.111E-01    0.200E-01
DAV: 192    -0.159598850478E+03    0.31527E-03   -0.17445E-04 29112   0.391E-02    0.165E-01
DAV: 193    -0.159598782208E+03    0.68269E-04   -0.36022E-05 30848   0.348E-02    0.154E-01
DAV: 194    -0.159599284739E+03   -0.50253E-03   -0.48418E-05 34608   0.644E-02    0.215E-01
DAV: 195    -0.159599238831E+03    0.45908E-04   -0.46093E-05 32584   0.371E-02    0.204E-01
DAV: 196    -0.159599110170E+03    0.12866E-03   -0.27343E-05 27856   0.143E-02    0.186E-01
DAV: 197    -0.159599093975E+03    0.16195E-04   -0.47070E-06 24624   0.945E-03    0.183E-01
DAV: 198    -0.159598792200E+03    0.30178E-03   -0.15026E-05 29392   0.393E-02    0.135E-01
DAV: 199    -0.159598752034E+03    0.40166E-04   -0.12258E-05 28152   0.161E-02    0.125E-01
DAV: 200    -0.159598750697E+03    0.13364E-05   -0.71182E-06 26360   0.609E-03    0.123E-01
DAV: 201    -0.159598714395E+03    0.36303E-04   -0.69923E-07 16608   0.554E-03    0.117E-01
DAV: 202    -0.159598656893E+03    0.57502E-04   -0.48694E-07 17248   0.548E-03    0.106E-01
DAV: 203    -0.159598581089E+03    0.75804E-04   -0.22318E-06 19768   0.110E-02    0.888E-02
DAV: 204    -0.159598551619E+03    0.29470E-04   -0.43727E-06 24760   0.860E-03    0.795E-02
DAV: 205    -0.159598509325E+03    0.42294E-04   -0.30241E-06 24096   0.635E-03    0.715E-02
DAV: 206    -0.159598447794E+03    0.61530E-04   -0.13539E-06 18552   0.109E-02    0.577E-02
DAV: 207    -0.159598375121E+03    0.72674E-04   -0.27536E-06 22152   0.141E-02    0.413E-02
DAV: 208    -0.159598332491E+03    0.42629E-04   -0.35487E-06 26792   0.101E-02    0.304E-02
DAV: 209    -0.159598312876E+03    0.19615E-04   -0.32838E-06 26512   0.566E-03    0.244E-02
DAV: 210    -0.159598306316E+03    0.65598E-05   -0.15234E-06 19352   0.278E-03    0.216E-02
DAV: 211    -0.159598295390E+03    0.10926E-04   -0.14245E-07 16000   0.415E-03    0.175E-02
DAV: 212    -0.159598281838E+03    0.13552E-04   -0.61835E-07 18296   0.750E-03    0.104E-02
DAV: 213    -0.159598275740E+03    0.60980E-05   -0.98579E-07 18880   0.575E-03    0.618E-03
DAV: 214    -0.159598273906E+03    0.18339E-05   -0.98108E-07 18960   0.316E-03    0.451E-03
DAV: 215    -0.159598273732E+03    0.17365E-06   -0.57830E-07 15440   0.168E-03
   1 F= -.17194099E+03 E0= -.17193990E+03  d E =-.171941E+03
 curvature:   0.00 expect dE= 0.000E+00 dE for cont linesearch  0.000E+00
 trial: gam= 0.00000 g(F)=  0.178E-01 g(S)=  0.000E+00 ort = 0.000E+00 (trialstep = 0.100E+01)
 search vector abs. value=  0.178E-01
 bond charge predicted
       N       E                     dE             d eps       ncg     rms          rms(c)
DAV:   1    -0.159597788068E+03    0.48584E-03   -0.28522E+00 25984   0.229E+00    0.971E-01
DAV:   2    -0.159609161819E+03   -0.11374E-01   -0.13094E-01 33656   0.678E-01    0.289E-01
DAV:   3    -0.159608890809E+03    0.27101E-03   -0.32847E-03 34104   0.181E-01    0.200E-01
DAV:   4    -0.159608770703E+03    0.12011E-03   -0.47001E-04 35400   0.134E-01    0.148E-01
DAV:   5    -0.159608510902E+03    0.25980E-03   -0.77659E-04 31160   0.105E-01    0.875E-02
DAV:   6    -0.159608361906E+03    0.14900E-03   -0.14972E-04 33656   0.618E-02    0.490E-02
DAV:   7    -0.159608298487E+03    0.63419E-04   -0.87640E-05 31248   0.413E-02    0.398E-02
DAV:   8    -0.159608294589E+03    0.38982E-05   -0.52008E-05 30272   0.139E-02    0.393E-02
DAV:   9    -0.159608296551E+03   -0.19624E-05   -0.72430E-06 24736   0.529E-03    0.309E-02
DAV:  10    -0.159608296797E+03   -0.24561E-06   -0.34366E-06 21920   0.775E-03
   2 F= -.17195123E+03 E0= -.17195040E+03  d E =-.102396E-01
 trial-energy change:   -0.010240  1 .order   -0.010347   -0.017789   -0.002906
 step:   1.2060(harm=  1.1952)  dis= 0.02077  next Energy=  -171.951529 (dE=-0.105E-01)
 bond charge predicted
       N       E                     dE             d eps       ncg     rms          rms(c)
DAV:   1    -0.159608101464E+03    0.19509E-03   -0.12170E-01 26272   0.471E-01    0.207E-01
DAV:   2    -0.159608523782E+03   -0.42232E-03   -0.49277E-03 33272   0.130E-01    0.453E-02
DAV:   3    -0.159608511580E+03    0.12202E-04   -0.20408E-04 32616   0.282E-02    0.423E-02
DAV:   4    -0.159608503927E+03    0.76532E-05   -0.17554E-05 28768   0.122E-02    0.245E-02
DAV:   5    -0.159608496623E+03    0.73044E-05   -0.47518E-06 25344   0.134E-02    0.154E-02
DAV:   6    -0.159608499101E+03   -0.24780E-05   -0.63502E-06 27032   0.207E-02    0.136E-02
DAV:   7    -0.159608493501E+03    0.55996E-05   -0.73839E-06 25368   0.116E-02    0.105E-02
DAV:   8    -0.159608494737E+03   -0.12360E-05   -0.34326E-06 24728   0.363E-03    0.113E-02
DAV:   9    -0.159608494757E+03   -0.20438E-07   -0.18576E-07 14864   0.117E-03
   3 F= -.17195147E+03 E0= -.17195072E+03  d E =-.104821E-01
 curvature:  -0.60 expect dE=-0.199E-02 dE for cont linesearch -0.666E-05
 trial: gam= 0.21323 g(F)=  0.335E-02 g(S)=  0.000E+00 ort =-0.446E-03 (trialstep = 0.104E+01)
 search vector abs. value=  0.397E-02
 bond charge predicted
       N       E                     dE             d eps       ncg     rms          rms(c)
DAV:   1    -0.159610871007E+03   -0.23763E-02   -0.55065E-01 23592   0.115E+00    0.316E-01
DAV:   2    -0.159612449858E+03   -0.15789E-02   -0.17526E-02 32632   0.262E-01    0.974E-02
DAV:   3    -0.159612394254E+03    0.55604E-04   -0.39217E-04 30560   0.690E-02    0.861E-02
DAV:   4    -0.159612378051E+03    0.16203E-04   -0.92118E-05 31176   0.501E-02    0.562E-02
DAV:   5    -0.159612366371E+03    0.11680E-04   -0.46893E-05 32080   0.390E-02    0.305E-02
DAV:   6    -0.159612351912E+03    0.14458E-04   -0.33493E-05 27184   0.239E-02    0.112E-02
DAV:   7    -0.159612354864E+03   -0.29519E-05   -0.10834E-05 25304   0.103E-02    0.968E-03
DAV:   8    -0.159612356340E+03   -0.14761E-05   -0.27705E-06 22736   0.646E-03    0.715E-03
DAV:   9    -0.159612357482E+03   -0.11417E-05   -0.12669E-06 18744   0.514E-03    0.476E-03
DAV:  10    -0.159612359874E+03   -0.23921E-05   -0.10114E-06 18424   0.409E-03    0.453E-03
DAV:  11    -0.159612363697E+03   -0.38229E-05   -0.10425E-06 18168   0.509E-03    0.409E-03
DAV:  12    -0.159612367185E+03   -0.34886E-05   -0.16062E-06 19712   0.490E-03    0.351E-03
DAV:  13    -0.159612370830E+03   -0.36449E-05   -0.14295E-06 19248   0.434E-03    0.293E-03
DAV:  14    -0.159612372259E+03   -0.14283E-05   -0.32861E-06 19120   0.719E-03    0.210E-03
DAV:  15    -0.159612364882E+03    0.73761E-05   -0.44114E-06 21272   0.670E-03    0.190E-03
DAV:  16    -0.159612364123E+03    0.75898E-06   -0.11744E-06 18288   0.584E-03
   4 F= -.17195420E+03 E0= -.17195352E+03  d E =-.272844E-02
 trial-energy change:   -0.002728  1 .order   -0.002709   -0.003386   -0.002032
 step:   2.3501(harm=  2.6031)  dis= 0.01282  next Energy=  -171.955517 (dE=-0.404E-02)
 bond charge predicted
       N       E                     dE             d eps       ncg     rms          rms(c)
DAV:   1    -0.159612965015E+03   -0.60013E-03   -0.87026E-01 23520   0.145E+00    0.392E-01
DAV:   2    -0.159615470932E+03   -0.25059E-02   -0.27631E-02 32648   0.325E-01    0.124E-01
DAV:   3    -0.159615379322E+03    0.91610E-04   -0.55869E-04 30656   0.714E-02    0.107E-01
DAV:   4    -0.159615370155E+03    0.91667E-05   -0.15353E-04 31616   0.560E-02    0.635E-02
DAV:   5    -0.159615344935E+03    0.25220E-04   -0.57071E-05 33456   0.444E-02    0.324E-02
DAV:   6    -0.159615336725E+03    0.82096E-05   -0.35944E-05 28336   0.283E-02    0.137E-02
DAV:   7    -0.159615333819E+03    0.29068E-05   -0.11605E-05 26088   0.113E-02    0.105E-02
DAV:   8    -0.159615331762E+03    0.20568E-05   -0.32900E-06 23704   0.644E-03    0.663E-03
DAV:   9    -0.159615330320E+03    0.14416E-05   -0.71387E-07 17120   0.412E-03    0.287E-03
DAV:  10    -0.159615329143E+03    0.11769E-05   -0.60587E-07 16696   0.307E-03    0.178E-03
DAV:  11    -0.159615328248E+03    0.89551E-06   -0.21296E-07 16104   0.300E-03
   5 F= -.17195574E+03 E0= -.17195508E+03  d E =-.426411E-02
 curvature:  -1.55 expect dE=-0.128E-02 dE for cont linesearch -0.591E-04
 ZBRENT: extrapolating
 opt :   2.6764  next Energy=  -171.955801 (dE=-0.433E-02)
 bond charge predicted
       N       E                     dE             d eps       ncg     rms          rms(c)
DAV:   1    -0.159615606292E+03   -0.27715E-03   -0.54065E-02 23664   0.361E-01    0.981E-02
DAV:   2    -0.159615762212E+03   -0.15592E-03   -0.17119E-03 32888   0.813E-02    0.312E-02
DAV:   3    -0.159615755682E+03    0.65302E-05   -0.34887E-05 28216   0.176E-02    0.269E-02
DAV:   4    -0.159615754256E+03    0.14261E-05   -0.94283E-06 28264   0.139E-02    0.160E-02
DAV:   5    -0.159615752211E+03    0.20454E-05   -0.33331E-06 24056   0.109E-02    0.786E-03
DAV:   6    -0.159615751093E+03    0.11172E-05   -0.27650E-06 22344   0.805E-03    0.316E-03
DAV:   7    -0.159615750771E+03    0.32197E-06   -0.67706E-07 15480   0.368E-03
   6 F= -.17195581E+03 E0= -.17195515E+03  d E =-.433159E-02
 curvature:  -1.66 expect dE=-0.160E-02 dE for cont linesearch -0.344E-07
 trial: gam= 0.23883 g(F)=  0.963E-03 g(S)=  0.000E+00 ort = 0.907E-05 (trialstep = 0.137E+01)
 search vector abs. value=  0.119E-02
 bond charge predicted
       N       E                     dE             d eps       ncg     rms          rms(c)
DAV:   1    -0.159616767779E+03   -0.10167E-02   -0.29273E-01 24320   0.878E-01    0.216E-01
DAV:   2    -0.159617545589E+03   -0.77781E-03   -0.89603E-03 33048   0.203E-01    0.767E-02
DAV:   3    -0.159617525076E+03    0.20513E-04   -0.26988E-04 30776   0.492E-02    0.647E-02
DAV:   4    -0.159617522951E+03    0.21248E-05   -0.44296E-05 33288   0.325E-02    0.435E-02
DAV:   5    -0.159617511491E+03    0.11460E-04   -0.15223E-05 28984   0.243E-02    0.250E-02
DAV:   6    -0.159617510312E+03    0.11793E-05   -0.16389E-05 27512   0.145E-02    0.113E-02
DAV:   7    -0.159617509683E+03    0.62896E-06   -0.73569E-06 28088   0.102E-02
   7 F= -.17195674E+03 E0= -.17195608E+03  d E =-.934329E-03
 trial-energy change:   -0.000934  1 .order   -0.000936   -0.001320   -0.000551
 step:   2.3497(harm=  2.3497)  dis= 0.00876  next Energy=  -171.956938 (dE=-0.113E-02)
 bond charge predicted
       N       E                     dE             d eps       ncg     rms          rms(c)
DAV:   1    -0.159617911328E+03   -0.40102E-03   -0.15073E-01 24464   0.630E-01    0.159E-01
DAV:   2    -0.159618313992E+03   -0.40266E-03   -0.46519E-03 33072   0.147E-01    0.543E-02
DAV:   3    -0.159618302049E+03    0.11943E-04   -0.14455E-04 30648   0.404E-02    0.454E-02
DAV:   4    -0.159618303402E+03   -0.13529E-05   -0.24685E-05 32672   0.282E-02    0.318E-02
DAV:   5    -0.159618294152E+03    0.92497E-05   -0.93122E-06 28464   0.197E-02    0.180E-02
DAV:   6    -0.159618293320E+03    0.83181E-06   -0.10588E-05 25936   0.100E-02    0.780E-03
DAV:   7    -0.159618293022E+03    0.29834E-06   -0.39639E-06 26888   0.696E-03
   8 F= -.17195693E+03 E0= -.17195627E+03  d E =-.112654E-02
 curvature:  -1.45 expect dE=-0.374E-03 dE for cont linesearch -0.369E-07
 trial: gam= 0.28589 g(F)=  0.258E-03 g(S)=  0.000E+00 ort =-0.551E-05 (trialstep = 0.156E+01)
 search vector abs. value=  0.352E-03
 bond charge predicted
       N       E                     dE             d eps       ncg     rms          rms(c)
DAV:   1    -0.159618737219E+03   -0.44390E-03   -0.99263E-02 23880   0.531E-01    0.143E-01
DAV:   2    -0.159619091964E+03   -0.35475E-03   -0.40251E-03 33976   0.144E-01    0.461E-02
DAV:   3    -0.159619084288E+03    0.76764E-05   -0.12434E-04 31096   0.372E-02    0.372E-02
DAV:   4    -0.159619082247E+03    0.20413E-05   -0.18229E-05 31216   0.211E-02    0.242E-02
DAV:   5    -0.159619079098E+03    0.31489E-05   -0.50592E-06 25744   0.137E-02    0.165E-02
DAV:   6    -0.159619078210E+03    0.88773E-06   -0.65028E-06 26472   0.905E-03
   9 F= -.17195719E+03 E0= -.17195653E+03  d E =-.261184E-03
 trial-energy change:   -0.000261  1 .order   -0.000266   -0.000401   -0.000131
 step:   2.4796(harm=  2.3267)  dis= 0.00315  next Energy=  -171.957230 (dE=-0.299E-03)
 bond charge predicted
       N       E                     dE             d eps       ncg     rms          rms(c)
DAV:   1    -0.159619291351E+03   -0.21225E-03   -0.33879E-02 23904   0.311E-01    0.847E-02
DAV:   2    -0.159619410427E+03   -0.11908E-03   -0.13772E-03 34208   0.837E-02    0.269E-02
DAV:   3    -0.159619407886E+03    0.25411E-05   -0.41254E-05 30512   0.200E-02    0.209E-02
DAV:   4    -0.159619406938E+03    0.94755E-06   -0.61384E-06 28488   0.121E-02
  10 F= -.17195722E+03 E0= -.17195655E+03  d E =-.283561E-03
 curvature:  -1.53 expect dE=-0.291E-03 dE for cont linesearch -0.244E-05
 trial: gam= 0.81657 g(F)=  0.190E-03 g(S)=  0.000E+00 ort =-0.237E-04 (trialstep = 0.159E+01)
 search vector abs. value=  0.386E-03
 bond charge predicted
       N       E                     dE             d eps       ncg     rms          rms(c)
DAV:   1    -0.159620190961E+03   -0.78308E-03   -0.14927E-01 25120   0.557E-01    0.122E-01
DAV:   2    -0.159620581320E+03   -0.39036E-03   -0.43073E-03 34040   0.131E-01    0.455E-02
DAV:   3    -0.159620575437E+03    0.58831E-05   -0.79187E-05 33040   0.212E-02    0.389E-02
DAV:   4    -0.159620572238E+03    0.31987E-05   -0.13463E-05 26608   0.778E-03    0.235E-02
DAV:   5    -0.159620571411E+03    0.82719E-06   -0.55674E-06 25168   0.102E-02
  11 F= -.17195741E+03 E0= -.17195674E+03  d E =-.198273E-03
 trial-energy change:   -0.000198  1 .order   -0.000204   -0.000272   -0.000136
 step:   3.1866(harm=  3.1866)  dis= 0.00596  next Energy=  -171.957487 (dE=-0.272E-03)
 bond charge predicted
       N       E                     dE             d eps       ncg     rms          rms(c)
DAV:   1    -0.159621218747E+03   -0.64651E-03   -0.14901E-01 25120   0.556E-01    0.130E-01
DAV:   2    -0.159621608165E+03   -0.38942E-03   -0.43365E-03 34256   0.133E-01    0.395E-02
DAV:   3    -0.159621603239E+03    0.49253E-05   -0.81802E-05 33856   0.258E-02    0.342E-02
DAV:   4    -0.159621601746E+03    0.14937E-05   -0.11980E-05 27520   0.160E-02    0.219E-02
DAV:   5    -0.159621600337E+03    0.14085E-05   -0.50618E-06 26784   0.134E-02    0.120E-02
DAV:   6    -0.159621599493E+03    0.84403E-06   -0.49659E-06 23344   0.989E-03
  12 F= -.17195748E+03 E0= -.17195681E+03  d E =-.261563E-03
 curvature:  -3.61 expect dE=-0.972E-03 dE for cont linesearch -0.477E-07
 trial: gam= 1.19650 g(F)=  0.269E-03 g(S)=  0.000E+00 ort = 0.226E-05 (trialstep = 0.892E+00)
 search vector abs. value=  0.827E-03
 bond charge predicted
       N       E                     dE             d eps       ncg     rms          rms(c)
DAV:   1    -0.159622328775E+03   -0.72844E-03   -0.75862E-02 23976   0.408E-01    0.108E-01
DAV:   2    -0.159622574562E+03   -0.24579E-03   -0.27889E-03 32992   0.985E-02    0.330E-02
DAV:   3    -0.159622571152E+03    0.34104E-05   -0.63732E-05 30040   0.168E-02    0.301E-02
DAV:   4    -0.159622569782E+03    0.13702E-05   -0.80126E-06 28536   0.628E-03    0.192E-02
DAV:   5    -0.159622569332E+03    0.44971E-06   -0.22749E-06 22016   0.520E-03
  13 F= -.17195769E+03 E0= -.17195702E+03  d E =-.209201E-03
 trial-energy change:   -0.000209  1 .order   -0.000210   -0.000243   -0.000178
 step:   3.3461(harm=  3.3461)  dis= 0.00950  next Energy=  -171.957932 (dE=-0.455E-03)
 bond charge predicted
       N       E                     dE             d eps       ncg     rms          rms(c)
DAV:   1    -0.159623092269E+03   -0.52249E-03   -0.57397E-01 23920   0.112E+00    0.288E-01
DAV:   2    -0.159624977289E+03   -0.18850E-02   -0.21139E-02 32824   0.276E-01    0.100E-01
DAV:   3    -0.159624946939E+03    0.30350E-04   -0.48239E-04 31904   0.506E-02    0.873E-02
DAV:   4    -0.159624932733E+03    0.14206E-04   -0.63671E-05 31064   0.186E-02    0.557E-02
DAV:   5    -0.159624928368E+03    0.43643E-05   -0.19712E-05 29472   0.153E-02    0.294E-02
DAV:   6    -0.159624928645E+03   -0.27713E-06   -0.18004E-05 27600   0.160E-02    0.128E-02
DAV:   7    -0.159624928457E+03    0.18873E-06   -0.65298E-06 25696   0.121E-02
  14 F= -.17195796E+03 E0= -.17195730E+03  d E =-.478853E-03
 curvature:  -5.09 expect dE=-0.439E-03 dE for cont linesearch -0.498E-05
 ZBRENT: extrapolating
 opt :   3.7541  next Energy=  -171.957961 (dE=-0.485E-03)
 bond charge predicted
       N       E                     dE             d eps       ncg     rms          rms(c)
DAV:   1    -0.159625227079E+03   -0.29843E-03   -0.15908E-02 24064   0.187E-01    0.541E-02
DAV:   2    -0.159625278981E+03   -0.51902E-04   -0.60018E-04 33104   0.460E-02    0.142E-02
DAV:   3    -0.159625278248E+03    0.73233E-06   -0.14185E-05 28664   0.973E-03    0.126E-02
DAV:   4    -0.159625277934E+03    0.31449E-06   -0.16409E-06 20336   0.500E-03
  15 F= -.17195796E+03 E0= -.17195730E+03  d E =-.481385E-03
 curvature:  -5.93 expect dE=-0.671E-03 dE for cont linesearch -0.879E-07
 trial: gam= 0.51592 g(F)=  0.113E-03 g(S)=  0.000E+00 ort =-0.350E-05 (trialstep = 0.146E+01)
 search vector abs. value=  0.330E-03
 bond charge predicted
       N       E                     dE             d eps       ncg     rms          rms(c)
DAV:   1    -0.159625771379E+03   -0.49313E-03   -0.86083E-02 23568   0.473E-01    0.115E-01
DAV:   2    -0.159626045323E+03   -0.27394E-03   -0.30009E-03 33296   0.113E-01    0.390E-02
DAV:   3    -0.159626037820E+03    0.75035E-05   -0.61763E-05 29744   0.184E-02    0.348E-02
DAV:   4    -0.159626035706E+03    0.21137E-05   -0.13655E-05 28512   0.870E-03    0.215E-02
DAV:   5    -0.159626034929E+03    0.77693E-06   -0.20826E-06 21368   0.635E-03
  16 F= -.17195808E+03 E0= -.17195742E+03  d E =-.120398E-03
 trial-energy change:   -0.000120  1 .order   -0.000123   -0.000163   -0.000084
 step:   3.0115(harm=  3.0115)  dis= 0.00502  next Energy=  -171.958126 (dE=-0.168E-03)
 reached required accuracy - stopping structural energy minimisation
