WP2-P02-beta001-thickness-6L-relax-500-k
           1
     3.878284    0.000000    0.000000
    -1.939142    3.358693    0.000000
     0.000000   -0.000000   90.162024
   S    In   Zn   S    In   Zn   S    In   Zn   S    In   Zn   S    In   Zn   S    In   Zn
     4     2     1     4     2     1     4     2     1     4     2     1     4     2     1     4     2     1
Direct configuration=           1
   0.00000000  0.00000000  0.11091144
   0.66666666  0.33333331  0.15014886
   0.00000000  0.00000000  0.18109897
   0.33333331  0.66666666  0.21538845
   0.66666666  0.33333331  0.12296502
   0.33333331  0.66666666  0.16706481
   0.00000000  0.00000000  0.20924026
   0.00000000  0.00000000  0.24565146
   0.66666666  0.33333331  0.28488888
   0.00000000  0.00000000  0.31583899
   0.33333331  0.66666666  0.35012847
   0.66666666  0.33333331  0.25770505
   0.33333331  0.66666666  0.30180483
   0.00000000  0.00000000  0.34398029
   0.00000000  0.00000000  0.38039149
   0.66666666  0.33333331  0.41962890
   0.00000000  0.00000000  0.45057902
   0.33333331  0.66666666  0.48486849
   0.66666666  0.33333331  0.39244507
   0.33333331  0.66666666  0.43654485
   0.00000000  0.00000000  0.47872031
   0.00000000  0.00000000  0.51513151
   0.66666666  0.33333331  0.55436893
   0.00000000  0.00000000  0.58531904
   0.33333331  0.66666666  0.61960851
   0.66666666  0.33333331  0.52718509
   0.33333331  0.66666666  0.57128487
   0.00000000  0.00000000  0.61346033
   0.00000000  0.00000000  0.64987153
   0.66666666  0.33333331  0.68910895
   0.00000000  0.00000000  0.72005906
   0.33333331  0.66666666  0.75434854
   0.66666666  0.33333331  0.66192512
   0.33333331  0.66666666  0.70602490
   0.00000000  0.00000000  0.74820035
   0.00000000  0.00000000  0.78461155
   0.66666666  0.33333331  0.82384897
   0.00000000  0.00000000  0.85479908
   0.33333331  0.66666666  0.88908856
   0.66666666  0.33333331  0.79666514
   0.33333331  0.66666666  0.84076492
   0.00000000  0.00000000  0.88294038
Direct configuration=           2
   0.00000003  0.99999996  0.11075551
   0.66666667  0.33333329  0.15003697
   0.00000001  0.99999999  0.18106138
   0.33333345  0.66666654  0.21534188
   0.66666667  0.33333330  0.12315603
   0.33333334  0.66666663  0.16715655
   0.99999978  0.00000023  0.20928718
   0.00000003  0.99999996  0.24565497
   0.66666667  0.33333329  0.28485699
   0.00000001  0.99999999  0.31582574
   0.33333345  0.66666654  0.35010556
   0.66666668  0.33333330  0.25773425
   0.33333334  0.66666664  0.30183003
   0.99999979  0.00000021  0.34399871
   0.00000003  0.99999996  0.38039334
   0.66666668  0.33333329  0.41961024
   0.00000001  0.99999999  0.45057187
   0.33333345  0.66666654  0.48485250
   0.66666667  0.33333331  0.39246047
   0.33333334  0.66666664  0.43655990
   0.99999977  0.00000022  0.47873195
   0.00000003  0.99999996  0.51513248
   0.66666668  0.33333329  0.55435309
   0.00000001  0.99999999  0.58531324
   0.33333345  0.66666654  0.61959385
   0.66666667  0.33333331  0.52719755
   0.33333333  0.66666665  0.57129759
   0.99999977  0.00000022  0.61347106
   0.00000003  0.99999996  0.64987242
   0.66666667  0.33333329  0.68909406
   0.00000001  0.99999999  0.72005308
   0.33333344  0.66666654  0.75432447
   0.66666667  0.33333331  0.66193665
   0.33333333  0.66666665  0.70603629
   0.99999978  0.00000021  0.74821137
   0.00000003  0.99999996  0.78460791
   0.66666667  0.33333329  0.82379976
   0.00000001  0.99999999  0.85475445
   0.33333345  0.66666653  0.88907335
   0.66666667  0.33333331  0.79670894
   0.33333333  0.66666664  0.84079539
   0.99999979  0.00000019  0.88300023
Direct configuration=           3
   0.00000004  0.99999996  0.11072339
   0.66666667  0.33333328  0.15001391
   0.00000001  0.99999999  0.18105364
   0.33333348  0.66666651  0.21533229
   0.66666668  0.33333330  0.12319538
   0.33333335  0.66666663  0.16717545
   0.99999973  0.00000027  0.20929685
   0.00000003  0.99999995  0.24565570
   0.66666668  0.33333328  0.28485042
   0.00000001  0.99999999  0.31582301
   0.33333348  0.66666651  0.35010084
   0.66666668  0.33333330  0.25774026
   0.33333334  0.66666664  0.30183522
   0.99999975  0.00000026  0.34400250
   0.00000003  0.99999995  0.38039372
   0.66666668  0.33333328  0.41960640
   0.00000001  0.99999999  0.45057039
   0.33333348  0.66666651  0.48484921
   0.66666667  0.33333331  0.39246364
   0.33333334  0.66666664  0.43656300
   0.99999973  0.00000027  0.47873434
   0.00000003  0.99999995  0.51513268
   0.66666668  0.33333328  0.55434983
   0.00000001  0.99999999  0.58531204
   0.33333347  0.66666651  0.61959083
   0.66666667  0.33333332  0.52720012
   0.33333334  0.66666664  0.57130021
   0.99999973  0.00000026  0.61347327
   0.00000003  0.99999995  0.64987260
   0.66666668  0.33333328  0.68909099
   0.00000001  0.99999999  0.72005185
   0.33333347  0.66666651  0.75431951
   0.66666667  0.33333331  0.66193903
   0.33333333  0.66666665  0.70603864
   0.99999973  0.00000025  0.74821364
   0.00000003  0.99999995  0.78460716
   0.66666668  0.33333328  0.82378963
   0.00000001  0.99999999  0.85474525
   0.33333347  0.66666651  0.88907022
   0.66666667  0.33333331  0.79671796
   0.33333334  0.66666664  0.84080167
   0.99999974  0.00000023  0.88301257
Direct configuration=           4
   0.00000008  0.99999992  0.11064661
   0.66666670  0.33333325  0.15006268
   0.00000003  0.99999998  0.18103732
   0.33333349  0.66666651  0.21527790
   0.66666670  0.33333329  0.12317114
   0.33333338  0.66666661  0.16721588
   0.99999960  0.00000042  0.20934942
   0.00000007  0.99999991  0.24566713
   0.66666670  0.33333325  0.28484855
   0.00000003  0.99999998  0.31581521
   0.33333349  0.66666650  0.35007353
   0.66666670  0.33333328  0.25774630
   0.33333337  0.66666662  0.30184503
   0.99999964  0.00000037  0.34402347
   0.00000007  0.99999991  0.38039954
   0.66666670  0.33333325  0.41960358
   0.00000003  0.99999998  0.45056551
   0.33333349  0.66666651  0.48482943
   0.66666669  0.33333329  0.39246700
   0.33333337  0.66666662  0.43656985
   0.99999959  0.00000041  0.47874848
   0.00000006  0.99999991  0.51513675
   0.66666670  0.33333325  0.55434652
   0.00000002  0.99999998  0.58530768
   0.33333348  0.66666650  0.61957243
   0.66666668  0.33333330  0.52720316
   0.33333335  0.66666663  0.57130656
   0.99999960  0.00000039  0.61348664
   0.00000006  0.99999991  0.64987623
   0.66666670  0.33333326  0.68908683
   0.00000002  0.99999997  0.72004613
   0.33333350  0.66666649  0.75429003
   0.66666670  0.33333329  0.66194245
   0.33333335  0.66666663  0.70604470
   0.99999959  0.00000038  0.74822686
   0.00000006  0.99999991  0.78461727
   0.66666670  0.33333325  0.82378513
   0.00000002  0.99999997  0.85471811
   0.33333350  0.66666648  0.88905594
   0.66666669  0.33333330  0.79671879
   0.33333335  0.66666663  0.84080189
   0.99999960  0.00000035  0.88307558
Direct configuration=           5
   0.00000012  0.99999987  0.11055009
   0.66666673  0.33333322  0.15012400
   0.00000005  0.99999996  0.18101680
   0.33333350  0.66666652  0.21520952
   0.66666672  0.33333327  0.12314067
   0.33333341  0.66666658  0.16726671
   0.99999943  0.00000059  0.20941551
   0.00000011  0.99999986  0.24568151
   0.66666674  0.33333321  0.28484619
   0.00000005  0.99999996  0.31580539
   0.33333352  0.66666650  0.35003919
   0.66666673  0.33333325  0.25775388
   0.33333340  0.66666659  0.30185736
   0.99999950  0.00000052  0.34404984
   0.00000010  0.99999987  0.38040686
   0.66666673  0.33333321  0.41960004
   0.00000005  0.99999996  0.45055938
   0.33333350  0.66666651  0.48480456
   0.66666671  0.33333327  0.39247124
   0.33333340  0.66666659  0.43657846
   0.99999943  0.00000058  0.47876626
   0.00000010  0.99999987  0.51514187
   0.66666674  0.33333321  0.55434237
   0.00000004  0.99999996  0.58530220
   0.33333350  0.66666650  0.61954930
   0.66666671  0.33333328  0.52720698
   0.33333337  0.66666662  0.57131453
   0.99999943  0.00000055  0.61350345
   0.00000010  0.99999986  0.64988079
   0.66666673  0.33333322  0.68908159
   0.00000004  0.99999996  0.72003893
   0.33333353  0.66666646  0.75425297
   0.66666673  0.33333326  0.66194675
   0.33333339  0.66666660  0.70605231
   0.99999941  0.00000054  0.74824349
   0.00000010  0.99999986  0.78462998
   0.66666673  0.33333321  0.82377948
   0.00000004  0.99999995  0.85468398
   0.33333353  0.66666645  0.88903800
   0.66666671  0.33333328  0.79671984
   0.33333336  0.66666662  0.84080216
   0.99999943  0.00000050  0.88315481
Direct configuration=           6
   0.00000013  0.99999986  0.11052603
   0.66666673  0.33333321  0.15013928
   0.00000006  0.99999995  0.18101169
   0.33333350  0.66666652  0.21519248
   0.66666672  0.33333327  0.12313307
   0.33333342  0.66666657  0.16727938
   0.99999939  0.00000064  0.20943198
   0.00000013  0.99999984  0.24568510
   0.66666674  0.33333320  0.28484560
   0.00000005  0.99999996  0.31580295
   0.33333352  0.66666649  0.35003063
   0.66666673  0.33333325  0.25775577
   0.33333341  0.66666658  0.30186043
   0.99999946  0.00000056  0.34405641
   0.00000011  0.99999985  0.38040868
   0.66666674  0.33333321  0.41959916
   0.00000005  0.99999996  0.45055785
   0.33333350  0.66666651  0.48479836
   0.66666672  0.33333326  0.39247229
   0.33333341  0.66666658  0.43658060
   0.99999938  0.00000062  0.47877069
   0.00000011  0.99999986  0.51514315
   0.66666674  0.33333320  0.55434133
   0.00000005  0.99999996  0.58530084
   0.33333350  0.66666650  0.61954353
   0.66666671  0.33333328  0.52720794
   0.33333338  0.66666661  0.57131652
   0.99999939  0.00000059  0.61350764
   0.00000011  0.99999985  0.64988193
   0.66666673  0.33333321  0.68908028
   0.00000004  0.99999995  0.72003713
   0.33333354  0.66666645  0.75424373
   0.66666673  0.33333326  0.66194782
   0.33333339  0.66666660  0.70605421
   0.99999937  0.00000058  0.74824763
   0.00000011  0.99999985  0.78463315
   0.66666674  0.33333320  0.82377807
   0.00000004  0.99999995  0.85467548
   0.33333353  0.66666644  0.88903352
   0.66666672  0.33333328  0.79672010
   0.33333336  0.66666662  0.84080223
   0.99999939  0.00000054  0.88317455
Direct configuration=           7
   0.00000016  0.99999984  0.11050622
   0.66666677  0.33333317  0.15011818
   0.00000009  0.99999993  0.18106826
   0.33333328  0.66666675  0.21515626
   0.66666677  0.33333323  0.12309818
   0.33333345  0.66666655  0.16726553
   0.99999944  0.00000060  0.20946125
   0.00000016  0.99999982  0.24569071
   0.66666678  0.33333315  0.28485731
   0.00000009  0.99999993  0.31580852
   0.33333335  0.66666668  0.35000743
   0.66666678  0.33333319  0.25776369
   0.33333343  0.66666656  0.30185343
   0.99999949  0.00000054  0.34407022
   0.00000015  0.99999982  0.38041091
   0.66666677  0.33333317  0.41960413
   0.00000008  0.99999993  0.45055939
   0.33333330  0.66666671  0.48477997
   0.66666676  0.33333321  0.39247818
   0.33333345  0.66666655  0.43657705
   0.99999941  0.00000060  0.47878143
   0.00000014  0.99999983  0.51514504
   0.66666678  0.33333316  0.55434580
   0.00000007  0.99999994  0.58530182
   0.33333330  0.66666669  0.61952612
   0.66666676  0.33333322  0.52721173
   0.33333340  0.66666660  0.57131331
   0.99999941  0.00000057  0.61351816
   0.00000015  0.99999982  0.64988417
   0.66666676  0.33333317  0.68908509
   0.00000007  0.99999993  0.72003589
   0.33333336  0.66666661  0.75421922
   0.66666677  0.33333321  0.66194986
   0.33333343  0.66666656  0.70604948
   0.99999939  0.00000056  0.74825354
   0.00000014  0.99999983  0.78463610
   0.66666677  0.33333316  0.82378149
   0.00000006  0.99999992  0.85469276
   0.33333334  0.66666661  0.88903582
   0.66666678  0.33333321  0.79671939
   0.33333338  0.66666660  0.84077243
   0.99999941  0.00000052  0.88321577
Direct configuration=           8
   0.00000019  0.99999982  0.11049200
   0.66666680  0.33333314  0.15010304
   0.00000012  0.99999991  0.18110884
   0.33333312  0.66666692  0.21513028
   0.66666680  0.33333320  0.12307316
   0.33333347  0.66666653  0.16725559
   0.99999947  0.00000057  0.20948225
   0.00000018  0.99999979  0.24569474
   0.66666681  0.33333312  0.28486570
   0.00000011  0.99999991  0.31581252
   0.33333322  0.66666681  0.34999079
   0.66666681  0.33333316  0.25776937
   0.33333345  0.66666655  0.30184841
   0.99999952  0.00000053  0.34408013
   0.00000017  0.99999980  0.38041251
   0.66666680  0.33333314  0.41960769
   0.00000010  0.99999991  0.45056049
   0.33333316  0.66666685  0.48476678
   0.66666679  0.33333317  0.39248241
   0.33333347  0.66666653  0.43657451
   0.99999943  0.00000059  0.47878913
   0.00000016  0.99999982  0.51514640
   0.66666680  0.33333313  0.55434900
   0.00000009  0.99999993  0.58530253
   0.33333316  0.66666682  0.61951364
   0.66666679  0.33333319  0.52721445
   0.33333341  0.66666658  0.57131101
   0.99999943  0.00000056  0.61352571
   0.00000018  0.99999980  0.64988578
   0.66666679  0.33333314  0.68908854
   0.00000009  0.99999991  0.72003499
   0.33333324  0.66666672  0.75420163
   0.66666680  0.33333318  0.66195131
   0.33333346  0.66666653  0.70604609
   0.99999941  0.00000054  0.74825778
   0.00000017  0.99999981  0.78463823
   0.66666679  0.33333313  0.82378393
   0.00000008  0.99999991  0.85470515
   0.33333319  0.66666673  0.88903747
   0.66666682  0.33333316  0.79671889
   0.33333338  0.66666659  0.84075105
   0.99999943  0.00000051  0.88324533
Direct configuration=           9
   0.00000023  0.99999978  0.11047858
   0.66666684  0.33333309  0.15005871
   0.00000015  0.99999989  0.18111888
   0.33333306  0.66666698  0.21512589
   0.66666685  0.33333314  0.12305573
   0.33333351  0.66666650  0.16726796
   0.99999934  0.00000070  0.20949469
   0.00000021  0.99999976  0.24569739
   0.66666685  0.33333308  0.28486586
   0.00000014  0.99999989  0.31581223
   0.33333316  0.66666688  0.34998001
   0.66666686  0.33333311  0.25778117
   0.33333349  0.66666651  0.30185849
   0.99999940  0.00000065  0.34408256
   0.00000021  0.99999976  0.38041415
   0.66666684  0.33333309  0.41960887
   0.00000014  0.99999989  0.45055911
   0.33333308  0.66666693  0.48475677
   0.66666684  0.33333313  0.39248737
   0.33333351  0.66666649  0.43657912
   0.99999931  0.00000071  0.47879173
   0.00000019  0.99999978  0.51514724
   0.66666684  0.33333309  0.55434842
   0.00000011  0.99999991  0.58530110
   0.33333308  0.66666690  0.61950415
   0.66666683  0.33333314  0.52721972
   0.33333345  0.66666655  0.57131470
   0.99999930  0.00000068  0.61352838
   0.00000021  0.99999976  0.64988572
   0.66666683  0.33333310  0.68908531
   0.00000012  0.99999989  0.72003099
   0.33333314  0.66666681  0.75418841
   0.66666685  0.33333313  0.66195768
   0.33333348  0.66666650  0.70604795
   0.99999934  0.00000059  0.74825338
   0.00000022  0.99999975  0.78463359
   0.66666682  0.33333309  0.82377007
   0.00000009  0.99999989  0.85470596
   0.33333310  0.66666682  0.88905741
   0.66666688  0.33333310  0.79672133
   0.33333342  0.66666655  0.84076506
   0.99999930  0.00000064  0.88326741
Direct configuration=          10
   0.00000025  0.99999976  0.11047073
   0.66666686  0.33333307  0.15003278
   0.00000017  0.99999987  0.18112475
   0.33333303  0.66666702  0.21512333
   0.66666689  0.33333311  0.12304554
   0.33333353  0.66666648  0.16727519
   0.99999927  0.00000078  0.20950197
   0.00000024  0.99999974  0.24569894
   0.66666688  0.33333306  0.28486595
   0.00000015  0.99999988  0.31581205
   0.33333313  0.66666692  0.34997371
   0.66666689  0.33333308  0.25778808
   0.33333351  0.66666649  0.30186439
   0.99999934  0.00000072  0.34408399
   0.00000023  0.99999974  0.38041510
   0.66666687  0.33333307  0.41960956
   0.00000016  0.99999987  0.45055830
   0.33333304  0.66666698  0.48475092
   0.66666686  0.33333310  0.39249027
   0.33333353  0.66666648  0.43658182
   0.99999924  0.00000078  0.47879325
   0.00000021  0.99999976  0.51514772
   0.66666686  0.33333307  0.55434809
   0.00000012  0.99999990  0.58530027
   0.33333304  0.66666695  0.61949861
   0.66666686  0.33333311  0.52722279
   0.33333347  0.66666653  0.57131686
   0.99999922  0.00000075  0.61352994
   0.00000024  0.99999974  0.64988568
   0.66666685  0.33333307  0.68908342
   0.00000014  0.99999987  0.72002865
   0.33333308  0.66666686  0.75418067
   0.66666688  0.33333310  0.66196141
   0.33333350  0.66666648  0.70604903
   0.99999930  0.00000063  0.74825081
   0.00000025  0.99999972  0.78463089
   0.66666684  0.33333307  0.82376196
   0.00000010  0.99999988  0.85470643
   0.33333304  0.66666687  0.88906907
   0.66666691  0.33333307  0.79672276
   0.33333344  0.66666652  0.84077325
   0.99999923  0.00000071  0.88328032
Direct configuration=          11
   0.00000033  0.99999968  0.11044770
   0.66666693  0.33333301  0.15001648
   0.00000022  0.99999984  0.18111290
   0.33333293  0.66666712  0.21513015
   0.66666697  0.33333303  0.12300761
   0.33333359  0.66666643  0.16727433
   0.99999908  0.00000096  0.20951513
   0.00000030  0.99999966  0.24570797
   0.66666694  0.33333300  0.28487560
   0.00000020  0.99999985  0.31581414
   0.33333303  0.66666703  0.34996476
   0.66666695  0.33333301  0.25779233
   0.33333357  0.66666644  0.30187525
   0.99999917  0.00000090  0.34408288
   0.00000030  0.99999967  0.38041904
   0.66666693  0.33333300  0.41961294
   0.00000021  0.99999983  0.45055807
   0.33333293  0.66666709  0.48474160
   0.66666693  0.33333303  0.39249359
   0.33333358  0.66666643  0.43658679
   0.99999905  0.00000097  0.47879274
   0.00000028  0.99999969  0.51515101
   0.66666691  0.33333302  0.55435072
   0.00000015  0.99999987  0.58529924
   0.33333291  0.66666706  0.61948941
   0.66666692  0.33333305  0.52722463
   0.33333352  0.66666648  0.57132081
   0.99999903  0.00000094  0.61352984
   0.00000030  0.99999967  0.64988864
   0.66666691  0.33333301  0.68908497
   0.00000018  0.99999983  0.72002293
   0.33333299  0.66666694  0.75416575
   0.66666695  0.33333303  0.66196061
   0.33333355  0.66666644  0.70604946
   0.99999914  0.00000077  0.74824133
   0.00000033  0.99999963  0.78462522
   0.66666688  0.33333301  0.82376377
   0.00000012  0.99999985  0.85471130
   0.33333290  0.66666701  0.88910215
   0.66666698  0.33333300  0.79671085
   0.33333349  0.66666647  0.84078822
   0.99999904  0.00000089  0.88330637
Direct configuration=          12
   0.00000041  0.99999961  0.11042469
   0.66666699  0.33333294  0.15000020
   0.00000027  0.99999980  0.18110106
   0.33333283  0.66666722  0.21513698
   0.66666705  0.33333295  0.12296971
   0.33333365  0.66666639  0.16727347
   0.99999890  0.00000115  0.20952828
   0.00000037  0.99999959  0.24571698
   0.66666700  0.33333293  0.28488524
   0.00000025  0.99999981  0.31581622
   0.33333293  0.66666714  0.34995582
   0.66666701  0.33333295  0.25779658
   0.33333363  0.66666639  0.30188610
   0.99999899  0.00000109  0.34408178
   0.00000036  0.99999959  0.38042297
   0.66666700  0.33333294  0.41961631
   0.00000026  0.99999979  0.45055785
   0.33333283  0.66666721  0.48473229
   0.66666700  0.33333296  0.39249690
   0.33333363  0.66666639  0.43659176
   0.99999887  0.00000116  0.47879222
   0.00000034  0.99999962  0.51515430
   0.66666697  0.33333296  0.55435335
   0.00000019  0.99999985  0.58529821
   0.33333279  0.66666718  0.61948022
   0.66666699  0.33333299  0.52722646
   0.33333357  0.66666643  0.57132477
   0.99999883  0.00000113  0.61352973
   0.00000036  0.99999960  0.64989160
   0.66666697  0.33333294  0.68908651
   0.00000023  0.99999978  0.72001722
   0.33333289  0.66666701  0.75415084
   0.66666702  0.33333296  0.66195982
   0.33333359  0.66666640  0.70604990
   0.99999898  0.00000091  0.74823186
   0.00000042  0.99999954  0.78461956
   0.66666693  0.33333296  0.82376557
   0.00000015  0.99999982  0.85471618
   0.33333277  0.66666715  0.88913520
   0.66666705  0.33333293  0.79669896
   0.33333353  0.66666642  0.84080318
   0.99999885  0.00000108  0.88333240
Direct configuration=          13
   0.00000049  0.99999953  0.11039474
   0.66666705  0.33333289  0.14999151
   0.00000032  0.99999977  0.18109091
   0.33333269  0.66666736  0.21514675
   0.66666713  0.33333287  0.12295640
   0.33333369  0.66666635  0.16725300
   0.99999879  0.00000126  0.20953519
   0.00000043  0.99999953  0.24572463
   0.66666706  0.33333288  0.28489260
   0.00000029  0.99999977  0.31582258
   0.33333280  0.66666729  0.34995210
   0.66666707  0.33333289  0.25780355
   0.33333368  0.66666635  0.30188950
   0.99999888  0.00000122  0.34407908
   0.00000042  0.99999953  0.38042592
   0.66666706  0.33333288  0.41961910
   0.00000030  0.99999975  0.45055974
   0.33333268  0.66666735  0.48472754
   0.66666706  0.33333290  0.39250010
   0.33333368  0.66666634  0.43659324
   0.99999874  0.00000130  0.47878979
   0.00000040  0.99999956  0.51515654
   0.66666702  0.33333291  0.55435558
   0.00000022  0.99999981  0.58529919
   0.33333264  0.66666733  0.61947541
   0.66666704  0.33333293  0.52722877
   0.33333361  0.66666639  0.57132548
   0.99999869  0.00000125  0.61352741
   0.00000043  0.99999953  0.64989274
   0.66666703  0.33333288  0.68908665
   0.00000027  0.99999974  0.72001398
   0.33333279  0.66666710  0.75414022
   0.66666708  0.33333289  0.66196044
   0.33333363  0.66666636  0.70604729
   0.99999884  0.00000103  0.74822221
   0.00000049  0.99999947  0.78461090
   0.66666698  0.33333290  0.82376965
   0.00000017  0.99999979  0.85473085
   0.33333262  0.66666730  0.88916329
   0.66666712  0.33333285  0.79669817
   0.33333357  0.66666637  0.84080337
   0.99999870  0.00000123  0.88335315
Direct configuration=          14
   0.00000070  0.99999933  0.11031234
   0.66666721  0.33333273  0.14996761
   0.00000044  0.99999967  0.18106297
   0.33333229  0.66666776  0.21517365
   0.66666737  0.33333264  0.12291981
   0.33333382  0.66666625  0.16719670
   0.99999848  0.00000157  0.20955417
   0.00000059  0.99999937  0.24574565
   0.66666721  0.33333273  0.28491287
   0.00000041  0.99999968  0.31584007
   0.33333243  0.66666769  0.34994187
   0.66666722  0.33333273  0.25782271
   0.33333381  0.66666623  0.30189885
   0.99999856  0.00000157  0.34407165
   0.00000060  0.99999934  0.38043404
   0.66666723  0.33333271  0.41962679
   0.00000042  0.99999965  0.45056494
   0.33333229  0.66666776  0.48471446
   0.66666722  0.33333272  0.39250893
   0.33333380  0.66666623  0.43659730
   0.99999838  0.00000166  0.47878308
   0.00000057  0.99999939  0.51516269
   0.66666716  0.33333277  0.55436172
   0.00000032  0.99999972  0.58530189
   0.33333221  0.66666773  0.61946217
   0.66666719  0.33333278  0.52723512
   0.33333373  0.66666629  0.57132744
   0.99999833  0.00000160  0.61352102
   0.00000061  0.99999935  0.64989587
   0.66666719  0.33333272  0.68908703
   0.00000038  0.99999962  0.72000505
   0.33333252  0.66666733  0.75411103
   0.66666725  0.33333272  0.66196214
   0.33333373  0.66666626  0.70604010
   0.99999847  0.00000135  0.74819568
   0.00000068  0.99999927  0.78458709
   0.66666710  0.33333276  0.82378087
   0.00000024  0.99999970  0.85477119
   0.33333221  0.66666771  0.88924058
   0.66666732  0.33333265  0.79669601
   0.33333367  0.66666625  0.84080388
   0.99999830  0.00000163  0.88341022
Direct configuration=          15
   0.00000074  0.99999929  0.11029864
   0.66666724  0.33333271  0.14996363
   0.00000046  0.99999966  0.18105833
   0.33333222  0.66666783  0.21517812
   0.66666741  0.33333261  0.12291373
   0.33333384  0.66666623  0.16718734
   0.99999843  0.00000162  0.20955732
   0.00000062  0.99999934  0.24574915
   0.66666724  0.33333271  0.28491624
   0.00000043  0.99999966  0.31584297
   0.33333237  0.66666776  0.34994017
   0.66666725  0.33333271  0.25782589
   0.33333384  0.66666622  0.30190041
   0.99999851  0.00000163  0.34407041
   0.00000063  0.99999931  0.38043539
   0.66666725  0.33333269  0.41962807
   0.00000044  0.99999963  0.45056580
   0.33333222  0.66666783  0.48471229
   0.66666724  0.33333269  0.39251040
   0.33333383  0.66666621  0.43659797
   0.99999833  0.00000173  0.47878197
   0.00000060  0.99999936  0.51516372
   0.66666718  0.33333275  0.55436274
   0.00000034  0.99999971  0.58530233
   0.33333213  0.66666780  0.61945997
   0.66666721  0.33333275  0.52723617
   0.33333375  0.66666627  0.57132776
   0.99999827  0.00000166  0.61351996
   0.00000064  0.99999932  0.64989639
   0.66666721  0.33333269  0.68908709
   0.00000040  0.99999960  0.72000357
   0.33333247  0.66666737  0.75410617
   0.66666728  0.33333269  0.66196243
   0.33333375  0.66666624  0.70603891
   0.99999841  0.00000141  0.74819127
   0.00000071  0.99999923  0.78458313
   0.66666712  0.33333274  0.82378273
   0.00000026  0.99999968  0.85477790
   0.33333214  0.66666778  0.88925343
   0.66666735  0.33333262  0.79669565
   0.33333369  0.66666623  0.84080396
   0.99999823  0.00000170  0.88341971
Direct configuration=          16
   0.00000086  0.99999917  0.11028068
   0.66666731  0.33333264  0.14993374
   0.00000050  0.99999962  0.18104199
   0.33333208  0.66666797  0.21518862
   0.66666751  0.33333250  0.12290141
   0.33333391  0.66666617  0.16717186
   0.99999828  0.00000176  0.20955339
   0.00000067  0.99999928  0.24575703
   0.66666730  0.33333265  0.28491842
   0.00000048  0.99999962  0.31584602
   0.33333221  0.66666793  0.34994606
   0.66666733  0.33333262  0.25783887
   0.33333389  0.66666617  0.30190687
   0.99999836  0.00000179  0.34406803
   0.00000068  0.99999925  0.38043679
   0.66666732  0.33333263  0.41963034
   0.00000048  0.99999960  0.45056696
   0.33333205  0.66666800  0.48471558
   0.66666733  0.33333259  0.39251238
   0.33333389  0.66666615  0.43659867
   0.99999817  0.00000189  0.47877729
   0.00000065  0.99999931  0.51516372
   0.66666724  0.33333269  0.55436301
   0.00000038  0.99999967  0.58530320
   0.33333197  0.66666796  0.61946269
   0.66666730  0.33333266  0.52723871
   0.33333379  0.66666623  0.57132790
   0.99999809  0.00000182  0.61351457
   0.00000071  0.99999925  0.64989323
   0.66666727  0.33333263  0.68908214
   0.00000043  0.99999957  0.71999995
   0.33333229  0.66666753  0.75410031
   0.66666737  0.33333259  0.66196330
   0.33333382  0.66666616  0.70603483
   0.99999830  0.00000151  0.74817979
   0.00000078  0.99999917  0.78458228
   0.66666717  0.33333267  0.82377917
   0.00000030  0.99999963  0.85478784
   0.33333195  0.66666797  0.88928051
   0.66666744  0.33333252  0.79670228
   0.33333372  0.66666619  0.84081697
   0.99999806  0.00000188  0.88344185
