WP2-P03-beta100-screening-t02-19.03A-500
   1.0000000000000000     
     3.8782842923585310    0.0000000000000000    0.0000000000000000
     0.0000000000000000   12.1484331332749314    0.0000000000000000
     0.0000000000000000    0.0000000000000000   39.0325920456237370
   S    In   Zn   S    In   Zn   S    In   Zn
     8     4     2     8     4     2     8     4     2
Direct
     0.0000002523515725    0.9055706705575005    0.3624948495772985
     0.5000000486444051    0.8647052788461950    0.2765282638319519
     0.4999995653373818    0.6298717387658104    0.4028272348689623
     0.9999998633431502    0.5887727746536724    0.3106412508838443
     0.9999997537654922    0.4030341480951368    0.3797163516305184
     0.4999998871918129    0.3207174499522396    0.3074462231354185
     0.9999999686658654    0.1142615284471161    0.2554647460086482
     0.4999998597041603    0.1805146064799581    0.3390834893960372
     0.5000002929838384    0.8293693731547076    0.3942832741200245
     0.0000000518756777    0.7899766253219611    0.3068210815280619
     0.9999999455616457    0.3332580204842310    0.2521490834223020
     0.4999998157834134    0.4993607548226816    0.3457088570622049
     0.9999998472549311    0.2097026388395280    0.3751382300608095
     0.4999999675769348    0.0614728044313102    0.2799323453314980
     0.0000019967143745    0.9161525604869211    0.5373893498270261
     0.5000008175998114    0.9182938490928516    0.4520026400792104
     0.4999965319298832    0.6276783082254938    0.5764398309931593
     0.9999987870168217    0.6293099495936287    0.4908765261547776
     0.9999979061799444    0.4035781327556894    0.5524557253840148
     0.4999992070815425    0.4004940792867292    0.4633648596771778
     0.9999997811523054    0.1388218364864102    0.4287264689186584
     0.4999995467198913    0.1481022274012347    0.5145382556923072
     0.5000022394721806    0.8257711003310835    0.5659059687900798
     0.0000009418088423    0.8278019006594758    0.4800697209996935
     0.9999992762817432    0.5095461066476857    0.4351537725262717
     0.4999980511606191    0.4994440949614294    0.5214795368636178
     0.9999995030688797    0.1994543827069353    0.5419657951554491
     0.4999997551411606    0.1945866124134643    0.4573692731124764
     0.0000105058795167    0.8762244636901352    0.7134403710010921
     0.5000044385003255    0.9422654204972176    0.6176065374353747
     0.4999889356100163    0.5879785547727654    0.7480695157703954
     0.9999986807791960    0.6670953793829423    0.6588786174289971
     0.9999979161697108    0.3260906708262063    0.7319869762803177
     0.4999963489013000    0.4107556455884785    0.6426786648569062
     0.9999999157146868    0.1623532887542634    0.5998084396428832
     0.4999997205888813    0.1086935711000033    0.6786185556306236
     0.5000118740115996    0.7314873323786966    0.7072361854254641
     0.0000050762963935    0.8738163628460068    0.6502677636429689
     0.9999953842701040    0.5169955255845381    0.6113116080386607
     0.4999980165497350    0.4328786485627109    0.7092946454389247
     0.9999997146303099    0.1762896309082653    0.6984028818817007
     0.4999998293347420    0.2114522032067097    0.6264262092611133

  0.00000000E+00  0.00000000E+00  0.00000000E+00
  0.00000000E+00  0.00000000E+00  0.00000000E+00
  0.00000000E+00  0.00000000E+00  0.00000000E+00
  0.00000000E+00  0.00000000E+00  0.00000000E+00
  0.00000000E+00  0.00000000E+00  0.00000000E+00
  0.00000000E+00  0.00000000E+00  0.00000000E+00
  0.00000000E+00  0.00000000E+00  0.00000000E+00
  0.00000000E+00  0.00000000E+00  0.00000000E+00
  0.00000000E+00  0.00000000E+00  0.00000000E+00
  0.00000000E+00  0.00000000E+00  0.00000000E+00
  0.00000000E+00  0.00000000E+00  0.00000000E+00
  0.00000000E+00  0.00000000E+00  0.00000000E+00
  0.00000000E+00  0.00000000E+00  0.00000000E+00
  0.00000000E+00  0.00000000E+00  0.00000000E+00
  0.00000000E+00  0.00000000E+00  0.00000000E+00
  0.00000000E+00  0.00000000E+00  0.00000000E+00
  0.00000000E+00  0.00000000E+00  0.00000000E+00
  0.00000000E+00  0.00000000E+00  0.00000000E+00
  0.00000000E+00  0.00000000E+00  0.00000000E+00
  0.00000000E+00  0.00000000E+00  0.00000000E+00
  0.00000000E+00  0.00000000E+00  0.00000000E+00
  0.00000000E+00  0.00000000E+00  0.00000000E+00
  0.00000000E+00  0.00000000E+00  0.00000000E+00
  0.00000000E+00  0.00000000E+00  0.00000000E+00
  0.00000000E+00  0.00000000E+00  0.00000000E+00
  0.00000000E+00  0.00000000E+00  0.00000000E+00
  0.00000000E+00  0.00000000E+00  0.00000000E+00
  0.00000000E+00  0.00000000E+00  0.00000000E+00
  0.00000000E+00  0.00000000E+00  0.00000000E+00
  0.00000000E+00  0.00000000E+00  0.00000000E+00
  0.00000000E+00  0.00000000E+00  0.00000000E+00
  0.00000000E+00  0.00000000E+00  0.00000000E+00
  0.00000000E+00  0.00000000E+00  0.00000000E+00
  0.00000000E+00  0.00000000E+00  0.00000000E+00
  0.00000000E+00  0.00000000E+00  0.00000000E+00
  0.00000000E+00  0.00000000E+00  0.00000000E+00
  0.00000000E+00  0.00000000E+00  0.00000000E+00
  0.00000000E+00  0.00000000E+00  0.00000000E+00
  0.00000000E+00  0.00000000E+00  0.00000000E+00
  0.00000000E+00  0.00000000E+00  0.00000000E+00
  0.00000000E+00  0.00000000E+00  0.00000000E+00
  0.00000000E+00  0.00000000E+00  0.00000000E+00
