WP2-P03-beta100-screening-t02-19.03A-500-9x3x1
1.0
   3.8782842923585310    0.0000000000000000    0.0000000000000000
   0.0000000000000000   12.1484331332749314    0.0000000000000000
   0.0000000000000000    0.0000000000000000   39.0325920456237370
S In Zn S In Zn S In Zn
8 4 2 8 4 2 8 4 2
direct
   0.9999999999833906    0.9032135183089794    0.3709273746187445 S
   0.4999999999944634    0.9032135183089794    0.2848789585583917 S
   0.4999999844796965    0.6120051846906873    0.3996101808039967 S
   0.9999999844907695    0.6120051846906873    0.3135617647436439 S
   0.9999999999833906    0.3823027384724118    0.3709273746187445 S
   0.4999999999944634    0.3823027384724118    0.2848789585583917 S
   0.0000000004981564    0.1278165509095928    0.2561961549545921 S
   0.5000000004870833    0.1278165509095928    0.3422445710149449 S
   0.4999999844796965    0.8137554374257200    0.3996101808039967 In
   0.9999999844907695    0.8137554374257200    0.3135617647436439 In
   0.0000000004981564    0.4864600982214058    0.2561961549545921 In
   0.5000000004870833    0.4864600982214058    0.3422445710149449 In
   0.9999999999833906    0.1734465139712017    0.3709273746187445 Zn
   0.4999999999944634    0.1734465139712017    0.2848789585583917 Zn
   0.9999999999612446    0.9032135183089794    0.5430242067394500 S
   0.4999999999723176    0.9032135183089794    0.4569757906790972 S
   0.4999999844575503    0.6120051846906873    0.5717070129247023 S
   0.9999999844686235    0.6120051846906873    0.4856585968643495 S
   0.9999999999612446    0.3823027384724118    0.5430242067394500 S
   0.4999999999723176    0.3823027384724118    0.4569757906790972 S
   0.0000000004760104    0.1278165509095928    0.4282929870752977 S
   0.5000000004649372    0.1278165509095928    0.5143414031356504 S
   0.4999999844575503    0.8137554374257200    0.5717070129247023 In
   0.9999999844686235    0.8137554374257200    0.4856585968643495 In
   0.0000000004760104    0.4864600982214058    0.4282929870752977 In
   0.5000000004649372    0.4864600982214058    0.5143414031356504 In
   0.9999999999612446    0.1734465139712017    0.5430242067394500 Zn
   0.4999999999723176    0.1734465139712017    0.4569757906790972 Zn
   0.9999999999390985    0.9032135183089794    0.7151210388601557 S
   0.4999999999501715    0.9032135183089794    0.6290726227998028 S
   0.4999999844354047    0.6120051846906873    0.7438038450454078 S
   0.9999999844464773    0.6120051846906873    0.6577554289850551 S
   0.9999999999390985    0.3823027384724118    0.7151210388601557 S
   0.4999999999501715    0.3823027384724118    0.6290726227998028 S
   0.0000000004538644    0.1278165509095928    0.6003898191960032 S
   0.5000000004427914    0.1278165509095928    0.6864382352563561 S
   0.4999999844354047    0.8137554374257200    0.7438038450454078 In
   0.9999999844464773    0.8137554374257200    0.6577554289850551 In
   0.0000000004538644    0.4864600982214058    0.6003898191960032 In
   0.5000000004427914    0.4864600982214058    0.6864382352563561 In
   0.9999999999390985    0.1734465139712017    0.7151210388601557 Zn
   0.4999999999501715    0.1734465139712017    0.6290726227998028 Zn
