 running    8 mpi-ranks, on    1 nodes
 distrk:  each k-point on    8 cores,    1 groups
 distr:  one band on    4 cores,    2 groups
 vasp.6.6.1 17Jul2026 (build Sep  7 2026 10:40:42) complex                       
 POSCAR found type information on POSCAR S InZnS InZnS InZn
 POSCAR found :  9 types and      42 ions
 scaLAPACK will be used
 -----------------------------------------------------------------------------
|                                                                             |
|               ----> ADVICE to this user running VASP <----                  |
|                                                                             |
|     You have a (more or less) 'large supercell' and for larger cells it     |
|     might be more efficient to use real-space projection operators.         |
|     Therefore, try LREAL= Auto in the INCAR file.                           |
|     Mind: For very accurate calculation, you might also keep the            |
|     reciprocal projection scheme (i.e. LREAL=.FALSE.).                      |
|                                                                             |
 -----------------------------------------------------------------------------

 LDA part: xc-table for (Slater+PW92), standard interpolation
 POSCAR, INCAR and KPOINTS ok, starting setup
 FFT: planning ... GRIDC
 FFT: planning ... GRID_SOFT
 FFT: planning ... GRID
 WAVECAR not read
 entering main loop
       N       E                     dE             d eps       ncg     rms          rms(c)
DAV:   1     0.359988009524E+04    0.35999E+04   -0.15382E+05  6424   0.153E+03
DAV:   2     0.476075718133E+03   -0.31238E+04   -0.29972E+04  6896   0.390E+02
DAV:   3    -0.113824032208E+03   -0.58990E+03   -0.57815E+03  7400   0.199E+02
DAV:   4    -0.165938615993E+03   -0.52115E+02   -0.51632E+02  7848   0.567E+01
DAV:   5    -0.168066683318E+03   -0.21281E+01   -0.21240E+01  8312   0.123E+01    0.352E+01
DAV:   6    -0.157529152360E+03    0.10538E+02   -0.16949E+01  9824   0.447E+01    0.240E+01
DAV:   7    -0.158360010852E+03   -0.83086E+00   -0.28925E+01  9120   0.153E+01    0.642E+00
DAV:   8    -0.157622853133E+03    0.73716E+00   -0.43131E+00  8848   0.927E+00    0.542E+00
DAV:   9    -0.157631868692E+03   -0.90156E-02   -0.87030E-01  8168   0.242E+00    0.295E+00
DAV:  10    -0.157631949677E+03   -0.80985E-04   -0.85732E-02  8448   0.180E+00    0.200E+00
DAV:  11    -0.157631330205E+03    0.61947E-03   -0.23741E-02  9744   0.119E+00    0.805E-01
DAV:  12    -0.157631277650E+03    0.52556E-04   -0.84581E-03  8896   0.431E-01    0.357E-01
DAV:  13    -0.157631775483E+03   -0.49783E-03   -0.38110E-03  8960   0.198E-01    0.292E-01
DAV:  14    -0.157632156812E+03   -0.38133E-03   -0.68471E-04  8584   0.196E-01    0.111E-01
DAV:  15    -0.157632410814E+03   -0.25400E-03   -0.35407E-04  8104   0.964E-02    0.709E-02
DAV:  16    -0.157632850729E+03   -0.43992E-03   -0.14108E-04  8112   0.548E-02    0.546E-02
DAV:  17    -0.157633136496E+03   -0.28577E-03   -0.49923E-05  8544   0.521E-02    0.188E-02
DAV:  18    -0.157633266794E+03   -0.13030E-03   -0.40857E-05  8256   0.273E-02    0.242E-02
DAV:  19    -0.157633455102E+03   -0.18831E-03   -0.10785E-05  6016   0.204E-02    0.148E-02
DAV:  20    -0.157633813061E+03   -0.35796E-03   -0.46873E-05  6056   0.550E-02    0.121E-02
DAV:  21    -0.157633887758E+03   -0.74697E-04   -0.23877E-05  7656   0.299E-02    0.918E-03
DAV:  22    -0.157633999486E+03   -0.11173E-03   -0.13845E-05  5928   0.696E-02    0.818E-03
DAV:  23    -0.157634031454E+03   -0.31968E-04   -0.25788E-05  6256   0.859E-02    0.561E-03
DAV:  24    -0.157634014395E+03    0.17059E-04   -0.25485E-05  7064   0.892E-02    0.653E-03
DAV:  25    -0.157634067234E+03   -0.52839E-04   -0.29176E-05  8368   0.741E-02    0.882E-03
DAV:  26    -0.157634096197E+03   -0.28963E-04   -0.54261E-05  8944   0.387E-02    0.117E-02
DAV:  27    -0.157634099717E+03   -0.35204E-05   -0.34017E-05  6960   0.161E-02    0.152E-02
DAV:  28    -0.157634099811E+03   -0.93787E-07   -0.83712E-07  4208   0.292E-03
   1 F= -.16895131E+03 E0= -.16895131E+03  d E =-.168951E+03
 curvature:   0.00 expect dE= 0.000E+00 dE for cont linesearch  0.000E+00
 trial: gam= 0.00000 g(F)=  0.166E-03 g(S)=  0.000E+00 ort = 0.000E+00 (trialstep = 0.100E+01)
 search vector abs. value=  0.166E-03
 bond charge predicted
       N       E                     dE             d eps       ncg     rms          rms(c)
DAV:   1    -0.157634051021E+03    0.48696E-04   -0.24342E-02  6776   0.292E-01    0.864E-02
DAV:   2    -0.157634142718E+03   -0.91697E-04   -0.92010E-04  9136   0.806E-02    0.227E-02
DAV:   3    -0.157634147971E+03   -0.52525E-05   -0.26531E-05  8504   0.160E-02    0.212E-02
DAV:   4    -0.157634155030E+03   -0.70594E-05   -0.30655E-06  6104   0.121E-02    0.118E-02
DAV:   5    -0.157634170494E+03   -0.15464E-04   -0.10584E-06  4768   0.166E-02    0.347E-03
DAV:   6    -0.157634182375E+03   -0.11882E-04   -0.33883E-06  5784   0.123E-02    0.335E-03
DAV:   7    -0.157634185177E+03   -0.28022E-05   -0.41808E-06  6096   0.525E-03    0.547E-03
DAV:   8    -0.157634185599E+03   -0.42136E-06   -0.25440E-07  3760   0.178E-03
   2 F= -.16895149E+03 E0= -.16895149E+03  d E =-.179052E-03
 trial-energy change:   -0.000179  1 .order   -0.000127   -0.000166   -0.000087
 step:   1.1926(harm=  2.1033)  dis= 0.00094  next Energy=  -168.951502 (dE=-0.188E-03)
 reached required accuracy - stopping structural energy minimisation
