WP2-P03-beta100-screening-t02-19.03A-500
           1
     3.878284    0.000000    0.000000
     0.000000   12.148433    0.000000
     0.000000    0.000000   39.032592
   S    In   Zn   S    In   Zn   S    In   Zn
     8     4     2     8     4     2     8     4     2
Direct configuration=           1
   0.00000025  0.90558712  0.36249807
   0.50000005  0.86469439  0.27652037
   0.49999957  0.62988249  0.40283167
   0.99999987  0.58875963  0.31063597
   0.99999975  0.40305746  0.37971994
   0.49999989  0.32072103  0.30744263
   0.99999997  0.11424450  0.25545437
   0.49999986  0.18049044  0.33907325
   0.50000029  0.82938089  0.39428769
   0.00000005  0.78996730  0.30682690
   0.99999995  0.33324079  0.25214462
   0.49999982  0.49938705  0.34571129
   0.99999985  0.20973765  0.37513553
   0.49999997  0.06147147  0.27993821
   0.00000198  0.91616583  0.53738739
   0.50000081  0.91829961  0.45200537
   0.49999652  0.62771273  0.57644299
   0.99999880  0.62933291  0.49087705
   0.99999792  0.40357949  0.55244236
   0.49999922  0.40049770  0.46336734
   0.99999978  0.13880205  0.42871435
   0.49999955  0.14811235  0.51453815
   0.50000222  0.82576522  0.56590260
   0.00000093  0.82778976  0.48007286
   0.99999929  0.50953090  0.43516615
   0.49999807  0.49944963  0.52148243
   0.99999951  0.19947010  0.54197013
   0.49999976  0.19460222  0.45736383
   0.00001045  0.87623030  0.71342997
   0.50000443  0.94227213  0.61760819
   0.49998901  0.58797459  0.74808862
   0.99999864  0.66707766  0.65890762
   0.99999792  0.32608045  0.73198068
   0.49999634  0.41078161  0.64267892
   0.99999991  0.16235060  0.59979907
   0.49999975  0.10871204  0.67861427
   0.50001188  0.73151435  0.70723445
   0.00000505  0.87375150  0.65029420
   0.99999539  0.51699973  0.61130854
   0.49999802  0.43285434  0.70928068
   0.99999971  0.17627252  0.69839642
   0.49999982  0.21139570  0.62642484
Direct configuration=           2
   0.00000025  0.90557067  0.36249485
   0.50000005  0.86470528  0.27652826
   0.49999957  0.62987174  0.40282723
   0.99999986  0.58877277  0.31064125
   0.99999975  0.40303415  0.37971635
   0.49999989  0.32071745  0.30744622
   0.99999997  0.11426153  0.25546475
   0.49999986  0.18051461  0.33908349
   0.50000029  0.82936937  0.39428327
   0.00000005  0.78997663  0.30682108
   0.99999995  0.33325802  0.25214908
   0.49999982  0.49936075  0.34570886
   0.99999985  0.20970264  0.37513823
   0.49999997  0.06147280  0.27993235
   0.00000200  0.91615256  0.53738935
   0.50000082  0.91829385  0.45200264
   0.49999653  0.62767831  0.57643983
   0.99999879  0.62930995  0.49087653
   0.99999791  0.40357813  0.55245573
   0.49999921  0.40049408  0.46336486
   0.99999978  0.13882184  0.42872647
   0.49999955  0.14810223  0.51453826
   0.50000224  0.82577110  0.56590597
   0.00000094  0.82780190  0.48006972
   0.99999928  0.50954611  0.43515377
   0.49999805  0.49944409  0.52147954
   0.99999950  0.19945438  0.54196580
   0.49999976  0.19458661  0.45736927
   0.00001051  0.87622446  0.71344037
   0.50000444  0.94226542  0.61760654
   0.49998894  0.58797855  0.74806952
   0.99999868  0.66709538  0.65887862
   0.99999792  0.32609067  0.73198698
   0.49999635  0.41075565  0.64267866
   0.99999992  0.16235329  0.59980844
   0.49999972  0.10869357  0.67861856
   0.50001187  0.73148733  0.70723619
   0.00000508  0.87381636  0.65026776
   0.99999538  0.51699553  0.61131161
   0.49999802  0.43287865  0.70929465
   0.99999971  0.17628963  0.69840288
   0.49999983  0.21145220  0.62642621
