In6 S12 Zn3                             
   1.00000000000000     
     3.8833986740965196   -0.0000000000000001    0.0000000000000000
    -1.9416993370482598    3.3631219047923877    0.0000000000000000
     0.0000000000000000   -0.0000000000000002   36.4944826743396504
   Zn   In   S 
     3     6    12
Direct
  0.6666666870000029  0.3333333429999996  0.1085986907256427
  0.3333333429999996  0.6666666870000029  0.4419320187256446
  0.0000000000000000  0.0000000000000000  0.7752653327256454
  0.0000000000000000  0.0000000000000000  0.0044646012749752
  0.6666666870000029  0.3333333429999996  0.3377979442749748
  0.3333333429999996  0.6666666870000029  0.6711312882749780
  0.0000000000000000  0.0000000000000000  0.2288119425668214
  0.6666666870000029  0.3333333429999996  0.5621452855668210
  0.3333333429999996  0.6666666870000029  0.8954785985668181
  0.0000000000000000  0.0000000000000000  0.1235903338189459
  0.6666666870000029  0.3333333429999996  0.4569236628189444
  0.3333333429999996  0.6666666870000029  0.7902570058189440
  0.0000000000000000  0.0000000000000000  0.2960267081701247
  0.6666666870000029  0.3333333429999996  0.6293600511701243
  0.3333333429999996  0.6666666870000029  0.9626933651701250
  0.0000000000000000  0.0000000000000000  0.7057199735809121
  0.6666666870000029  0.3333333429999996  0.0390533055809144
  0.3333333429999996  0.6666666870000029  0.3723866295809160
  0.0000000000000000  0.0000000000000000  0.8661211238625839
  0.6666666870000029  0.3333333429999996  0.1994544518625787
  0.3333333429999996  0.6666666870000029  0.5327878098625831
 
  0.00000000E+00  0.00000000E+00  0.00000000E+00
  0.00000000E+00  0.00000000E+00  0.00000000E+00
  0.00000000E+00  0.00000000E+00  0.00000000E+00
  0.00000000E+00  0.00000000E+00  0.00000000E+00
  0.00000000E+00  0.00000000E+00  0.00000000E+00
  0.00000000E+00  0.00000000E+00  0.00000000E+00
  0.00000000E+00  0.00000000E+00  0.00000000E+00
  0.00000000E+00  0.00000000E+00  0.00000000E+00
  0.00000000E+00  0.00000000E+00  0.00000000E+00
  0.00000000E+00  0.00000000E+00  0.00000000E+00
  0.00000000E+00  0.00000000E+00  0.00000000E+00
  0.00000000E+00  0.00000000E+00  0.00000000E+00
  0.00000000E+00  0.00000000E+00  0.00000000E+00
  0.00000000E+00  0.00000000E+00  0.00000000E+00
  0.00000000E+00  0.00000000E+00  0.00000000E+00
  0.00000000E+00  0.00000000E+00  0.00000000E+00
  0.00000000E+00  0.00000000E+00  0.00000000E+00
  0.00000000E+00  0.00000000E+00  0.00000000E+00
  0.00000000E+00  0.00000000E+00  0.00000000E+00
  0.00000000E+00  0.00000000E+00  0.00000000E+00
  0.00000000E+00  0.00000000E+00  0.00000000E+00
