       N       E                     dE             d eps       ncg     rms          rms(c)
DAV:   1     0.211142300856E+04    0.21114E+04   -0.77828E+04 45256   0.189E+03
DAV:   2     0.348665037184E+03   -0.17628E+04   -0.17143E+04 45264   0.527E+02
DAV:   3    -0.372733332281E+02   -0.38594E+03   -0.36687E+03 50816   0.224E+02
DAV:   4    -0.779511426252E+02   -0.40678E+02   -0.39854E+02 55320   0.695E+01
DAV:   5    -0.798394322064E+02   -0.18883E+01   -0.18776E+01 58616   0.161E+01
DAV:   6    -0.799320945167E+02   -0.92662E-01   -0.92587E-01 69232   0.326E+00
DAV:   7    -0.799341156017E+02   -0.20211E-02   -0.20204E-02 67896   0.476E-01
DAV:   8    -0.799341954679E+02   -0.79866E-04   -0.79854E-04 69736   0.963E-02
DAV:   9    -0.799341982014E+02   -0.27336E-05   -0.27335E-05 68432   0.185E-02
DAV:  10    -0.799341983225E+02   -0.12101E-06   -0.12099E-06 60360   0.394E-03
DAV:  11    -0.799341983275E+02   -0.50641E-08   -0.50580E-08 34992   0.105E-03
   1 F= -.86247663E+02 E0= -.86247663E+02  d E =0.000000E+00
