WP2-P02-beta001-thickness-2L-relax-500-k
   1.0000000000000000     
     3.8782842923155867    0.0000000000000000    0.0000000000000000
    -1.9391421461577933    3.3586927202930394    0.0000000000000000
     0.0000000000000000    0.0000000000000000   41.5682913434705483
   S    In   Zn   S    In   Zn
     4     2     1     4     2     1
Direct
     0.0000033418005243    0.9999969816351055    0.2376394810088876
     0.6666693418396503    0.3333310324053434    0.3235245900097883
     0.0000019697181304    0.9999984006765660    0.3910767556447739
     0.3333297744486921    0.6666699806105278    0.4651940810207564
     0.6666699934915227    0.3333305691409807    0.2650099748662851
     0.3333355967370316    0.6666646787836390    0.3611367944378071
     0.9999957174143396    0.0000040164972082    0.4537069838678952
     0.0000032746276351    0.9999966339359636    0.5337861150816957
     0.6666681705121508    0.3333317460109858    0.6188900131206647
     0.0000006172405494    0.9999993818150767    0.6864007467832577
     0.3333254969008984    0.6666738390793902    0.7612797852765608
     0.6666704281196049    0.3333294662677878    0.5604111921195544
     0.3333342299234040    0.6666658049951516    0.6563269064725067
     0.9999919272258567    0.0000073481462641    0.7496813471319874

  0.00000000E+00  0.00000000E+00  0.00000000E+00
  0.00000000E+00  0.00000000E+00  0.00000000E+00
  0.00000000E+00  0.00000000E+00  0.00000000E+00
  0.00000000E+00  0.00000000E+00  0.00000000E+00
  0.00000000E+00  0.00000000E+00  0.00000000E+00
  0.00000000E+00  0.00000000E+00  0.00000000E+00
  0.00000000E+00  0.00000000E+00  0.00000000E+00
  0.00000000E+00  0.00000000E+00  0.00000000E+00
  0.00000000E+00  0.00000000E+00  0.00000000E+00
  0.00000000E+00  0.00000000E+00  0.00000000E+00
  0.00000000E+00  0.00000000E+00  0.00000000E+00
  0.00000000E+00  0.00000000E+00  0.00000000E+00
  0.00000000E+00  0.00000000E+00  0.00000000E+00
  0.00000000E+00  0.00000000E+00  0.00000000E+00
