WP2-P02-beta001-thickness-2L-relax-500-k10
1.0
   3.8782842923155867    0.0000000000000000    0.0000000000000000
  -1.9391421461577933    3.3586927202930394    0.0000000000000000
   0.0000000000000000   -0.0000000000000000   41.5682913434705483
S In Zn S In Zn
4 2 1 4 2 1
direct
   0.0000000000000000    0.0000000000000000    0.2405679828735799 S
   0.6666666570000004    0.3333333129999971    0.3256743188444938 S
   0.0000000000000000    0.0000000000000000    0.3928054112768204 S
   0.3333333129999971    0.6666666570000004    0.4671796117317688 S
   0.6666666570000004    0.3333333129999971    0.2667123221937017 In
   0.3333333129999971    0.6666666570000004    0.3623651723506208 In
   0.0000000000000000    0.0000000000000000    0.4538441452689443 Zn
   0.0000000000000000    0.0000000000000000    0.5328203882682312 S
   0.6666666570000004    0.3333333129999971    0.6179267242391453 S
   0.0000000000000000    0.0000000000000000    0.6850578166714718 S
   0.3333333129999971    0.6666666570000004    0.7594320171264202 S
   0.6666666570000004    0.3333333129999971    0.5589647275883530 In
   0.3333333129999971    0.6666666570000004    0.6546175777452722 In
   0.0000000000000000    0.0000000000000000    0.7460965506635958 Zn
