WP2-P02-beta001-thickness-2L-relax-500-k
           1
     3.878284    0.000000    0.000000
    -1.939142    3.358693    0.000000
     0.000000   -0.000000   41.568291
   S    In   Zn   S    In   Zn
     4     2     1     4     2     1
Direct configuration=           1
   0.00000000  0.00000000  0.24056798
   0.66666666  0.33333331  0.32567432
   0.00000000  0.00000000  0.39280541
   0.33333331  0.66666666  0.46717961
   0.66666666  0.33333331  0.26671232
   0.33333331  0.66666666  0.36236517
   0.00000000  0.00000000  0.45384415
   0.00000000  0.00000000  0.53282039
   0.66666666  0.33333331  0.61792672
   0.00000000  0.00000000  0.68505782
   0.33333331  0.66666666  0.75943202
   0.66666666  0.33333331  0.55896473
   0.33333331  0.66666666  0.65461758
   0.00000000  0.00000000  0.74609655
Direct configuration=           2
   0.00000017  0.00000045  0.24022999
   0.66666661  0.33333325  0.32543254
   0.99999991  0.99999988  0.39268070
   0.33333345  0.66666650  0.46703170
   0.66666664  0.33333322  0.26713007
   0.33333335  0.66666661  0.36258780
   0.99999980  0.00000020  0.45399425
   0.99999998  0.99999996  0.53279825
   0.66666665  0.33333324  0.61774528
   0.00000003  0.99999998  0.68492048
   0.33333350  0.66666657  0.75934280
   0.66666671  0.33333324  0.55912869
   0.33333334  0.66666661  0.65474300
   0.99999974  0.00000018  0.74629922
Direct configuration=           3
   0.00000027  0.00000069  0.24004299
   0.66666659  0.33333322  0.32529878
   0.99999987  0.99999981  0.39261170
   0.33333352  0.66666641  0.46694987
   0.66666663  0.33333316  0.26736119
   0.33333336  0.66666658  0.36271097
   0.99999968  0.00000030  0.45407730
   0.99999997  0.99999994  0.53278601
   0.66666665  0.33333320  0.61764489
   0.00000005  0.99999997  0.68484449
   0.33333360  0.66666652  0.75929343
   0.66666674  0.33333320  0.55921940
   0.33333335  0.66666659  0.65481239
   0.99999959  0.00000029  0.74641134
Direct configuration=           4
   0.00000023  0.00000059  0.24012410
   0.66666660  0.33333323  0.32535680
   0.99999989  0.99999984  0.39264163
   0.33333349  0.66666645  0.46698536
   0.66666664  0.33333318  0.26726095
   0.33333336  0.66666659  0.36265754
   0.99999973  0.00000026  0.45404128
   0.99999998  0.99999995  0.53279132
   0.66666665  0.33333322  0.61768844
   0.00000005  0.99999998  0.68487745
   0.33333355  0.66666654  0.75931484
   0.66666672  0.33333322  0.55918006
   0.33333335  0.66666660  0.65478229
   0.99999965  0.00000024  0.74636271
Direct configuration=           5
   0.00000023  0.00000044  0.23996134
   0.66666662  0.33333321  0.32547761
   0.99999991  0.99999982  0.39257176
   0.33333349  0.66666645  0.46677589
   0.66666670  0.33333340  0.26717865
   0.33333336  0.66666652  0.36276558
   0.99999961  0.00000036  0.45423905
   0.00000004  0.99999988  0.53281925
   0.66666667  0.33333318  0.61766455
   0.00000005  0.99999995  0.68478283
   0.33333355  0.66666651  0.75921984
   0.66666675  0.33333317  0.55920348
   0.33333337  0.66666658  0.65481837
   0.99999952  0.00000042  0.74658657
Direct configuration=           6
   0.00000023  0.00000023  0.23973406
   0.66666665  0.33333317  0.32564630
   0.99999995  0.99999979  0.39247420
   0.33333349  0.66666647  0.46648338
   0.66666679  0.33333369  0.26706373
   0.33333336  0.66666642  0.36291643
   0.99999945  0.00000050  0.45451522
   0.00000013  0.99999978  0.53285825
   0.66666670  0.33333312  0.61763120
   0.00000006  0.99999991  0.68465070
   0.33333355  0.66666645  0.75908718
   0.66666679  0.33333311  0.55923619
   0.33333340  0.66666656  0.65486875
   0.99999933  0.00000067  0.74689917
Direct configuration=           7
   0.00000022  0.00000018  0.23965101
   0.66666669  0.33333313  0.32555187
   0.00000000  0.99999978  0.39260359
   0.33333327  0.66666668  0.46630589
   0.66666683  0.33333374  0.26704491
   0.33333336  0.66666638  0.36288106
   0.99999958  0.00000038  0.45465469
   0.00000019  0.99999971  0.53287807
   0.66666673  0.33333308  0.61767559
   0.00000008  0.99999989  0.68469150
   0.33333333  0.66666665  0.75902332
   0.66666686  0.33333304  0.55922250
   0.33333341  0.66666654  0.65478431
   0.99999931  0.00000070  0.74709646
Direct configuration=           8
   0.00000022  0.00000015  0.23960119
   0.66666672  0.33333311  0.32549522
   0.00000003  0.99999977  0.39268121
   0.33333314  0.66666680  0.46619940
   0.66666686  0.33333377  0.26703362
   0.33333336  0.66666635  0.36285983
   0.99999966  0.00000030  0.45473836
   0.00000024  0.99999967  0.53288995
   0.66666675  0.33333306  0.61770222
   0.00000009  0.99999988  0.68471598
   0.33333320  0.66666676  0.75898501
   0.66666689  0.33333299  0.55921429
   0.33333342  0.66666653  0.65473366
   0.99999930  0.00000072  0.74721483
Direct configuration=           9
   0.00000025  0.00000022  0.23959564
   0.66666676  0.33333306  0.32541942
   0.00000006  0.99999975  0.39271754
   0.33333314  0.66666680  0.46613424
   0.66666688  0.33333368  0.26693427
   0.33333340  0.66666633  0.36286135
   0.99999960  0.00000036  0.45479292
   0.00000029  0.99999961  0.53286637
   0.66666679  0.33333304  0.61763375
   0.00000011  0.99999986  0.68473623
   0.33333302  0.66666695  0.75898958
   0.66666698  0.33333291  0.55927832
   0.33333344  0.66666650  0.65476966
   0.99999918  0.00000081  0.74733546
Direct configuration=          10
   0.00000026  0.00000023  0.23959472
   0.66666676  0.33333305  0.32540687
   0.00000006  0.99999974  0.39272355
   0.33333315  0.66666679  0.46612346
   0.66666688  0.33333366  0.26691783
   0.33333341  0.66666633  0.36286161
   0.99999959  0.00000037  0.45480196
   0.00000029  0.99999960  0.53286247
   0.66666679  0.33333303  0.61762241
   0.00000011  0.99999986  0.68473959
   0.33333300  0.66666698  0.75899033
   0.66666699  0.33333290  0.55928892
   0.33333344  0.66666650  0.65477562
   0.99999916  0.00000083  0.74735543
Direct configuration=          11
   0.00000030  0.00000026  0.23955890
   0.66666681  0.33333300  0.32533402
   0.00000009  0.99999972  0.39269156
   0.33333319  0.66666676  0.46610122
   0.66666690  0.33333357  0.26685712
   0.33333346  0.66666631  0.36286981
   0.99999946  0.00000048  0.45482829
   0.00000037  0.99999952  0.53286018
   0.66666683  0.33333300  0.61763419
   0.00000012  0.99999986  0.68474920
   0.33333284  0.66666714  0.75903017
   0.66666707  0.33333282  0.55925838
   0.33333347  0.66666646  0.65483188
   0.99999897  0.00000099  0.74745985
Direct configuration=          12
   0.00000035  0.00000028  0.23952067
   0.66666686  0.33333295  0.32525626
   0.00000012  0.99999969  0.39265742
   0.33333323  0.66666671  0.46607749
   0.66666692  0.33333347  0.26679232
   0.33333351  0.66666629  0.36287858
   0.99999933  0.00000061  0.45485639
   0.00000045  0.99999944  0.53285773
   0.66666688  0.33333297  0.61764677
   0.00000014  0.99999985  0.68475946
   0.33333267  0.66666730  0.75907269
   0.66666716  0.33333273  0.55922578
   0.33333350  0.66666642  0.65489192
   0.99999876  0.00000115  0.74757130
Direct configuration=          13
   0.00000038  0.00000024  0.23946502
   0.66666691  0.33333291  0.32522088
   0.00000016  0.99999966  0.39262670
   0.33333316  0.66666677  0.46606917
   0.66666696  0.33333344  0.26676039
   0.33333356  0.66666626  0.36284375
   0.99999927  0.00000065  0.45486707
   0.00000053  0.99999936  0.53284546
   0.66666692  0.33333294  0.61765459
   0.00000015  0.99999984  0.68479378
   0.33333251  0.66666744  0.75912179
   0.66666723  0.33333267  0.55923034
   0.33333353  0.66666640  0.65491390
   0.99999860  0.00000131  0.74765192
Direct configuration=          14
   0.00000049  0.00000010  0.23929806
   0.66666705  0.33333278  0.32511475
   0.00000028  0.99999958  0.39253455
   0.33333297  0.66666695  0.46604421
   0.66666709  0.33333333  0.26666458
   0.33333369  0.66666619  0.36273928
   0.99999912  0.00000079  0.45489913
   0.00000077  0.99999912  0.53280867
   0.66666704  0.33333284  0.61767804
   0.00000019  0.99999980  0.68489677
   0.33333206  0.66666784  0.75926912
   0.66666743  0.33333246  0.55924400
   0.33333361  0.66666634  0.65497985
   0.99999810  0.00000177  0.74789377
Direct configuration=          15
   0.00000070  0.99999982  0.23896415
   0.66666734  0.33333254  0.32490248
   0.00000050  0.99999942  0.39235025
   0.33333258  0.66666729  0.46599430
   0.66666733  0.33333312  0.26647298
   0.33333396  0.66666604  0.36253033
   0.99999881  0.00000106  0.45496324
   0.00000125  0.99999863  0.53273508
   0.66666727  0.33333265  0.61772493
   0.00000027  0.99999972  0.68510273
   0.33333114  0.66666863  0.75956376
   0.66666784  0.33333205  0.55927134
   0.33333377  0.66666621  0.65511173
   0.99999712  0.00000270  0.74837746
Direct configuration=          16
   0.00000080  0.99999967  0.23889702
   0.66666744  0.33333246  0.32485553
   0.00000061  0.99999938  0.39228653
   0.33333241  0.66666744  0.46597800
   0.66666744  0.33333304  0.26633419
   0.33333405  0.66666594  0.36243562
   0.99999864  0.00000121  0.45493661
   0.00000137  0.99999851  0.53276104
   0.66666736  0.33333257  0.61775157
   0.00000031  0.99999968  0.68516854
   0.33333075  0.66666900  0.75970610
   0.66666803  0.33333185  0.55930405
   0.33333380  0.66666619  0.65515329
   0.99999687  0.00000292  0.74849666
Direct configuration=          17
   0.00000090  0.99999952  0.23882915
   0.66666755  0.33333239  0.32480807
   0.00000071  0.99999933  0.39222212
   0.33333225  0.66666758  0.46596153
   0.66666755  0.33333297  0.26619388
   0.33333414  0.66666585  0.36233988
   0.99999846  0.00000137  0.45490970
   0.00000149  0.99999840  0.53278728
   0.66666745  0.33333249  0.61777850
   0.00000035  0.99999964  0.68523507
   0.33333035  0.66666936  0.75984999
   0.66666822  0.33333166  0.55933712
   0.33333384  0.66666617  0.65519531
   0.99999661  0.00000314  0.74861717
Direct configuration=          18
   0.00000100  0.99999941  0.23877323
   0.66666763  0.33333234  0.32472507
   0.00000079  0.99999929  0.39217117
   0.33333212  0.66666770  0.46595027
   0.66666764  0.33333289  0.26613134
   0.33333422  0.66666577  0.36227557
   0.99999830  0.00000152  0.45486259
   0.00000159  0.99999830  0.53283144
   0.66666751  0.33333244  0.61781602
   0.00000038  0.99999961  0.68527908
   0.33333009  0.66666961  0.75997155
   0.66666836  0.33333152  0.55936383
   0.33333386  0.66666616  0.65522840
   0.99999640  0.00000332  0.74868522
Direct configuration=          19
   0.00000128  0.99999908  0.23860545
   0.66666788  0.33333218  0.32447605
   0.00000103  0.99999917  0.39201835
   0.33333172  0.66666806  0.46591650
   0.66666792  0.33333264  0.26594371
   0.33333444  0.66666553  0.36208263
   0.99999783  0.00000195  0.45472126
   0.00000188  0.99999801  0.53296392
   0.66666769  0.33333226  0.61792855
   0.00000047  0.99999953  0.68541108
   0.33332929  0.66667036  0.76033626
   0.66666877  0.33333111  0.55944393
   0.33333394  0.66666613  0.65532768
   0.99999575  0.00000387  0.74888940
Direct configuration=          20
   0.00000183  0.99999842  0.23826989
   0.66666838  0.33333186  0.32397803
   0.00000150  0.99999893  0.39171270
   0.33333091  0.66666878  0.46584896
   0.66666848  0.33333214  0.26556844
   0.33333490  0.66666505  0.36169676
   0.99999689  0.00000280  0.45443860
   0.00000245  0.99999743  0.53322887
   0.66666807  0.33333191  0.61815363
   0.00000064  0.99999937  0.68567509
   0.33332771  0.66667186  0.76106567
   0.66666959  0.33333029  0.55960414
   0.33333408  0.66666606  0.65552623
   0.99999445  0.00000497  0.74929775
Direct configuration=          21
   0.00000155  0.99999875  0.23843886
   0.66666813  0.33333202  0.32422881
   0.00000126  0.99999905  0.39186661
   0.33333132  0.66666842  0.46588297
   0.66666820  0.33333239  0.26575741
   0.33333467  0.66666529  0.36189107
   0.99999736  0.00000237  0.45458093
   0.00000216  0.99999772  0.53309545
   0.66666788  0.33333209  0.61804029
   0.00000056  0.99999945  0.68554215
   0.33332851  0.66667111  0.76069837
   0.66666918  0.33333070  0.55952347
   0.33333401  0.66666610  0.65542625
   0.99999510  0.00000441  0.74909212
Direct configuration=          22
   0.00000172  0.99999868  0.23832590
   0.66666825  0.33333191  0.32416033
   0.00000135  0.99999891  0.39175258
   0.33333107  0.66666865  0.46584877
   0.66666836  0.33333214  0.26568516
   0.33333479  0.66666528  0.36181401
   0.99999721  0.00000252  0.45448463
   0.00000242  0.99999747  0.53313794
   0.66666793  0.33333204  0.61809228
   0.00000054  0.99999949  0.68560318
   0.33332839  0.66667116  0.76083607
   0.66666923  0.33333066  0.55965027
   0.33333409  0.66666600  0.65550802
   0.99999454  0.00000497  0.74916563
Direct configuration=          23
   0.00000186  0.99999863  0.23823576
   0.66666835  0.33333182  0.32410568
   0.00000141  0.99999880  0.39166158
   0.33333088  0.66666884  0.46582147
   0.66666848  0.33333193  0.26562750
   0.33333489  0.66666527  0.36175252
   0.99999708  0.00000264  0.45440778
   0.00000262  0.99999726  0.53317184
   0.66666797  0.33333200  0.61813377
   0.00000054  0.99999953  0.68565188
   0.33332830  0.66667120  0.76094596
   0.66666926  0.33333063  0.55975145
   0.33333415  0.66666592  0.65557328
   0.99999408  0.00000541  0.74922429
Direct configuration=          24
   0.00000205  0.99999851  0.23812434
   0.66666849  0.33333170  0.32406045
   0.00000148  0.99999867  0.39154988
   0.33333069  0.66666902  0.46575574
   0.66666866  0.33333168  0.26554715
   0.33333501  0.66666526  0.36167157
   0.99999689  0.00000283  0.45430547
   0.00000280  0.99999707  0.53324559
   0.66666801  0.33333197  0.61826385
   0.00000052  0.99999957  0.68572627
   0.33332810  0.66667134  0.76103418
   0.66666935  0.33333054  0.55982475
   0.33333421  0.66666583  0.65566336
   0.99999360  0.00000588  0.74929217
Direct configuration=          25
   0.00000232  0.99999834  0.23796828
   0.66666867  0.33333153  0.32399710
   0.00000158  0.99999848  0.39139343
   0.33333043  0.66666927  0.46566366
   0.66666891  0.33333134  0.26543461
   0.33333518  0.66666525  0.36155818
   0.99999662  0.00000310  0.45416217
   0.00000306  0.99999681  0.53334890
   0.66666805  0.33333193  0.61844606
   0.00000050  0.99999963  0.68583046
   0.33332783  0.66667154  0.76115774
   0.66666948  0.33333042  0.55992741
   0.33333431  0.66666570  0.65578954
   0.99999293  0.00000653  0.74938726
Direct configuration=          26
   0.00000255  0.99999800  0.23788525
   0.66666883  0.33333142  0.32388048
   0.00000167  0.99999846  0.39133050
   0.33333032  0.66666940  0.46555487
   0.66666916  0.33333119  0.26535127
   0.33333527  0.66666512  0.36145180
   0.99999637  0.00000335  0.45404956
   0.00000305  0.99999683  0.53345424
   0.66666808  0.33333188  0.61855764
   0.00000054  0.99999956  0.68596740
   0.33332720  0.66667217  0.76119152
   0.66666976  0.33333014  0.56002948
   0.33333429  0.66666572  0.65590477
   0.99999278  0.00000663  0.74945598
Direct configuration=          27
   0.00000323  0.99999699  0.23763616
   0.66666931  0.33333107  0.32353065
   0.00000194  0.99999841  0.39114173
   0.33332999  0.66666977  0.46522850
   0.66666990  0.33333076  0.26510124
   0.33333556  0.66666472  0.36113268
   0.99999561  0.00000411  0.45371172
   0.00000302  0.99999690  0.53377028
   0.66666818  0.33333174  0.61889238
   0.00000065  0.99999937  0.68637823
   0.33332531  0.66667405  0.76129287
   0.66667059  0.33332930  0.56033568
   0.33333426  0.66666578  0.65625048
   0.99999234  0.00000692  0.74966215
Direct configuration=          28
   0.00000308  0.99999722  0.23769208
   0.66666920  0.33333115  0.32360919
   0.00000188  0.99999842  0.39118411
   0.33333006  0.66666968  0.46530177
   0.66666974  0.33333086  0.26515737
   0.33333549  0.66666481  0.36120432
   0.99999578  0.00000394  0.45378757
   0.00000303  0.99999688  0.53369933
   0.66666816  0.33333177  0.61881723
   0.00000062  0.99999941  0.68628600
   0.33332574  0.66667362  0.76127012
   0.66667040  0.33332949  0.56026694
   0.33333427  0.66666577  0.65617287
   0.99999244  0.00000685  0.74961587
Direct configuration=          29
   0.00000342  0.99999691  0.23762304
   0.66666939  0.33333100  0.32349814
   0.00000200  0.99999839  0.39104320
   0.33332968  0.66667007  0.46516042
   0.66667007  0.33333048  0.26496390
   0.33333563  0.66666464  0.36111568
   0.99999570  0.00000404  0.45368179
   0.00000335  0.99999656  0.53381324
   0.66666817  0.33333174  0.61891277
   0.00000062  0.99999937  0.68643662
   0.33332542  0.66667391  0.76128281
   0.66667044  0.33332946  0.56045629
   0.33333422  0.66666582  0.65637506
   0.99999177  0.00000750  0.74970182
Direct configuration=          30
   0.00000334  0.99999698  0.23763948
   0.66666934  0.33333103  0.32352459
   0.00000197  0.99999840  0.39107676
   0.33332977  0.66666998  0.46519408
   0.66666999  0.33333057  0.26500997
   0.33333560  0.66666468  0.36113679
   0.99999572  0.00000402  0.45370698
   0.00000327  0.99999663  0.53378612
   0.66666817  0.33333175  0.61889001
   0.00000062  0.99999938  0.68640075
   0.33332550  0.66667384  0.76127979
   0.66667043  0.33332947  0.56041119
   0.33333423  0.66666580  0.65632691
   0.99999193  0.00000735  0.74968135
