    7    7    1    1
  0.5474601E+02  0.3878284E-09  0.3878284E-09  0.2941986E-08  0.5000000E-15
   1.0000000000000000E-004
  CAR 
 WP2-P02-beta001-encut-600-k10           
     62     52     38

  0.1262379E-14  0.1262379E-14  0.1262379E-14  0.1000000E-01
      1        -17.245691   1.000000
      2        -17.056753   1.000000
      3        -17.056752   1.000000
      4        -16.894529   1.000000
      5        -16.894529   1.000000
      6        -16.131000   1.000000
      7        -16.130768   1.000000
      8        -16.130768   1.000000
      9        -15.983343   1.000000
     10        -15.983343   1.000000
     11        -15.888016   1.000000
     12        -15.042238   1.000000
     13        -14.043730   1.000000
     14        -13.071949   1.000000
     15         -8.097445   1.000000
     16         -7.230854   1.000000
     17         -7.230853   1.000000
     18         -6.733500   1.000000
     19         -6.678448   1.000000
     20         -6.678447   1.000000
     21         -5.756204   1.000000
     22         -4.164177   1.000000
     23         -4.164176   1.000000
     24         -4.054455   1.000000
     25         -3.159577   1.000000
     26         -3.159574   1.000000
     27         -2.861752   1.000000
     28         -2.861752   1.000000
     29         -2.283467   1.000000
     30         -1.264396   1.000000
     31         -1.018202   0.498527
     32         -1.018192   0.498411
     33          0.213599   0.000000
     34          1.424020   0.000000
     35          2.045407   0.000000
     36          2.544407   0.000000
     37          2.846262   0.000000
     38          2.883428   0.000000

  0.1000000E+00  0.1262879E-14  0.1262379E-14  0.2000000E-01
      1        -17.251515   1.000000
      2        -17.087227   1.000000
      3        -17.047766   1.000000
      4        -16.905065   1.000000
      5        -16.894353   1.000000
      6        -16.194801   1.000000
      7        -16.123079   1.000000
      8        -16.094107   1.000000
      9        -15.991416   1.000000
     10        -15.981645   1.000000
     11        -15.763428   1.000000
     12        -14.972448   1.000000
     13        -13.950999   1.000000
     14        -13.014610   1.000000
     15         -8.054677   1.000000
     16         -7.230770   1.000000
     17         -7.204495   1.000000
     18         -6.732233   1.000000
     19         -6.691570   1.000000
     20         -6.679777   1.000000
     21         -5.817971   1.000000
     22         -4.650776   1.000000
     23         -4.277561   1.000000
     24         -4.050380   1.000000
     25         -3.730791   1.000000
     26         -3.374109   1.000000
     27         -3.185398   1.000000
     28         -2.800577   1.000000
     29         -2.017831   1.000000
     30         -1.643323   1.000000
     31         -1.178638   0.999997
     32         -0.902255   0.000513
     33          0.540094   0.000000
     34          1.841975   0.000000
     35          2.212519   0.000000
     36          2.538518   0.000000
     37          2.757337   0.000000
     38          2.984390   0.000000

  0.1262379E-14  0.1000000E+00  0.1262379E-14  0.2000000E-01
      1        -17.251515   1.000000
      2        -17.087227   1.000000
      3        -17.047766   1.000000
      4        -16.905065   1.000000
      5        -16.894353   1.000000
      6        -16.194801   1.000000
      7        -16.123079   1.000000
      8        -16.094107   1.000000
      9        -15.991416   1.000000
     10        -15.981645   1.000000
     11        -15.763428   1.000000
     12        -14.972448   1.000000
     13        -13.950999   1.000000
     14        -13.014610   1.000000
     15         -8.054677   1.000000
     16         -7.230770   1.000000
     17         -7.204495   1.000000
     18         -6.732233   1.000000
     19         -6.691570   1.000000
     20         -6.679777   1.000000
     21         -5.817971   1.000000
     22         -4.650776   1.000000
     23         -4.277561   1.000000
     24         -4.050380   1.000000
     25         -3.730791   1.000000
     26         -3.374108   1.000000
     27         -3.185398   1.000000
     28         -2.800577   1.000000
     29         -2.017831   1.000000
     30         -1.643323   1.000000
     31         -1.178638   0.999997
     32         -0.902255   0.000513
     33          0.540094   0.000000
     34          1.841975   0.000000
     35          2.212519   0.000000
     36          2.538518   0.000000
     37          2.757343   0.000000
     38          2.985205   0.000000

 -0.1000000E+00  0.1000000E+00  0.1262379E-14  0.2000000E-01
      1        -17.251515   1.000000
      2        -17.087227   1.000000
      3        -17.047767   1.000000
      4        -16.905065   1.000000
      5        -16.894353   1.000000
      6        -16.194800   1.000000
      7        -16.123080   1.000000
      8        -16.094107   1.000000
      9        -15.991416   1.000000
     10        -15.981645   1.000000
     11        -15.763428   1.000000
     12        -14.972448   1.000000
     13        -13.950999   1.000000
     14        -13.014610   1.000000
     15         -8.054677   1.000000
     16         -7.230769   1.000000
     17         -7.204495   1.000000
     18         -6.732233   1.000000
     19         -6.691569   1.000000
     20         -6.679777   1.000000
     21         -5.817971   1.000000
     22         -4.650775   1.000000
     23         -4.277562   1.000000
     24         -4.050379   1.000000
     25         -3.730790   1.000000
     26         -3.374110   1.000000
     27         -3.185397   1.000000
     28         -2.800578   1.000000
     29         -2.017830   1.000000
     30         -1.643317   1.000000
     31         -1.178644   0.999997
     32         -0.902254   0.000513
     33          0.540094   0.000000
     34          1.841976   0.000000
     35          2.212519   0.000000
     36          2.538516   0.000000
     37          2.757364   0.000000
     38          2.988324   0.000000

  0.2000000E+00  0.1249001E-14  0.1262379E-14  0.2000000E-01
      1        -17.289194   1.000000
      2        -17.130311   1.000000
      3        -17.025558   1.000000
      4        -16.921917   1.000000
      5        -16.892370   1.000000
      6        -16.305179   1.000000
      7        -16.105866   1.000000
      8        -16.054335   1.000000
      9        -16.001624   1.000000
     10        -15.974023   1.000000
     11        -15.446278   1.000000
     12        -14.769675   1.000000
     13        -13.719628   1.000000
     14        -12.858952   1.000000
     15         -7.982968   1.000000
     16         -7.218045   1.000000
     17         -7.132868   1.000000
     18         -6.757779   1.000000
     19         -6.715471   1.000000
     20         -6.682715   1.000000
     21         -6.167309   1.000000
     22         -5.431349   1.000000
     23         -4.668353   1.000000
     24         -4.552098   1.000000
     25         -4.000123   1.000000
     26         -3.802536   1.000000
     27         -3.760213   1.000000
     28         -2.793227   1.000000
     29         -2.676381   1.000000
     30         -1.767682   1.000000
     31         -1.561554   1.000000
     32         -0.390401   0.000000
     33          0.676190   0.000000
     34          1.529727   0.000000
     35          2.524609   0.000000
     36          2.991863   0.000000
     37          3.181664   0.000000
     38          3.315220   0.000000

  0.1262379E-14  0.2000000E+00  0.1262379E-14  0.2000000E-01
      1        -17.289194   1.000000
      2        -17.130311   1.000000
      3        -17.025558   1.000000
      4        -16.921917   1.000000
      5        -16.892370   1.000000
      6        -16.305179   1.000000
      7        -16.105866   1.000000
      8        -16.054335   1.000000
      9        -16.001624   1.000000
     10        -15.974023   1.000000
     11        -15.446278   1.000000
     12        -14.769675   1.000000
     13        -13.719628   1.000000
     14        -12.858952   1.000000
     15         -7.982968   1.000000
     16         -7.218045   1.000000
     17         -7.132868   1.000000
     18         -6.757779   1.000000
     19         -6.715471   1.000000
     20         -6.682715   1.000000
     21         -6.167309   1.000000
     22         -5.431349   1.000000
     23         -4.668353   1.000000
     24         -4.552098   1.000000
     25         -4.000123   1.000000
     26         -3.802536   1.000000
     27         -3.760212   1.000000
     28         -2.793227   1.000000
     29         -2.676381   1.000000
     30         -1.767682   1.000000
     31         -1.561554   1.000000
     32         -0.390401   0.000000
     33          0.676190   0.000000
     34          1.529728   0.000000
     35          2.524609   0.000000
     36          2.991851   0.000000
     37          3.181655   0.000000
     38          3.313794   0.000000

 -0.2000000E+00  0.2000000E+00  0.1262379E-14  0.2000000E-01
      1        -17.289194   1.000000
      2        -17.130311   1.000000
      3        -17.025558   1.000000
      4        -16.921917   1.000000
      5        -16.892370   1.000000
      6        -16.305179   1.000000
      7        -16.105866   1.000000
      8        -16.054335   1.000000
      9        -16.001624   1.000000
     10        -15.974023   1.000000
     11        -15.446279   1.000000
     12        -14.769675   1.000000
     13        -13.719628   1.000000
     14        -12.858952   1.000000
     15         -7.982968   1.000000
     16         -7.218043   1.000000
     17         -7.132869   1.000000
     18         -6.757779   1.000000
     19         -6.715470   1.000000
     20         -6.682716   1.000000
     21         -6.167308   1.000000
     22         -5.431348   1.000000
     23         -4.668353   1.000000
     24         -4.552098   1.000000
     25         -4.000125   1.000000
     26         -3.802533   1.000000
     27         -3.760214   1.000000
     28         -2.793227   1.000000
     29         -2.676374   1.000000
     30         -1.767682   1.000000
     31         -1.561558   1.000000
     32         -0.390402   0.000000
     33          0.676189   0.000000
     34          1.529726   0.000000
     35          2.524609   0.000000
     36          2.991878   0.000000
     37          3.181670   0.000000
     38          3.313499   0.000000

  0.3000000E+00  0.1221245E-14  0.1262379E-14  0.2000000E-01
      1        -17.360575   1.000000
      2        -17.138228   1.000000
      3        -17.002133   1.000000
      4        -16.936130   1.000000
      5        -16.885422   1.000000
      6        -16.419715   1.000000
      7        -16.091515   1.000000
      8        -16.039329   1.000000
      9        -15.989882   1.000000
     10        -15.957091   1.000000
     11        -15.029200   1.000000
     12        -14.477495   1.000000
     13        -13.451029   1.000000
     14        -12.654578   1.000000
     15         -8.087155   1.000000
     16         -7.167518   1.000000
     17         -7.045569   1.000000
     18         -7.038940   1.000000
     19         -6.776095   1.000000
     20         -6.684465   1.000000
     21         -6.586916   1.000000
     22         -5.906830   1.000000
     23         -5.318537   1.000000
     24         -4.856899   1.000000
     25         -4.416948   1.000000
     26         -4.184132   1.000000
     27         -4.133294   1.000000
     28         -3.326719   1.000000
     29         -2.853247   1.000000
     30         -1.981208   1.000000
     31         -1.589732   1.000000
     32         -0.285356   0.000000
     33          0.295627   0.000000
     34          1.076082   0.000000
     35          2.741248   0.000000
     36          3.270986   0.000000
     37          3.500300   0.000000
     38          3.512031   0.000000

  0.1262379E-14  0.3000000E+00  0.1262379E-14  0.2000000E-01
      1        -17.360575   1.000000
      2        -17.138228   1.000000
      3        -17.002133   1.000000
      4        -16.936130   1.000000
      5        -16.885422   1.000000
      6        -16.419715   1.000000
      7        -16.091515   1.000000
      8        -16.039329   1.000000
      9        -15.989882   1.000000
     10        -15.957091   1.000000
     11        -15.029200   1.000000
     12        -14.477496   1.000000
     13        -13.451029   1.000000
     14        -12.654578   1.000000
     15         -8.087155   1.000000
     16         -7.167518   1.000000
     17         -7.045569   1.000000
     18         -7.038940   1.000000
     19         -6.776095   1.000000
     20         -6.684465   1.000000
     21         -6.586916   1.000000
     22         -5.906830   1.000000
     23         -5.318537   1.000000
     24         -4.856899   1.000000
     25         -4.416948   1.000000
     26         -4.184132   1.000000
     27         -4.133294   1.000000
     28         -3.326719   1.000000
     29         -2.853247   1.000000
     30         -1.981208   1.000000
     31         -1.589732   1.000000
     32         -0.285356   0.000000
     33          0.295627   0.000000
     34          1.076082   0.000000
     35          2.741248   0.000000
     36          3.270986   0.000000
     37          3.500300   0.000000
     38          3.512032   0.000000

 -0.3000000E+00  0.3000000E+00  0.1262379E-14  0.2000000E-01
      1        -17.360575   1.000000
      2        -17.138228   1.000000
      3        -17.002133   1.000000
      4        -16.936130   1.000000
      5        -16.885421   1.000000
      6        -16.419715   1.000000
      7        -16.091515   1.000000
      8        -16.039329   1.000000
      9        -15.989883   1.000000
     10        -15.957091   1.000000
     11        -15.029200   1.000000
     12        -14.477495   1.000000
     13        -13.451029   1.000000
     14        -12.654579   1.000000
     15         -8.087155   1.000000
     16         -7.167516   1.000000
     17         -7.045568   1.000000
     18         -7.038942   1.000000
     19         -6.776093   1.000000
     20         -6.684466   1.000000
     21         -6.586917   1.000000
     22         -5.906829   1.000000
     23         -5.318538   1.000000
     24         -4.856899   1.000000
     25         -4.416944   1.000000
     26         -4.184133   1.000000
     27         -4.133295   1.000000
     28         -3.326713   1.000000
     29         -2.853247   1.000000
     30         -1.981210   1.000000
     31         -1.589734   1.000000
     32         -0.285356   0.000000
     33          0.295627   0.000000
     34          1.076080   0.000000
     35          2.741246   0.000000
     36          3.270981   0.000000
     37          3.500300   0.000000
     38          3.512031   0.000000

  0.4000000E+00  0.1221245E-14  0.1262379E-14  0.2000000E-01
      1        -17.418903   1.000000
      2        -17.134122   1.000000
      3        -16.987948   1.000000
      4        -16.945780   1.000000
      5        -16.874653   1.000000
      6        -16.500436   1.000000
      7        -16.085428   1.000000
      8        -16.045484   1.000000
      9        -15.966529   1.000000
     10        -15.937390   1.000000
     11        -14.632063   1.000000
     12        -14.208761   1.000000
     13        -13.249759   1.000000
     14        -12.478747   1.000000
     15         -8.458364   1.000000
     16         -7.593463   1.000000
     17         -7.067621   1.000000
     18         -6.959195   1.000000
     19         -6.809224   1.000000
     20         -6.682507   1.000000
     21         -6.596280   1.000000
     22         -6.091955   1.000000
     23         -5.647616   1.000000
     24         -5.082360   1.000000
     25         -5.078760   1.000000
     26         -4.455828   1.000000
     27         -4.394554   1.000000
     28         -3.420371   1.000000
     29         -2.924173   1.000000
     30         -2.287956   1.000000
     31         -1.462957   1.000000
     32         -0.464582   0.000000
     33         -0.008321   0.000000
     34          0.786902   0.000000
     35          2.677121   0.000000
     36          3.139775   0.000000
     37          3.516479   0.000000
     38          3.627248   0.000000

  0.1262379E-14  0.4000000E+00  0.1262379E-14  0.2000000E-01
      1        -17.418903   1.000000
      2        -17.134122   1.000000
      3        -16.987948   1.000000
      4        -16.945780   1.000000
      5        -16.874653   1.000000
      6        -16.500436   1.000000
      7        -16.085428   1.000000
      8        -16.045484   1.000000
      9        -15.966529   1.000000
     10        -15.937390   1.000000
     11        -14.632063   1.000000
     12        -14.208761   1.000000
     13        -13.249759   1.000000
     14        -12.478747   1.000000
     15         -8.458364   1.000000
     16         -7.593463   1.000000
     17         -7.067621   1.000000
     18         -6.959195   1.000000
     19         -6.809224   1.000000
     20         -6.682507   1.000000
     21         -6.596280   1.000000
     22         -6.091955   1.000000
     23         -5.647616   1.000000
     24         -5.082360   1.000000
     25         -5.078760   1.000000
     26         -4.455828   1.000000
     27         -4.394553   1.000000
     28         -3.420370   1.000000
     29         -2.924173   1.000000
     30         -2.287956   1.000000
     31         -1.462957   1.000000
     32         -0.464582   0.000000
     33         -0.008321   0.000000
     34          0.786902   0.000000
     35          2.677121   0.000000
     36          3.139775   0.000000
     37          3.516480   0.000000
     38          3.627248   0.000000

 -0.4000000E+00  0.4000000E+00  0.1262379E-14  0.2000000E-01
      1        -17.418903   1.000000
      2        -17.134122   1.000000
      3        -16.987948   1.000000
      4        -16.945780   1.000000
      5        -16.874653   1.000000
      6        -16.500435   1.000000
      7        -16.085428   1.000000
      8        -16.045484   1.000000
      9        -15.966529   1.000000
     10        -15.937390   1.000000
     11        -14.632063   1.000000
     12        -14.208760   1.000000
     13        -13.249760   1.000000
     14        -12.478749   1.000000
     15         -8.458364   1.000000
     16         -7.593461   1.000000
     17         -7.067619   1.000000
     18         -6.959197   1.000000
     19         -6.809221   1.000000
     20         -6.682507   1.000000
     21         -6.596282   1.000000
     22         -6.091956   1.000000
     23         -5.647616   1.000000
     24         -5.082361   1.000000
     25         -5.078756   1.000000
     26         -4.455828   1.000000
     27         -4.394554   1.000000
     28         -3.420365   1.000000
     29         -2.924173   1.000000
     30         -2.287956   1.000000
     31         -1.462963   1.000000
     32         -0.464581   0.000000
     33         -0.008321   0.000000
     34          0.786900   0.000000
     35          2.677118   0.000000
     36          3.139767   0.000000
     37          3.516480   0.000000
     38          3.627250   0.000000

  0.5000000E+00  0.1221245E-14  0.1262379E-14  0.1000000E-01
      1        -17.440218   1.000000
      2        -17.132000   1.000000
      3        -16.983829   1.000000
      4        -16.949219   1.000000
      5        -16.869145   1.000000
      6        -16.528917   1.000000
      7        -16.084180   1.000000
      8        -16.048870   1.000000
      9        -15.957353   1.000000
     10        -15.928670   1.000000
     11        -14.449876   1.000000
     12        -14.104531   1.000000
     13        -13.178875   1.000000
     14        -12.408995   1.000000
     15         -8.666247   1.000000
     16         -7.813608   1.000000
     17         -7.016937   1.000000
     18         -6.928373   1.000000
     19         -6.823448   1.000000
     20         -6.680138   1.000000
     21         -6.495151   1.000000
     22         -6.235001   1.000000
     23         -5.707064   1.000000
     24         -5.337520   1.000000
     25         -5.164401   1.000000
     26         -4.596557   1.000000
     27         -4.487753   1.000000
     28         -3.409497   1.000000
     29         -2.956097   1.000000
     30         -2.397700   1.000000
     31         -1.420902   1.000000
     32         -0.523833   0.000000
     33         -0.154974   0.000000
     34          0.692271   0.000000
     35          2.611956   0.000000
     36          3.066279   0.000000
     37          3.500661   0.000000
     38          3.517872   0.000000

  0.1262379E-14  0.5000000E+00  0.1262379E-14  0.1000000E-01
      1        -17.440218   1.000000
      2        -17.132000   1.000000
      3        -16.983829   1.000000
      4        -16.949219   1.000000
      5        -16.869145   1.000000
      6        -16.528917   1.000000
      7        -16.084180   1.000000
      8        -16.048870   1.000000
      9        -15.957353   1.000000
     10        -15.928670   1.000000
     11        -14.449876   1.000000
     12        -14.104531   1.000000
     13        -13.178875   1.000000
     14        -12.408995   1.000000
     15         -8.666246   1.000000
     16         -7.813609   1.000000
     17         -7.016938   1.000000
     18         -6.928373   1.000000
     19         -6.823448   1.000000
     20         -6.680138   1.000000
     21         -6.495151   1.000000
     22         -6.235001   1.000000
     23         -5.707064   1.000000
     24         -5.337521   1.000000
     25         -5.164401   1.000000
     26         -4.596557   1.000000
     27         -4.487753   1.000000
     28         -3.409497   1.000000
     29         -2.956097   1.000000
     30         -2.397700   1.000000
     31         -1.420902   1.000000
     32         -0.523832   0.000000
     33         -0.154974   0.000000
     34          0.692271   0.000000
     35          2.611956   0.000000
     36          3.066279   0.000000
     37          3.500661   0.000000
     38          3.517872   0.000000

  0.5000000E+00  0.5000000E+00  0.1262379E-14  0.1000000E-01
      1        -17.440218   1.000000
      2        -17.132000   1.000000
      3        -16.983830   1.000000
      4        -16.949219   1.000000
      5        -16.869145   1.000000
      6        -16.528916   1.000000
      7        -16.084180   1.000000
      8        -16.048870   1.000000
      9        -15.957354   1.000000
     10        -15.928670   1.000000
     11        -14.449876   1.000000
     12        -14.104530   1.000000
     13        -13.178876   1.000000
     14        -12.408997   1.000000
     15         -8.666246   1.000000
     16         -7.813606   1.000000
     17         -7.016935   1.000000
     18         -6.928375   1.000000
     19         -6.823445   1.000000
     20         -6.680138   1.000000
     21         -6.495151   1.000000
     22         -6.235005   1.000000
     23         -5.707060   1.000000
     24         -5.337519   1.000000
     25         -5.164401   1.000000
     26         -4.596557   1.000000
     27         -4.487754   1.000000
     28         -3.409491   1.000000
     29         -2.956097   1.000000
     30         -2.397700   1.000000
     31         -1.420910   1.000000
     32         -0.523831   0.000000
     33         -0.154974   0.000000
     34          0.692269   0.000000
     35          2.611953   0.000000
     36          3.066271   0.000000
     37          3.500661   0.000000
     38          3.517875   0.000000

  0.1000000E+00  0.1000000E+00  0.1262379E-14  0.2000000E-01
      1        -17.273671   1.000000
      2        -17.122286   1.000000
      3        -17.032814   1.000000
      4        -16.916922   1.000000
      5        -16.893931   1.000000
      6        -16.266523   1.000000
      7        -16.124982   1.000000
      8        -16.057489   1.000000
      9        -16.000255   1.000000
     10        -15.976982   1.000000
     11        -15.544291   1.000000
     12        -14.833995   1.000000
     13        -13.790230   1.000000
     14        -12.907994   1.000000
     15         -7.995212   1.000000
     16         -7.225558   1.000000
     17         -7.153928   1.000000
     18         -6.744402   1.000000
     19         -6.706618   1.000000
     20         -6.682586   1.000000
     21         -6.019764   1.000000
     22         -5.215685   1.000000
     23         -4.541540   1.000000
     24         -4.278463   1.000000
     25         -4.186960   1.000000
     26         -3.884621   1.000000
     27         -3.143174   1.000000
     28         -3.052408   1.000000
     29         -2.365115   1.000000
     30         -1.815208   1.000000
     31         -1.511639   1.000000
     32         -0.464880   0.000000
     33          0.794439   0.000000
     34          1.814148   0.000000
     35          2.500246   0.000000
     36          2.576878   0.000000
     37          2.961546   0.000000
     38          3.170144   0.000000

 -0.1000000E+00  0.2000000E+00  0.1262379E-14  0.2000000E-01
      1        -17.273671   1.000000
      2        -17.122286   1.000000
      3        -17.032815   1.000000
      4        -16.916923   1.000000
      5        -16.893930   1.000000
      6        -16.266522   1.000000
      7        -16.124982   1.000000
      8        -16.057489   1.000000
      9        -16.000255   1.000000
     10        -15.976982   1.000000
     11        -15.544291   1.000000
     12        -14.833995   1.000000
     13        -13.790230   1.000000
     14        -12.907995   1.000000
     15         -7.995212   1.000000
     16         -7.225558   1.000000
     17         -7.153928   1.000000
     18         -6.744402   1.000000
     19         -6.706617   1.000000
     20         -6.682586   1.000000
     21         -6.019764   1.000000
     22         -5.215684   1.000000
     23         -4.541540   1.000000
     24         -4.278462   1.000000
     25         -4.186959   1.000000
     26         -3.884622   1.000000
     27         -3.143175   1.000000
     28         -3.052407   1.000000
     29         -2.365108   1.000000
     30         -1.815208   1.000000
     31         -1.511646   1.000000
     32         -0.464880   0.000000
     33          0.794439   0.000000
     34          1.814148   0.000000
     35          2.500247   0.000000
     36          2.576877   0.000000
     37          2.961546   0.000000
     38          3.170143   0.000000

 -0.2000000E+00  0.1000000E+00  0.1262379E-14  0.2000000E-01
      1        -17.273671   1.000000
      2        -17.122286   1.000000
      3        -17.032815   1.000000
      4        -16.916923   1.000000
      5        -16.893930   1.000000
      6        -16.266522   1.000000
      7        -16.124982   1.000000
      8        -16.057489   1.000000
      9        -16.000255   1.000000
     10        -15.976982   1.000000
     11        -15.544291   1.000000
     12        -14.833995   1.000000
     13        -13.790230   1.000000
     14        -12.907995   1.000000
     15         -7.995212   1.000000
     16         -7.225558   1.000000
     17         -7.153928   1.000000
     18         -6.744402   1.000000
     19         -6.706617   1.000000
     20         -6.682587   1.000000
     21         -6.019764   1.000000
     22         -5.215684   1.000000
     23         -4.541540   1.000000
     24         -4.278462   1.000000
     25         -4.186959   1.000000
     26         -3.884622   1.000000
     27         -3.143176   1.000000
     28         -3.052407   1.000000
     29         -2.365108   1.000000
     30         -1.815208   1.000000
     31         -1.511646   1.000000
     32         -0.464880   0.000000
     33          0.794439   0.000000
     34          1.814148   0.000000
     35          2.500247   0.000000
     36          2.576877   0.000000
     37          2.961546   0.000000
     38          3.170143   0.000000

  0.2000000E+00  0.1000000E+00  0.1262379E-14  0.2000000E-01
      1        -17.332128   1.000000
      2        -17.138907   1.000000
      3        -17.011998   1.000000
      4        -16.929358   1.000000
      5        -16.890984   1.000000
      6        -16.366934   1.000000
      7        -16.123113   1.000000
      8        -16.028460   1.000000
      9        -16.004079   1.000000
     10        -15.962897   1.000000
     11        -15.178151   1.000000
     12        -14.575737   1.000000
     13        -13.545579   1.000000
     14        -12.727172   1.000000
     15         -7.998328   1.000000
     16         -7.195164   1.000000
     17         -7.066247   1.000000
     18         -6.845041   1.000000
     19         -6.752656   1.000000
     20         -6.686414   1.000000
     21         -6.474622   1.000000
     22         -5.749712   1.000000
     23         -5.042784   1.000000
     24         -4.906768   1.000000
     25         -4.508175   1.000000
     26         -4.139966   1.000000
     27         -3.618045   1.000000
     28         -3.174419   1.000000
     29         -3.029033   1.000000
     30         -2.022870   1.000000
     31         -1.620191   1.000000
     32         -0.100494   0.000000
     33          0.617908   0.000000
     34          1.497680   0.000000
     35          2.625754   0.000000
     36          2.988143   0.000000
     37          3.482224   0.000000
     38          3.679958   0.000000

 -0.1000000E+00  0.3000000E+00  0.1262379E-14  0.2000000E-01
      1        -17.332128   1.000000
      2        -17.138906   1.000000
      3        -17.011998   1.000000
      4        -16.929359   1.000000
      5        -16.890984   1.000000
      6        -16.366934   1.000000
      7        -16.123113   1.000000
      8        -16.028460   1.000000
      9        -16.004079   1.000000
     10        -15.962898   1.000000
     11        -15.178151   1.000000
     12        -14.575736   1.000000
     13        -13.545579   1.000000
     14        -12.727173   1.000000
     15         -7.998327   1.000000
     16         -7.195165   1.000000
     17         -7.066246   1.000000
     18         -6.845041   1.000000
     19         -6.752655   1.000000
     20         -6.686414   1.000000
     21         -6.474622   1.000000
     22         -5.749711   1.000000
     23         -5.042783   1.000000
     24         -4.906768   1.000000
     25         -4.508174   1.000000
     26         -4.139965   1.000000
     27         -3.618045   1.000000
     28         -3.174415   1.000000
     29         -3.029033   1.000000
     30         -2.022872   1.000000
     31         -1.620193   1.000000
     32         -0.100494   0.000000
     33          0.617909   0.000000
     34          1.497680   0.000000
     35          2.625754   0.000000
     36          2.988144   0.000000
     37          3.482223   0.000000
     38          3.679979   0.000000

 -0.3000000E+00  0.2000000E+00  0.1262379E-14  0.2000000E-01
      1        -17.332128   1.000000
      2        -17.138906   1.000000
      3        -17.011998   1.000000
      4        -16.929359   1.000000
      5        -16.890984   1.000000
      6        -16.366933   1.000000
      7        -16.123113   1.000000
      8        -16.028459   1.000000
      9        -16.004079   1.000000
     10        -15.962898   1.000000
     11        -15.178151   1.000000
     12        -14.575736   1.000000
     13        -13.545579   1.000000
     14        -12.727173   1.000000
     15         -7.998327   1.000000
     16         -7.195164   1.000000
     17         -7.066247   1.000000
     18         -6.845041   1.000000
     19         -6.752654   1.000000
     20         -6.686414   1.000000
     21         -6.474622   1.000000
     22         -5.749710   1.000000
     23         -5.042784   1.000000
     24         -4.906769   1.000000
     25         -4.508174   1.000000
     26         -4.139964   1.000000
     27         -3.618046   1.000000
     28         -3.174414   1.000000
     29         -3.029031   1.000000
     30         -2.022874   1.000000
     31         -1.620194   1.000000
     32         -0.100494   0.000000
     33          0.617909   0.000000
     34          1.497678   0.000000
     35          2.625754   0.000000
     36          2.988142   0.000000
     37          3.482229   0.000000
     38          3.679857   0.000000

 -0.2000000E+00  0.3000000E+00  0.1262379E-14  0.2000000E-01
      1        -17.332128   1.000000
      2        -17.138906   1.000000
      3        -17.011998   1.000000
      4        -16.929359   1.000000
      5        -16.890984   1.000000
      6        -16.366933   1.000000
      7        -16.123113   1.000000
      8        -16.028459   1.000000
      9        -16.004079   1.000000
     10        -15.962898   1.000000
     11        -15.178151   1.000000
     12        -14.575736   1.000000
     13        -13.545579   1.000000
     14        -12.727173   1.000000
     15         -7.998327   1.000000
     16         -7.195164   1.000000
     17         -7.066247   1.000000
     18         -6.845041   1.000000
     19         -6.752654   1.000000
     20         -6.686414   1.000000
     21         -6.474622   1.000000
     22         -5.749710   1.000000
     23         -5.042784   1.000000
     24         -4.906769   1.000000
     25         -4.508174   1.000000
     26         -4.139964   1.000000
     27         -3.618046   1.000000
     28         -3.174414   1.000000
     29         -3.029031   1.000000
     30         -2.022874   1.000000
     31         -1.620194   1.000000
     32         -0.100494   0.000000
     33          0.617909   0.000000
     34          1.497679   0.000000
     35          2.625754   0.000000
     36          2.988142   0.000000
     37          3.482222   0.000000
     38          3.679956   0.000000

  0.1000000E+00  0.2000000E+00  0.1262379E-14  0.2000000E-01
      1        -17.332128   1.000000
      2        -17.138907   1.000000
      3        -17.011998   1.000000
      4        -16.929359   1.000000
      5        -16.890984   1.000000
      6        -16.366934   1.000000
      7        -16.123113   1.000000
      8        -16.028460   1.000000
      9        -16.004079   1.000000
     10        -15.962897   1.000000
     11        -15.178151   1.000000
     12        -14.575737   1.000000
     13        -13.545579   1.000000
     14        -12.727172   1.000000
     15         -7.998328   1.000000
     16         -7.195164   1.000000
     17         -7.066247   1.000000
     18         -6.845041   1.000000
     19         -6.752656   1.000000
     20         -6.686414   1.000000
     21         -6.474622   1.000000
     22         -5.749712   1.000000
     23         -5.042784   1.000000
     24         -4.906768   1.000000
     25         -4.508174   1.000000
     26         -4.139966   1.000000
     27         -3.618045   1.000000
     28         -3.174419   1.000000
     29         -3.029033   1.000000
     30         -2.022870   1.000000
     31         -1.620191   1.000000
     32         -0.100494   0.000000
     33          0.617908   0.000000
     34          1.497680   0.000000
     35          2.625754   0.000000
     36          2.988143   0.000000
     37          3.482222   0.000000
     38          3.679972   0.000000

  0.3000000E+00 -0.1000000E+00  0.1262379E-14  0.2000000E-01
      1        -17.332128   1.000000
      2        -17.138906   1.000000
      3        -17.011998   1.000000
      4        -16.929359   1.000000
      5        -16.890984   1.000000
      6        -16.366934   1.000000
      7        -16.123113   1.000000
      8        -16.028460   1.000000
      9        -16.004079   1.000000
     10        -15.962898   1.000000
     11        -15.178151   1.000000
     12        -14.575736   1.000000
     13        -13.545579   1.000000
     14        -12.727173   1.000000
     15         -7.998328   1.000000
     16         -7.195165   1.000000
     17         -7.066246   1.000000
     18         -6.845041   1.000000
     19         -6.752655   1.000000
     20         -6.686414   1.000000
     21         -6.474622   1.000000
     22         -5.749711   1.000000
     23         -5.042783   1.000000
     24         -4.906768   1.000000
     25         -4.508174   1.000000
     26         -4.139965   1.000000
     27         -3.618046   1.000000
     28         -3.174415   1.000000
     29         -3.029033   1.000000
     30         -2.022872   1.000000
     31         -1.620193   1.000000
     32         -0.100494   0.000000
     33          0.617909   0.000000
     34          1.497680   0.000000
     35          2.625754   0.000000
     36          2.988144   0.000000
     37          3.482225   0.000000
     38          3.679970   0.000000

  0.3000000E+00  0.1000000E+00  0.1262379E-14  0.2000000E-01
      1        -17.396229   1.000000
      2        -17.136165   1.000000
      3        -16.996149   1.000000
      4        -16.938946   1.000000
      5        -16.883270   1.000000
      6        -16.456425   1.000000
      7        -16.119307   1.000000
      8        -16.032305   1.000000
      9        -15.982664   1.000000
     10        -15.945468   1.000000
     11        -14.764656   1.000000
     12        -14.274376   1.000000
     13        -13.320314   1.000000
     14        -12.535303   1.000000
     15         -8.255093   1.000000
     16         -7.350171   1.000000
     17         -7.115198   1.000000
     18         -6.972473   1.000000
     19         -6.793995   1.000000
     20         -6.689749   1.000000
     21         -6.600763   1.000000
     22         -6.015314   1.000000
     23         -5.563271   1.000000
     24         -5.211019   1.000000
     25         -4.804515   1.000000
     26         -4.653867   1.000000
     27         -4.077189   1.000000
     28         -3.441491   1.000000
     29         -3.082331   1.000000
     30         -2.444050   1.000000
     31         -1.474642   1.000000
     32         -0.124490   0.000000
     33          0.285881   0.000000
     34          1.154598   0.000000
     35          2.914396   0.000000
     36          3.034413   0.000000
     37          3.614486   0.000000
     38          3.899489   0.000000

 -0.1000000E+00  0.4000000E+00  0.1262379E-14  0.2000000E-01
      1        -17.396229   1.000000
      2        -17.136165   1.000000
      3        -16.996149   1.000000
      4        -16.938946   1.000000
      5        -16.883270   1.000000
      6        -16.456425   1.000000
      7        -16.119307   1.000000
      8        -16.032305   1.000000
      9        -15.982663   1.000000
     10        -15.945469   1.000000
     11        -14.764656   1.000000
     12        -14.274375   1.000000
     13        -13.320315   1.000000
     14        -12.535303   1.000000
     15         -8.255093   1.000000
     16         -7.350171   1.000000
     17         -7.115199   1.000000
     18         -6.972472   1.000000
     19         -6.793995   1.000000
     20         -6.689748   1.000000
     21         -6.600763   1.000000
     22         -6.015314   1.000000
     23         -5.563271   1.000000
     24         -5.211019   1.000000
     25         -4.804515   1.000000
     26         -4.653864   1.000000
     27         -4.077190   1.000000
     28         -3.441490   1.000000
     29         -3.082331   1.000000
     30         -2.444051   1.000000
     31         -1.474643   1.000000
     32         -0.124490   0.000000
     33          0.285881   0.000000
     34          1.154598   0.000000
     35          2.914398   0.000000
     36          3.034411   0.000000
     37          3.614487   0.000000
     38          3.899489   0.000000

 -0.4000000E+00  0.3000000E+00  0.1262379E-14  0.2000000E-01
      1        -17.396229   1.000000
      2        -17.136165   1.000000
      3        -16.996149   1.000000
      4        -16.938946   1.000000
      5        -16.883270   1.000000
      6        -16.456424   1.000000
      7        -16.119308   1.000000
      8        -16.032305   1.000000
      9        -15.982664   1.000000
     10        -15.945468   1.000000
     11        -14.764656   1.000000
     12        -14.274375   1.000000
     13        -13.320315   1.000000
     14        -12.535304   1.000000
     15         -8.255093   1.000000
     16         -7.350169   1.000000
     17         -7.115198   1.000000
     18         -6.972473   1.000000
     19         -6.793993   1.000000
     20         -6.689749   1.000000
     21         -6.600764   1.000000
     22         -6.015313   1.000000
     23         -5.563272   1.000000
     24         -5.211020   1.000000
     25         -4.804511   1.000000
     26         -4.653865   1.000000
     27         -4.077190   1.000000
     28         -3.441487   1.000000
     29         -3.082330   1.000000
     30         -2.444053   1.000000
     31         -1.474646   1.000000
     32         -0.124490   0.000000
     33          0.285881   0.000000
     34          1.154596   0.000000
     35          2.914395   0.000000
     36          3.034411   0.000000
     37          3.614482   0.000000
     38          3.899488   0.000000

 -0.3000000E+00  0.4000000E+00  0.1262379E-14  0.2000000E-01
      1        -17.396229   1.000000
      2        -17.136165   1.000000
      3        -16.996149   1.000000
      4        -16.938946   1.000000
      5        -16.883270   1.000000
      6        -16.456424   1.000000
      7        -16.119307   1.000000
      8        -16.032305   1.000000
      9        -15.982664   1.000000
     10        -15.945468   1.000000
     11        -14.764656   1.000000
     12        -14.274375   1.000000
     13        -13.320315   1.000000
     14        -12.535304   1.000000
     15         -8.255093   1.000000
     16         -7.350169   1.000000
     17         -7.115198   1.000000
     18         -6.972473   1.000000
     19         -6.793993   1.000000
     20         -6.689749   1.000000
     21         -6.600764   1.000000
     22         -6.015313   1.000000
     23         -5.563272   1.000000
     24         -5.211020   1.000000
     25         -4.804511   1.000000
     26         -4.653865   1.000000
     27         -4.077190   1.000000
     28         -3.441487   1.000000
     29         -3.082330   1.000000
     30         -2.444053   1.000000
     31         -1.474646   1.000000
     32         -0.124490   0.000000
     33          0.285881   0.000000
     34          1.154596   0.000000
     35          2.914395   0.000000
     36          3.034411   0.000000
     37          3.614482   0.000000
     38          3.899488   0.000000

  0.1000000E+00  0.3000000E+00  0.1262379E-14  0.2000000E-01
      1        -17.396229   1.000000
      2        -17.136165   1.000000
      3        -16.996149   1.000000
      4        -16.938946   1.000000
      5        -16.883270   1.000000
      6        -16.456425   1.000000
      7        -16.119307   1.000000
      8        -16.032305   1.000000
      9        -15.982664   1.000000
     10        -15.945468   1.000000
     11        -14.764656   1.000000
     12        -14.274376   1.000000
     13        -13.320314   1.000000
     14        -12.535303   1.000000
     15         -8.255093   1.000000
     16         -7.350171   1.000000
     17         -7.115198   1.000000
     18         -6.972473   1.000000
     19         -6.793995   1.000000
     20         -6.689749   1.000000
     21         -6.600763   1.000000
     22         -6.015314   1.000000
     23         -5.563271   1.000000
     24         -5.211019   1.000000
     25         -4.804515   1.000000
     26         -4.653867   1.000000
     27         -4.077189   1.000000
     28         -3.441491   1.000000
     29         -3.082331   1.000000
     30         -2.444050   1.000000
     31         -1.474642   1.000000
     32         -0.124490   0.000000
     33          0.285881   0.000000
     34          1.154598   0.000000
     35          2.914396   0.000000
     36          3.034413   0.000000
     37          3.614486   0.000000
     38          3.899489   0.000000

  0.4000000E+00 -0.1000000E+00  0.1262379E-14  0.2000000E-01
      1        -17.396229   1.000000
      2        -17.136165   1.000000
      3        -16.996149   1.000000
      4        -16.938946   1.000000
      5        -16.883270   1.000000
      6        -16.456425   1.000000
      7        -16.119307   1.000000
      8        -16.032305   1.000000
      9        -15.982663   1.000000
     10        -15.945469   1.000000
     11        -14.764656   1.000000
     12        -14.274375   1.000000
     13        -13.320315   1.000000
     14        -12.535303   1.000000
     15         -8.255093   1.000000
     16         -7.350171   1.000000
     17         -7.115199   1.000000
     18         -6.972472   1.000000
     19         -6.793995   1.000000
     20         -6.689748   1.000000
     21         -6.600763   1.000000
     22         -6.015314   1.000000
     23         -5.563271   1.000000
     24         -5.211019   1.000000
     25         -4.804515   1.000000
     26         -4.653864   1.000000
     27         -4.077190   1.000000
     28         -3.441491   1.000000
     29         -3.082331   1.000000
     30         -2.444051   1.000000
     31         -1.474643   1.000000
     32         -0.124490   0.000000
     33          0.285881   0.000000
     34          1.154598   0.000000
     35          2.914398   0.000000
     36          3.034412   0.000000
     37          3.614487   0.000000
     38          3.899489   0.000000

  0.4000000E+00  0.1000000E+00  0.1262379E-14  0.2000000E-01
      1        -17.434114   1.000000
      2        -17.131867   1.000000
      3        -16.989238   1.000000
      4        -16.944198   1.000000
      5        -16.875511   1.000000
      6        -16.506961   1.000000
      7        -16.117969   1.000000
      8        -16.038847   1.000000
      9        -15.962089   1.000000
     10        -15.937623   1.000000
     11        -14.457077   1.000000
     12        -14.070229   1.000000
     13        -13.196441   1.000000
     14        -12.410864   1.000000
     15         -8.575110   1.000000
     16         -7.740119   1.000000
     17         -7.034769   1.000000
     18         -6.917811   1.000000
     19         -6.814817   1.000000
     20         -6.690308   1.000000
     21         -6.508541   1.000000
     22         -6.153632   1.000000
     23         -5.762000   1.000000
     24         -5.376663   1.000000
     25         -5.303912   1.000000
     26         -4.717169   1.000000
     27         -4.419269   1.000000
     28         -3.527385   1.000000
     29         -3.070072   1.000000
     30         -2.674894   1.000000
     31         -1.393313   1.000000
     32         -0.239432   0.000000
     33          0.061293   0.000000
     34          0.973186   0.000000
     35          2.864613   0.000000
     36          3.147077   0.000000
     37          3.442167   0.000000
     38          3.751018   0.000000

 -0.1000000E+00  0.5000000E+00  0.1262379E-14  0.2000000E-01
      1        -17.434114   1.000000
      2        -17.131867   1.000000
      3        -16.989238   1.000000
      4        -16.944198   1.000000
      5        -16.875511   1.000000
      6        -16.506961   1.000000
      7        -16.117969   1.000000
      8        -16.038847   1.000000
      9        -15.962088   1.000000
     10        -15.937624   1.000000
     11        -14.457077   1.000000
     12        -14.070229   1.000000
     13        -13.196441   1.000000
     14        -12.410864   1.000000
     15         -8.575110   1.000000
     16         -7.740119   1.000000
     17         -7.034770   1.000000
     18         -6.917810   1.000000
     19         -6.814817   1.000000
     20         -6.690308   1.000000
     21         -6.508542   1.000000
     22         -6.153632   1.000000
     23         -5.762000   1.000000
     24         -5.376663   1.000000
     25         -5.303911   1.000000
     26         -4.717168   1.000000
     27         -4.419270   1.000000
     28         -3.527385   1.000000
     29         -3.070072   1.000000
     30         -2.674894   1.000000
     31         -1.393314   1.000000
     32         -0.239431   0.000000
     33          0.061293   0.000000
     34          0.973187   0.000000
     35          2.864614   0.000000
     36          3.147078   0.000000
     37          3.442166   0.000000
     38          3.751018   0.000000

  0.5000000E+00  0.4000000E+00  0.1262379E-14  0.2000000E-01
      1        -17.434114   1.000000
      2        -17.131867   1.000000
      3        -16.989238   1.000000
      4        -16.944198   1.000000
      5        -16.875511   1.000000
      6        -16.506960   1.000000
      7        -16.117969   1.000000
      8        -16.038846   1.000000
      9        -15.962089   1.000000
     10        -15.937624   1.000000
     11        -14.457077   1.000000
     12        -14.070228   1.000000
     13        -13.196442   1.000000
     14        -12.410866   1.000000
     15         -8.575109   1.000000
     16         -7.740117   1.000000
     17         -7.034769   1.000000
     18         -6.917811   1.000000
     19         -6.814815   1.000000
     20         -6.690308   1.000000
     21         -6.508542   1.000000
     22         -6.153634   1.000000
     23         -5.761998   1.000000
     24         -5.376664   1.000000
     25         -5.303908   1.000000
     26         -4.717168   1.000000
     27         -4.419270   1.000000
     28         -3.527382   1.000000
     29         -3.070071   1.000000
     30         -2.674895   1.000000
     31         -1.393320   1.000000
     32         -0.239430   0.000000
     33          0.061293   0.000000
     34          0.973185   0.000000
     35          2.864611   0.000000
     36          3.147076   0.000000
     37          3.442166   0.000000
     38          3.751014   0.000000

 -0.4000000E+00  0.5000000E+00  0.1262379E-14  0.2000000E-01
      1        -17.434114   1.000000
      2        -17.131867   1.000000
      3        -16.989238   1.000000
      4        -16.944198   1.000000
      5        -16.875511   1.000000
      6        -16.506960   1.000000
      7        -16.117969   1.000000
      8        -16.038846   1.000000
      9        -15.962089   1.000000
     10        -15.937624   1.000000
     11        -14.457077   1.000000
     12        -14.070228   1.000000
     13        -13.196442   1.000000
     14        -12.410866   1.000000
     15         -8.575109   1.000000
     16         -7.740117   1.000000
     17         -7.034769   1.000000
     18         -6.917811   1.000000
     19         -6.814815   1.000000
     20         -6.690308   1.000000
     21         -6.508542   1.000000
     22         -6.153634   1.000000
     23         -5.761998   1.000000
     24         -5.376664   1.000000
     25         -5.303908   1.000000
     26         -4.717168   1.000000
     27         -4.419270   1.000000
     28         -3.527381   1.000000
     29         -3.070071   1.000000
     30         -2.674895   1.000000
     31         -1.393320   1.000000
     32         -0.239430   0.000000
     33          0.061293   0.000000
     34          0.973185   0.000000
     35          2.864611   0.000000
     36          3.147076   0.000000
     37          3.442166   0.000000
     38          3.751014   0.000000

  0.1000000E+00  0.4000000E+00  0.1262379E-14  0.2000000E-01
      1        -17.434114   1.000000
      2        -17.131867   1.000000
      3        -16.989238   1.000000
      4        -16.944198   1.000000
      5        -16.875511   1.000000
      6        -16.506961   1.000000
      7        -16.117969   1.000000
      8        -16.038847   1.000000
      9        -15.962088   1.000000
     10        -15.937623   1.000000
     11        -14.457077   1.000000
     12        -14.070229   1.000000
     13        -13.196441   1.000000
     14        -12.410864   1.000000
     15         -8.575110   1.000000
     16         -7.740120   1.000000
     17         -7.034769   1.000000
     18         -6.917811   1.000000
     19         -6.814817   1.000000
     20         -6.690308   1.000000
     21         -6.508541   1.000000
     22         -6.153632   1.000000
     23         -5.762000   1.000000
     24         -5.376663   1.000000
     25         -5.303912   1.000000
     26         -4.717169   1.000000
     27         -4.419269   1.000000
     28         -3.527385   1.000000
     29         -3.070072   1.000000
     30         -2.674894   1.000000
     31         -1.393313   1.000000
     32         -0.239432   0.000000
     33          0.061293   0.000000
     34          0.973187   0.000000
     35          2.864613   0.000000
     36          3.147077   0.000000
     37          3.442168   0.000000
     38          3.751018   0.000000

  0.5000000E+00 -0.1000000E+00  0.1262379E-14  0.2000000E-01
      1        -17.434114   1.000000
      2        -17.131867   1.000000
      3        -16.989238   1.000000
      4        -16.944198   1.000000
      5        -16.875511   1.000000
      6        -16.506961   1.000000
      7        -16.117969   1.000000
      8        -16.038847   1.000000
      9        -15.962088   1.000000
     10        -15.937624   1.000000
     11        -14.457077   1.000000
     12        -14.070228   1.000000
     13        -13.196441   1.000000
     14        -12.410864   1.000000
     15         -8.575110   1.000000
     16         -7.740119   1.000000
     17         -7.034770   1.000000
     18         -6.917810   1.000000
     19         -6.814817   1.000000
     20         -6.690308   1.000000
     21         -6.508542   1.000000
     22         -6.153631   1.000000
     23         -5.762000   1.000000
     24         -5.376663   1.000000
     25         -5.303911   1.000000
     26         -4.717168   1.000000
     27         -4.419270   1.000000
     28         -3.527385   1.000000
     29         -3.070072   1.000000
     30         -2.674894   1.000000
     31         -1.393314   1.000000
     32         -0.239432   0.000000
     33          0.061293   0.000000
     34          0.973186   0.000000
     35          2.864614   0.000000
     36          3.147078   0.000000
     37          3.442166   0.000000
     38          3.751018   0.000000

  0.2000000E+00  0.2000000E+00  0.1262379E-14  0.2000000E-01
      1        -17.384244   1.000000
      2        -17.137504   1.000000
      3        -17.002019   1.000000
      4        -16.933141   1.000000
      5        -16.889963   1.000000
      6        -16.421672   1.000000
      7        -16.157249   1.000000
      8        -16.011275   1.000000
      9        -16.005056   1.000000
     10        -15.947758   1.000000
     11        -14.812286   1.000000
     12        -14.288633   1.000000
     13        -13.353399   1.000000
     14        -12.557261   1.000000
     15         -8.151636   1.000000
     16         -7.206194   1.000000
     17         -7.132039   1.000000
     18         -6.971869   1.000000
     19         -6.784981   1.000000
     20         -6.693925   1.000000
     21         -6.578619   1.000000
     22         -5.988278   1.000000
     23         -5.541308   1.000000
     24         -5.327705   1.000000
     25         -4.918584   1.000000
     26         -4.559025   1.000000
     27         -3.784390   1.000000
     28         -3.621727   1.000000
     29         -3.185234   1.000000
     30         -2.682482   1.000000
     31         -1.469800   1.000000
     32          0.157499   0.000000
     33          0.540888   0.000000
     34          1.703541   0.000000
     35          2.330760   0.000000
     36          3.505061   0.000000
     37          3.735793   0.000000
     38          4.092511   0.000000

 -0.2000000E+00  0.4000000E+00  0.1262379E-14  0.2000000E-01
      1        -17.384243   1.000000
      2        -17.137503   1.000000
      3        -17.002020   1.000000
      4        -16.933141   1.000000
      5        -16.889963   1.000000
      6        -16.421672   1.000000
      7        -16.157249   1.000000
      8        -16.011275   1.000000
      9        -16.005056   1.000000
     10        -15.947758   1.000000
     11        -14.812286   1.000000
     12        -14.288633   1.000000
     13        -13.353400   1.000000
     14        -12.557262   1.000000
     15         -8.151636   1.000000
     16         -7.206193   1.000000
     17         -7.132041   1.000000
     18         -6.971867   1.000000
     19         -6.784979   1.000000
     20         -6.693925   1.000000
     21         -6.578620   1.000000
     22         -5.988277   1.000000
     23         -5.541309   1.000000
     24         -5.327705   1.000000
     25         -4.918585   1.000000
     26         -4.559021   1.000000
     27         -3.784388   1.000000
     28         -3.621730   1.000000
     29         -3.185230   1.000000
     30         -2.682487   1.000000
     31         -1.469803   1.000000
     32          0.157498   0.000000
     33          0.540889   0.000000
     34          1.703541   0.000000
     35          2.330760   0.000000
     36          3.505058   0.000000
     37          3.735797   0.000000
     38          4.092514   0.000000

 -0.4000000E+00  0.2000000E+00  0.1262379E-14  0.2000000E-01
      1        -17.384243   1.000000
      2        -17.137503   1.000000
      3        -17.002020   1.000000
      4        -16.933141   1.000000
      5        -16.889963   1.000000
      6        -16.421672   1.000000
      7        -16.157249   1.000000
      8        -16.011275   1.000000
      9        -16.005056   1.000000
     10        -15.947759   1.000000
     11        -14.812286   1.000000
     12        -14.288633   1.000000
     13        -13.353400   1.000000
     14        -12.557262   1.000000
     15         -8.151636   1.000000
     16         -7.206192   1.000000
     17         -7.132041   1.000000
     18         -6.971867   1.000000
     19         -6.784979   1.000000
     20         -6.693925   1.000000
     21         -6.578620   1.000000
     22         -5.988277   1.000000
     23         -5.541308   1.000000
     24         -5.327705   1.000000
     25         -4.918585   1.000000
     26         -4.559021   1.000000
     27         -3.784388   1.000000
     28         -3.621730   1.000000
     29         -3.185230   1.000000
     30         -2.682487   1.000000
     31         -1.469803   1.000000
     32          0.157498   0.000000
     33          0.540889   0.000000
     34          1.703541   0.000000
     35          2.330760   0.000000
     36          3.505058   0.000000
     37          3.735797   0.000000
     38          4.092508   0.000000

  0.3000000E+00  0.2000000E+00  0.1262379E-14  0.2000000E-01
      1        -17.423771   1.000000
      2        -17.132040   1.000000
      3        -16.998138   1.000000
      4        -16.933418   1.000000
      5        -16.888476   1.000000
      6        -16.460593   1.000000
      7        -16.183313   1.000000
      8        -16.016066   1.000000
      9        -15.982610   1.000000
     10        -15.945181   1.000000
     11        -14.467337   1.000000
     12        -14.014557   1.000000
     13        -13.227119   1.000000
     14        -12.413888   1.000000
     15         -8.405831   1.000000
     16         -7.594383   1.000000
     17         -7.057314   1.000000
     18         -6.905412   1.000000
     19         -6.801947   1.000000
     20         -6.705874   1.000000
     21         -6.506391   1.000000
     22         -6.118342   1.000000
     23         -5.996445   1.000000
     24         -5.577423   1.000000
     25         -5.114257   1.000000
     26         -4.907987   1.000000
     27         -4.252383   1.000000
     28         -3.859461   1.000000
     29         -3.215354   1.000000
     30         -3.062497   1.000000
     31         -1.368969   1.000000
     32          0.211766   0.000000
     33          0.329168   0.000000
     34          1.623794   0.000000
     35          2.518181   0.000000
     36          3.529468   0.000000
     37          3.828933   0.000000
     38          4.416686   0.000000

 -0.2000000E+00  0.5000000E+00  0.1262379E-14  0.2000000E-01
      1        -17.423770   1.000000
      2        -17.132040   1.000000
      3        -16.998138   1.000000
      4        -16.933418   1.000000
      5        -16.888476   1.000000
      6        -16.460592   1.000000
      7        -16.183313   1.000000
      8        -16.016066   1.000000
      9        -15.982610   1.000000
     10        -15.945182   1.000000
     11        -14.467337   1.000000
     12        -14.014557   1.000000
     13        -13.227119   1.000000
     14        -12.413889   1.000000
     15         -8.405830   1.000000
     16         -7.594382   1.000000
     17         -7.057317   1.000000
     18         -6.905409   1.000000
     19         -6.801947   1.000000
     20         -6.705874   1.000000
     21         -6.506392   1.000000
     22         -6.118342   1.000000
     23         -5.996445   1.000000
     24         -5.577423   1.000000
     25         -5.114256   1.000000
     26         -4.907984   1.000000
     27         -4.252383   1.000000
     28         -3.859462   1.000000
     29         -3.215354   1.000000
     30         -3.062498   1.000000
     31         -1.368972   1.000000
     32          0.211767   0.000000
     33          0.329168   0.000000
     34          1.623794   0.000000
     35          2.518182   0.000000
     36          3.529465   0.000000
     37          3.828938   0.000000
     38          4.416685   0.000000

  0.5000000E+00  0.3000000E+00  0.1262379E-14  0.2000000E-01
      1        -17.423770   1.000000
      2        -17.132040   1.000000
      3        -16.998138   1.000000
      4        -16.933418   1.000000
      5        -16.888476   1.000000
      6        -16.460592   1.000000
      7        -16.183313   1.000000
      8        -16.016065   1.000000
      9        -15.982610   1.000000
     10        -15.945182   1.000000
     11        -14.467337   1.000000
     12        -14.014557   1.000000
     13        -13.227120   1.000000
     14        -12.413890   1.000000
     15         -8.405830   1.000000
     16         -7.594381   1.000000
     17         -7.057316   1.000000
     18         -6.905410   1.000000
     19         -6.801945   1.000000
     20         -6.705874   1.000000
     21         -6.506392   1.000000
     22         -6.118343   1.000000
     23         -5.996445   1.000000
     24         -5.577425   1.000000
     25         -5.114251   1.000000
     26         -4.907985   1.000000
     27         -4.252383   1.000000
     28         -3.859461   1.000000
     29         -3.215350   1.000000
     30         -3.062502   1.000000
     31         -1.368974   1.000000
     32          0.211767   0.000000
     33          0.329169   0.000000
     34          1.623793   0.000000
     35          2.518181   0.000000
     36          3.529467   0.000000
     37          3.828936   0.000000
     38          4.416679   0.000000

 -0.3000000E+00  0.5000000E+00  0.1262379E-14  0.2000000E-01
      1        -17.423770   1.000000
      2        -17.132040   1.000000
      3        -16.998138   1.000000
      4        -16.933418   1.000000
      5        -16.888476   1.000000
      6        -16.460592   1.000000
      7        -16.183313   1.000000
      8        -16.016065   1.000000
      9        -15.982610   1.000000
     10        -15.945182   1.000000
     11        -14.467337   1.000000
     12        -14.014557   1.000000
     13        -13.227120   1.000000
     14        -12.413890   1.000000
     15         -8.405830   1.000000
     16         -7.594381   1.000000
     17         -7.057316   1.000000
     18         -6.905410   1.000000
     19         -6.801945   1.000000
     20         -6.705874   1.000000
     21         -6.506392   1.000000
     22         -6.118343   1.000000
     23         -5.996445   1.000000
     24         -5.577425   1.000000
     25         -5.114251   1.000000
     26         -4.907986   1.000000
     27         -4.252383   1.000000
     28         -3.859461   1.000000
     29         -3.215350   1.000000
     30         -3.062502   1.000000
     31         -1.368974   1.000000
     32          0.211767   0.000000
     33          0.329169   0.000000
     34          1.623793   0.000000
     35          2.518181   0.000000
     36          3.529467   0.000000
     37          3.828936   0.000000
     38          4.416679   0.000000

  0.2000000E+00  0.3000000E+00  0.1262379E-14  0.2000000E-01
      1        -17.423771   1.000000
      2        -17.132040   1.000000
      3        -16.998138   1.000000
      4        -16.933418   1.000000
      5        -16.888476   1.000000
      6        -16.460593   1.000000
      7        -16.183313   1.000000
      8        -16.016066   1.000000
      9        -15.982610   1.000000
     10        -15.945181   1.000000
     11        -14.467337   1.000000
     12        -14.014558   1.000000
     13        -13.227119   1.000000
     14        -12.413888   1.000000
     15         -8.405831   1.000000
     16         -7.594383   1.000000
     17         -7.057314   1.000000
     18         -6.905412   1.000000
     19         -6.801947   1.000000
     20         -6.705874   1.000000
     21         -6.506391   1.000000
     22         -6.118343   1.000000
     23         -5.996445   1.000000
     24         -5.577423   1.000000
     25         -5.114257   1.000000
     26         -4.907987   1.000000
     27         -4.252383   1.000000
     28         -3.859461   1.000000
     29         -3.215354   1.000000
     30         -3.062497   1.000000
     31         -1.368969   1.000000
     32          0.211766   0.000000
     33          0.329168   0.000000
     34          1.623794   0.000000
     35          2.518181   0.000000
     36          3.529468   0.000000
     37          3.828933   0.000000
     38          4.416686   0.000000

  0.5000000E+00 -0.2000000E+00  0.1262379E-14  0.2000000E-01
      1        -17.423770   1.000000
      2        -17.132040   1.000000
      3        -16.998138   1.000000
      4        -16.933418   1.000000
      5        -16.888476   1.000000
      6        -16.460592   1.000000
      7        -16.183313   1.000000
      8        -16.016066   1.000000
      9        -15.982610   1.000000
     10        -15.945182   1.000000
     11        -14.467337   1.000000
     12        -14.014557   1.000000
     13        -13.227120   1.000000
     14        -12.413889   1.000000
     15         -8.405830   1.000000
     16         -7.594382   1.000000
     17         -7.057317   1.000000
     18         -6.905409   1.000000
     19         -6.801946   1.000000
     20         -6.705874   1.000000
     21         -6.506392   1.000000
     22         -6.118342   1.000000
     23         -5.996445   1.000000
     24         -5.577423   1.000000
     25         -5.114256   1.000000
     26         -4.907984   1.000000
     27         -4.252383   1.000000
     28         -3.859462   1.000000
     29         -3.215354   1.000000
     30         -3.062498   1.000000
     31         -1.368971   1.000000
     32          0.211766   0.000000
     33          0.329169   0.000000
     34          1.623794   0.000000
     35          2.518182   0.000000
     36          3.529465   0.000000
     37          3.828938   0.000000
     38          4.416684   0.000000

  0.4000000E+00  0.2000000E+00  0.1262379E-14  0.2000000E-01
      1        -17.438196   1.000000
      2        -17.129399   1.000000
      3        -16.997492   1.000000
      4        -16.932993   1.000000
      5        -16.887672   1.000000
      6        -16.474904   1.000000
      7        -16.192659   1.000000
      8        -16.018556   1.000000
      9        -15.962560   1.000000
     10        -15.955446   1.000000
     11        -14.315758   1.000000
     12        -13.898143   1.000000
     13        -13.191686   1.000000
     14        -12.357712   1.000000
     15         -8.533751   1.000000
     16         -7.763490   1.000000
     17         -7.014602   1.000000
     18         -6.888712   1.000000
     19         -6.808277   1.000000
     20         -6.710306   1.000000
     21         -6.392837   1.000000
     22         -6.209009   1.000000
     23         -6.122920   1.000000
     24         -5.707499   1.000000
     25         -5.332962   1.000000
     26         -4.765487   1.000000
     27         -4.555336   1.000000
     28         -3.971583   1.000000
     29         -3.343594   1.000000
     30         -3.044545   1.000000
     31         -1.337664   1.000000
     32          0.170935   0.000000
     33          0.255925   0.000000
     34          1.554477   0.000000
     35          2.603906   0.000000
     36          3.512231   0.000000
     37          3.812878   0.000000
     38          4.411685   0.000000

 -0.2000000E+00 -0.4000000E+00  0.1262379E-14  0.2000000E-01
      1        -17.438196   1.000000
      2        -17.129399   1.000000
      3        -16.997492   1.000000
      4        -16.932994   1.000000
      5        -16.887672   1.000000
      6        -16.474904   1.000000
      7        -16.192659   1.000000
      8        -16.018556   1.000000
      9        -15.962560   1.000000
     10        -15.955446   1.000000
     11        -14.315758   1.000000
     12        -13.898143   1.000000
     13        -13.191686   1.000000
     14        -12.357712   1.000000
     15         -8.533751   1.000000
     16         -7.763491   1.000000
     17         -7.014602   1.000000
     18         -6.888712   1.000000
     19         -6.808277   1.000000
     20         -6.710306   1.000000
     21         -6.392837   1.000000
     22         -6.209009   1.000000
     23         -6.122920   1.000000
     24         -5.707499   1.000000
     25         -5.332962   1.000000
     26         -4.765487   1.000000
     27         -4.555336   1.000000
     28         -3.971583   1.000000
     29         -3.343594   1.000000
     30         -3.044545   1.000000
     31         -1.337664   1.000000
     32          0.170935   0.000000
     33          0.255925   0.000000
     34          1.554477   0.000000
     35          2.603906   0.000000
     36          3.512231   0.000000
     37          3.812878   0.000000
     38          4.411685   0.000000

  0.4000000E+00  0.4000000E+00  0.1262379E-14  0.2000000E-01
      1        -17.438196   1.000000
      2        -17.129399   1.000000
      3        -16.997492   1.000000
      4        -16.932994   1.000000
      5        -16.887672   1.000000
      6        -16.474904   1.000000
      7        -16.192660   1.000000
      8        -16.018556   1.000000
      9        -15.962560   1.000000
     10        -15.955446   1.000000
     11        -14.315758   1.000000
     12        -13.898142   1.000000
     13        -13.191687   1.000000
     14        -12.357713   1.000000
     15         -8.533751   1.000000
     16         -7.763489   1.000000
     17         -7.014603   1.000000
     18         -6.888711   1.000000
     19         -6.808276   1.000000
     20         -6.710307   1.000000
     21         -6.392837   1.000000
     22         -6.209008   1.000000
     23         -6.122922   1.000000
     24         -5.707501   1.000000
     25         -5.332956   1.000000
     26         -4.765486   1.000000
     27         -4.555337   1.000000
     28         -3.971583   1.000000
     29         -3.343593   1.000000
     30         -3.044546   1.000000
     31         -1.337669   1.000000
     32          0.170938   0.000000
     33          0.255924   0.000000
     34          1.554477   0.000000
     35          2.603904   0.000000
     36          3.512233   0.000000
     37          3.812877   0.000000
     38          4.411675   0.000000

  0.3000000E+00  0.3000000E+00  0.1262379E-14  0.2000000E-01
      1        -17.437976   1.000000
      2        -17.128299   1.000000
      3        -17.002110   1.000000
      4        -16.921298   1.000000
      5        -16.900139   1.000000
      6        -16.445006   1.000000
      7        -16.241132   1.000000
      8        -15.995587   1.000000
      9        -15.980632   1.000000
     10        -15.960393   1.000000
     11        -14.263864   1.000000
     12        -13.810637   1.000000
     13        -13.205726   1.000000
     14        -12.337858   1.000000
     15         -8.465794   1.000000
     16         -7.744824   1.000000
     17         -7.004264   1.000000
     18         -6.883949   1.000000
     19         -6.802678   1.000000
     20         -6.722358   1.000000
     21         -6.478763   1.000000
     22         -6.345722   1.000000
     23         -6.162597   1.000000
     24         -5.774711   1.000000
     25         -5.169531   1.000000
     26         -4.903395   1.000000
     27         -4.543427   1.000000
     28         -4.223721   1.000000
     29         -3.661038   1.000000
     30         -3.031288   1.000000
     31         -1.322546   1.000000
     32          0.268591   0.000000
     33          0.401617   0.000000
     34          1.798876   0.000000
     35          2.547392   0.000000
     36          3.756317   0.000000
     37          4.029995   0.000000
     38          4.650901   0.000000

 -0.3000000E+00 -0.4000000E+00  0.1262379E-14  0.2000000E-01
      1        -17.437976   1.000000
      2        -17.128299   1.000000
      3        -17.002110   1.000000
      4        -16.921298   1.000000
      5        -16.900139   1.000000
      6        -16.445005   1.000000
      7        -16.241132   1.000000
      8        -15.995587   1.000000
      9        -15.980632   1.000000
     10        -15.960394   1.000000
     11        -14.263864   1.000000
     12        -13.810636   1.000000
     13        -13.205726   1.000000
     14        -12.337858   1.000000
     15         -8.465794   1.000000
     16         -7.744823   1.000000
     17         -7.004266   1.000000
     18         -6.883948   1.000000
     19         -6.802678   1.000000
     20         -6.722358   1.000000
     21         -6.478763   1.000000
     22         -6.345722   1.000000
     23         -6.162597   1.000000
     24         -5.774712   1.000000
     25         -5.169527   1.000000
     26         -4.903394   1.000000
     27         -4.543427   1.000000
     28         -4.223722   1.000000
     29         -3.661038   1.000000
     30         -3.031288   1.000000
     31         -1.322549   1.000000
     32          0.268591   0.000000
     33          0.401617   0.000000
     34          1.798876   0.000000
     35          2.547392   0.000000
     36          3.756317   0.000000
     37          4.029995   0.000000
     38          4.650903   0.000000

  0.4000000E+00  0.3000000E+00  0.1262379E-14  0.2000000E-01
      1        -17.437976   1.000000
      2        -17.128299   1.000000
      3        -17.002110   1.000000
      4        -16.921298   1.000000
      5        -16.900139   1.000000
      6        -16.445005   1.000000
      7        -16.241132   1.000000
      8        -15.995587   1.000000
      9        -15.980632   1.000000
     10        -15.960394   1.000000
     11        -14.263864   1.000000
     12        -13.810636   1.000000
     13        -13.205727   1.000000
     14        -12.337858   1.000000
     15         -8.465794   1.000000
     16         -7.744823   1.000000
     17         -7.004266   1.000000
     18         -6.883948   1.000000
     19         -6.802678   1.000000
     20         -6.722358   1.000000
     21         -6.478763   1.000000
     22         -6.345722   1.000000
     23         -6.162597   1.000000
     24         -5.774712   1.000000
     25         -5.169527   1.000000
     26         -4.903394   1.000000
     27         -4.543427   1.000000
     28         -4.223722   1.000000
     29         -3.661038   1.000000
     30         -3.031288   1.000000
     31         -1.322549   1.000000
     32          0.268591   0.000000
     33          0.401617   0.000000
     34          1.798876   0.000000
     35          2.547392   0.000000
     36          3.756317   0.000000
     37          4.029995   0.000000
     38          4.650903   0.000000
