       N       E                     dE             d eps       ncg     rms          rms(c)
DAV:   1     0.567341543371E+03    0.56734E+03   -0.28033E+04  4064   0.161E+03
DAV:   2     0.522981600428E+02   -0.51504E+03   -0.50006E+03  4708   0.368E+02
DAV:   3    -0.244761527135E+02   -0.76774E+02   -0.75649E+02  5078   0.163E+02
DAV:   4    -0.283121214195E+02   -0.38360E+01   -0.38193E+01  4836   0.399E+01
DAV:   5    -0.284636725098E+02   -0.15155E+00   -0.15150E+00  5830   0.797E+00    0.133E+01
DAV:   6    -0.264972557370E+02    0.19664E+01   -0.36530E+00  6470   0.421E+01    0.100E+01
DAV:   7    -0.266259006744E+02   -0.12864E+00   -0.42119E+00  5556   0.114E+01    0.359E+00
DAV:   8    -0.266339583503E+02   -0.80577E-02   -0.25674E+00  5586   0.105E+01    0.188E+00
DAV:   9    -0.265309569644E+02    0.10300E+00   -0.60557E-01  6504   0.123E+01    0.104E+00
DAV:  10    -0.265365297816E+02   -0.55728E-02   -0.11460E-01  5228   0.173E+00    0.727E-01
DAV:  11    -0.265352172480E+02    0.13125E-02   -0.16995E-02  6390   0.955E-01    0.340E-01
DAV:  12    -0.265356151551E+02   -0.39791E-03   -0.84081E-03  5336   0.630E-01    0.185E-01
DAV:  13    -0.265356633546E+02   -0.48199E-04   -0.12648E-03  4692   0.326E-01    0.611E-02
DAV:  14    -0.265356917580E+02   -0.28403E-04   -0.17565E-04  5552   0.810E-02    0.455E-02
DAV:  15    -0.265357124471E+02   -0.20689E-04   -0.33353E-05  6218   0.380E-02    0.261E-02
DAV:  16    -0.265357313265E+02   -0.18879E-04   -0.56043E-05  4654   0.617E-02    0.160E-02
DAV:  17    -0.265357463765E+02   -0.15050E-04   -0.76184E-06  4178   0.154E-02    0.751E-03
DAV:  18    -0.265357667611E+02   -0.20385E-04   -0.11581E-06  3476   0.758E-03    0.278E-03
DAV:  19    -0.265357751049E+02   -0.83437E-05   -0.44052E-07  2992   0.736E-03    0.231E-03
DAV:  20    -0.265358014663E+02   -0.26361E-04   -0.11607E-06  3276   0.510E-03    0.266E-03
DAV:  21    -0.265358057649E+02   -0.42986E-05   -0.16307E-07  3198   0.299E-03    0.174E-03
DAV:  22    -0.265358123666E+02   -0.66016E-05   -0.18797E-07  2998   0.222E-03    0.870E-04
DAV:  23    -0.265358176157E+02   -0.52491E-05   -0.25628E-07  3180   0.251E-03    0.883E-04
DAV:  24    -0.265358183518E+02   -0.73609E-06   -0.48293E-08  3054   0.102E-03
   1 F= -.28281634E+02 E0= -.28281348E+02  d E =-.571968E-03
