    7    7    1    1
  0.5474601E+02  0.3878284E-09  0.3878284E-09  0.2941986E-08  0.5000000E-15
   1.0000000000000000E-004
  CAR 
 WP2-P02-beta001-A2-k10-500              
     62     52     38

  0.1262379E-14  0.1262379E-14  0.1262379E-14  0.1000000E-01
      1        -17.247072   1.000000
      2        -17.058109   1.000000
      3        -17.058109   1.000000
      4        -16.895916   1.000000
      5        -16.895915   1.000000
      6        -16.132241   1.000000
      7        -16.131972   1.000000
      8        -16.131971   1.000000
      9        -15.984562   1.000000
     10        -15.984561   1.000000
     11        -15.889505   1.000000
     12        -15.043634   1.000000
     13        -14.045159   1.000000
     14        -13.073441   1.000000
     15         -8.098651   1.000000
     16         -7.231779   1.000000
     17         -7.231778   1.000000
     18         -6.734382   1.000000
     19         -6.679295   1.000000
     20         -6.679294   1.000000
     21         -5.757376   1.000000
     22         -4.165395   1.000000
     23         -4.165394   1.000000
     24         -4.055689   1.000000
     25         -3.160703   1.000000
     26         -3.160700   1.000000
     27         -2.862853   1.000000
     28         -2.862853   1.000000
     29         -2.284662   1.000000
     30         -1.265583   1.000000
     31         -1.019299   0.498514
     32         -1.019289   0.498402
     33          0.212477   0.000000
     34          1.422749   0.000000
     35          2.043906   0.000000
     36          2.521817   0.000000
     37          2.845014   0.000000
     38          2.856481   0.000000

  0.1000000E+00  0.1262879E-14  0.1262379E-14  0.2000000E-01
      1        -17.252894   1.000000
      2        -17.088588   1.000000
      3        -17.049122   1.000000
      4        -16.906450   1.000000
      5        -16.895740   1.000000
      6        -16.196018   1.000000
      7        -16.124282   1.000000
      8        -16.095336   1.000000
      9        -15.992635   1.000000
     10        -15.982864   1.000000
     11        -15.764907   1.000000
     12        -14.973846   1.000000
     13        -13.952422   1.000000
     14        -13.016100   1.000000
     15         -8.055883   1.000000
     16         -7.231698   1.000000
     17         -7.205418   1.000000
     18         -6.733118   1.000000
     19         -6.692424   1.000000
     20         -6.680625   1.000000
     21         -5.819135   1.000000
     22         -4.652003   1.000000
     23         -4.278783   1.000000
     24         -4.051606   1.000000
     25         -3.731943   1.000000
     26         -3.375238   1.000000
     27         -3.186518   1.000000
     28         -2.801678   1.000000
     29         -2.018997   1.000000
     30         -1.644472   1.000000
     31         -1.179750   0.999997
     32         -0.903425   0.000517
     33          0.538998   0.000000
     34          1.840642   0.000000
     35          2.210061   0.000000
     36          2.537052   0.000000
     37          2.730860   0.000000
     38          2.978369   0.000000

  0.1262379E-14  0.1000000E+00  0.1262379E-14  0.2000000E-01
      1        -17.252894   1.000000
      2        -17.088588   1.000000
      3        -17.049122   1.000000
      4        -16.906450   1.000000
      5        -16.895740   1.000000
      6        -16.196018   1.000000
      7        -16.124282   1.000000
      8        -16.095336   1.000000
      9        -15.992635   1.000000
     10        -15.982864   1.000000
     11        -15.764907   1.000000
     12        -14.973846   1.000000
     13        -13.952422   1.000000
     14        -13.016100   1.000000
     15         -8.055883   1.000000
     16         -7.231698   1.000000
     17         -7.205418   1.000000
     18         -6.733118   1.000000
     19         -6.692424   1.000000
     20         -6.680624   1.000000
     21         -5.819135   1.000000
     22         -4.652003   1.000000
     23         -4.278783   1.000000
     24         -4.051606   1.000000
     25         -3.731943   1.000000
     26         -3.375238   1.000000
     27         -3.186518   1.000000
     28         -2.801678   1.000000
     29         -2.018997   1.000000
     30         -1.644472   1.000000
     31         -1.179749   0.999997
     32         -0.903425   0.000517
     33          0.538998   0.000000
     34          1.840642   0.000000
     35          2.210061   0.000000
     36          2.537052   0.000000
     37          2.730866   0.000000
     38          2.980982   0.000000

 -0.1000000E+00  0.1000000E+00  0.1262379E-14  0.2000000E-01
      1        -17.252894   1.000000
      2        -17.088588   1.000000
      3        -17.049122   1.000000
      4        -16.906451   1.000000
      5        -16.895740   1.000000
      6        -16.196018   1.000000
      7        -16.124283   1.000000
      8        -16.095336   1.000000
      9        -15.992635   1.000000
     10        -15.982864   1.000000
     11        -15.764907   1.000000
     12        -14.973845   1.000000
     13        -13.952422   1.000000
     14        -13.016100   1.000000
     15         -8.055883   1.000000
     16         -7.231698   1.000000
     17         -7.205417   1.000000
     18         -6.733118   1.000000
     19         -6.692423   1.000000
     20         -6.680625   1.000000
     21         -5.819135   1.000000
     22         -4.652003   1.000000
     23         -4.278784   1.000000
     24         -4.051606   1.000000
     25         -3.731942   1.000000
     26         -3.375240   1.000000
     27         -3.186517   1.000000
     28         -2.801678   1.000000
     29         -2.018996   1.000000
     30         -1.644466   1.000000
     31         -1.179756   0.999997
     32         -0.903424   0.000517
     33          0.538998   0.000000
     34          1.840642   0.000000
     35          2.210061   0.000000
     36          2.537051   0.000000
     37          2.730869   0.000000
     38          2.981861   0.000000

  0.2000000E+00  0.1249001E-14  0.1262379E-14  0.2000000E-01
      1        -17.290587   1.000000
      2        -17.131689   1.000000
      3        -17.026928   1.000000
      4        -16.923304   1.000000
      5        -16.893761   1.000000
      6        -16.306411   1.000000
      7        -16.107079   1.000000
      8        -16.055571   1.000000
      9        -16.002851   1.000000
     10        -15.975251   1.000000
     11        -15.447755   1.000000
     12        -14.771084   1.000000
     13        -13.721042   1.000000
     14        -12.860441   1.000000
     15         -7.984180   1.000000
     16         -7.218987   1.000000
     17         -7.133786   1.000000
     18         -6.758676   1.000000
     19         -6.716368   1.000000
     20         -6.683564   1.000000
     21         -6.168457   1.000000
     22         -5.432594   1.000000
     23         -4.669541   1.000000
     24         -4.553338   1.000000
     25         -4.001343   1.000000
     26         -3.803725   1.000000
     27         -3.761359   1.000000
     28         -2.794343   1.000000
     29         -2.677590   1.000000
     30         -1.768843   1.000000
     31         -1.562706   1.000000
     32         -0.391555   0.000000
     33          0.675086   0.000000
     34          1.528462   0.000000
     35          2.522720   0.000000
     36          2.974142   0.000000
     37          3.177995   0.000000
     38          3.312260   0.000000

  0.1262379E-14  0.2000000E+00  0.1262379E-14  0.2000000E-01
      1        -17.290587   1.000000
      2        -17.131689   1.000000
      3        -17.026928   1.000000
      4        -16.923304   1.000000
      5        -16.893761   1.000000
      6        -16.306411   1.000000
      7        -16.107079   1.000000
      8        -16.055571   1.000000
      9        -16.002851   1.000000
     10        -15.975251   1.000000
     11        -15.447755   1.000000
     12        -14.771085   1.000000
     13        -13.721042   1.000000
     14        -12.860441   1.000000
     15         -7.984180   1.000000
     16         -7.218987   1.000000
     17         -7.133786   1.000000
     18         -6.758676   1.000000
     19         -6.716368   1.000000
     20         -6.683564   1.000000
     21         -6.168457   1.000000
     22         -5.432594   1.000000
     23         -4.669542   1.000000
     24         -4.553338   1.000000
     25         -4.001343   1.000000
     26         -3.803725   1.000000
     27         -3.761359   1.000000
     28         -2.794342   1.000000
     29         -2.677590   1.000000
     30         -1.768843   1.000000
     31         -1.562706   1.000000
     32         -0.391555   0.000000
     33          0.675086   0.000000
     34          1.528462   0.000000
     35          2.522720   0.000000
     36          2.974141   0.000000
     37          3.177994   0.000000
     38          3.315998   0.000000

 -0.2000000E+00  0.2000000E+00  0.1262379E-14  0.2000000E-01
      1        -17.290587   1.000000
      2        -17.131689   1.000000
      3        -17.026928   1.000000
      4        -16.923305   1.000000
      5        -16.893761   1.000000
      6        -16.306411   1.000000
      7        -16.107079   1.000000
      8        -16.055571   1.000000
      9        -16.002852   1.000000
     10        -15.975251   1.000000
     11        -15.447755   1.000000
     12        -14.771084   1.000000
     13        -13.721043   1.000000
     14        -12.860442   1.000000
     15         -7.984180   1.000000
     16         -7.218987   1.000000
     17         -7.133786   1.000000
     18         -6.758676   1.000000
     19         -6.716367   1.000000
     20         -6.683565   1.000000
     21         -6.168457   1.000000
     22         -5.432593   1.000000
     23         -4.669541   1.000000
     24         -4.553339   1.000000
     25         -4.001345   1.000000
     26         -3.803722   1.000000
     27         -3.761361   1.000000
     28         -2.794343   1.000000
     29         -2.677584   1.000000
     30         -1.768843   1.000000
     31         -1.562710   1.000000
     32         -0.391555   0.000000
     33          0.675085   0.000000
     34          1.528461   0.000000
     35          2.522720   0.000000
     36          2.974135   0.000000
     37          3.177979   0.000000
     38          3.345983   0.000000

  0.3000000E+00  0.1221245E-14  0.1262379E-14  0.2000000E-01
      1        -17.361974   1.000000
      2        -17.139614   1.000000
      3        -17.003513   1.000000
      4        -16.937516   1.000000
      5        -16.886815   1.000000
      6        -16.420957   1.000000
      7        -16.092732   1.000000
      8        -16.040553   1.000000
      9        -15.991127   1.000000
     10        -15.958327   1.000000
     11        -15.030677   1.000000
     12        -14.478920   1.000000
     13        -13.452429   1.000000
     14        -12.656063   1.000000
     15         -8.088381   1.000000
     16         -7.168465   1.000000
     17         -7.046754   1.000000
     18         -7.039847   1.000000
     19         -6.776974   1.000000
     20         -6.685315   1.000000
     21         -6.587833   1.000000
     22         -5.908055   1.000000
     23         -5.319742   1.000000
     24         -4.858144   1.000000
     25         -4.418188   1.000000
     26         -4.185345   1.000000
     27         -4.134446   1.000000
     28         -3.327923   1.000000
     29         -2.854374   1.000000
     30         -1.982391   1.000000
     31         -1.590890   1.000000
     32         -0.286491   0.000000
     33          0.294517   0.000000
     34          1.074865   0.000000
     35          2.739596   0.000000
     36          3.267830   0.000000
     37          3.499085   0.000000
     38          3.501364   0.000000

  0.1262379E-14  0.3000000E+00  0.1262379E-14  0.2000000E-01
      1        -17.361974   1.000000
      2        -17.139614   1.000000
      3        -17.003513   1.000000
      4        -16.937516   1.000000
      5        -16.886815   1.000000
      6        -16.420957   1.000000
      7        -16.092732   1.000000
      8        -16.040553   1.000000
      9        -15.991127   1.000000
     10        -15.958327   1.000000
     11        -15.030677   1.000000
     12        -14.478920   1.000000
     13        -13.452429   1.000000
     14        -12.656063   1.000000
     15         -8.088381   1.000000
     16         -7.168465   1.000000
     17         -7.046754   1.000000
     18         -7.039847   1.000000
     19         -6.776974   1.000000
     20         -6.685315   1.000000
     21         -6.587833   1.000000
     22         -5.908055   1.000000
     23         -5.319742   1.000000
     24         -4.858144   1.000000
     25         -4.418188   1.000000
     26         -4.185346   1.000000
     27         -4.134445   1.000000
     28         -3.327923   1.000000
     29         -2.854374   1.000000
     30         -1.982391   1.000000
     31         -1.590890   1.000000
     32         -0.286491   0.000000
     33          0.294517   0.000000
     34          1.074865   0.000000
     35          2.739595   0.000000
     36          3.267830   0.000000
     37          3.499086   0.000000
     38          3.501364   0.000000

 -0.3000000E+00  0.3000000E+00  0.1262379E-14  0.2000000E-01
      1        -17.361974   1.000000
      2        -17.139614   1.000000
      3        -17.003513   1.000000
      4        -16.937517   1.000000
      5        -16.886815   1.000000
      6        -16.420957   1.000000
      7        -16.092732   1.000000
      8        -16.040553   1.000000
      9        -15.991128   1.000000
     10        -15.958327   1.000000
     11        -15.030677   1.000000
     12        -14.478919   1.000000
     13        -13.452430   1.000000
     14        -12.656065   1.000000
     15         -8.088381   1.000000
     16         -7.168464   1.000000
     17         -7.046753   1.000000
     18         -7.039848   1.000000
     19         -6.776972   1.000000
     20         -6.685316   1.000000
     21         -6.587834   1.000000
     22         -5.908054   1.000000
     23         -5.319743   1.000000
     24         -4.858145   1.000000
     25         -4.418184   1.000000
     26         -4.185347   1.000000
     27         -4.134447   1.000000
     28         -3.327917   1.000000
     29         -2.854374   1.000000
     30         -1.982392   1.000000
     31         -1.590893   1.000000
     32         -0.286491   0.000000
     33          0.294517   0.000000
     34          1.074863   0.000000
     35          2.739594   0.000000
     36          3.267825   0.000000
     37          3.499086   0.000000
     38          3.501361   0.000000

  0.4000000E+00  0.1221245E-14  0.1262379E-14  0.2000000E-01
      1        -17.420305   1.000000
      2        -17.135508   1.000000
      3        -16.989332   1.000000
      4        -16.947165   1.000000
      5        -16.876050   1.000000
      6        -16.501683   1.000000
      7        -16.086646   1.000000
      8        -16.046703   1.000000
      9        -15.967776   1.000000
     10        -15.938634   1.000000
     11        -14.633544   1.000000
     12        -14.210198   1.000000
     13        -13.251145   1.000000
     14        -12.480229   1.000000
     15         -8.459609   1.000000
     16         -7.594653   1.000000
     17         -7.068553   1.000000
     18         -6.960087   1.000000
     19         -6.810104   1.000000
     20         -6.683361   1.000000
     21         -6.597211   1.000000
     22         -6.093146   1.000000
     23         -5.648834   1.000000
     24         -5.083612   1.000000
     25         -5.080024   1.000000
     26         -4.457037   1.000000
     27         -4.395710   1.000000
     28         -3.421553   1.000000
     29         -2.925312   1.000000
     30         -2.289157   1.000000
     31         -1.464108   1.000000
     32         -0.465717   0.000000
     33         -0.009413   0.000000
     34          0.785677   0.000000
     35          2.675883   0.000000
     36          3.138467   0.000000
     37          3.515270   0.000000
     38          3.625754   0.000000

  0.1262379E-14  0.4000000E+00  0.1262379E-14  0.2000000E-01
      1        -17.420305   1.000000
      2        -17.135508   1.000000
      3        -16.989332   1.000000
      4        -16.947165   1.000000
      5        -16.876050   1.000000
      6        -16.501683   1.000000
      7        -16.086646   1.000000
      8        -16.046703   1.000000
      9        -15.967776   1.000000
     10        -15.938634   1.000000
     11        -14.633544   1.000000
     12        -14.210198   1.000000
     13        -13.251145   1.000000
     14        -12.480229   1.000000
     15         -8.459609   1.000000
     16         -7.594654   1.000000
     17         -7.068553   1.000000
     18         -6.960087   1.000000
     19         -6.810104   1.000000
     20         -6.683361   1.000000
     21         -6.597211   1.000000
     22         -6.093147   1.000000
     23         -5.648834   1.000000
     24         -5.083612   1.000000
     25         -5.080024   1.000000
     26         -4.457037   1.000000
     27         -4.395710   1.000000
     28         -3.421553   1.000000
     29         -2.925312   1.000000
     30         -2.289157   1.000000
     31         -1.464108   1.000000
     32         -0.465717   0.000000
     33         -0.009413   0.000000
     34          0.785677   0.000000
     35          2.675883   0.000000
     36          3.138468   0.000000
     37          3.515270   0.000000
     38          3.625755   0.000000

 -0.4000000E+00  0.4000000E+00  0.1262379E-14  0.2000000E-01
      1        -17.420305   1.000000
      2        -17.135508   1.000000
      3        -16.989332   1.000000
      4        -16.947165   1.000000
      5        -16.876050   1.000000
      6        -16.501683   1.000000
      7        -16.086646   1.000000
      8        -16.046703   1.000000
      9        -15.967777   1.000000
     10        -15.938633   1.000000
     11        -14.633545   1.000000
     12        -14.210198   1.000000
     13        -13.251146   1.000000
     14        -12.480230   1.000000
     15         -8.459609   1.000000
     16         -7.594651   1.000000
     17         -7.068551   1.000000
     18         -6.960088   1.000000
     19         -6.810101   1.000000
     20         -6.683362   1.000000
     21         -6.597214   1.000000
     22         -6.093147   1.000000
     23         -5.648833   1.000000
     24         -5.083613   1.000000
     25         -5.080021   1.000000
     26         -4.457037   1.000000
     27         -4.395711   1.000000
     28         -3.421547   1.000000
     29         -2.925313   1.000000
     30         -2.289157   1.000000
     31         -1.464114   1.000000
     32         -0.465716   0.000000
     33         -0.009413   0.000000
     34          0.785675   0.000000
     35          2.675881   0.000000
     36          3.138461   0.000000
     37          3.515270   0.000000
     38          3.625756   0.000000

  0.5000000E+00  0.1221245E-14  0.1262379E-14  0.1000000E-01
      1        -17.441628   1.000000
      2        -17.133392   1.000000
      3        -16.985216   1.000000
      4        -16.950610   1.000000
      5        -16.870546   1.000000
      6        -16.530173   1.000000
      7        -16.085400   1.000000
      8        -16.050092   1.000000
      9        -15.958612   1.000000
     10        -15.929918   1.000000
     11        -14.451364   1.000000
     12        -14.105976   1.000000
     13        -13.180253   1.000000
     14        -12.410477   1.000000
     15         -8.667505   1.000000
     16         -7.814804   1.000000
     17         -7.017846   1.000000
     18         -6.929257   1.000000
     19         -6.824335   1.000000
     20         -6.680991   1.000000
     21         -6.496059   1.000000
     22         -6.236232   1.000000
     23         -5.708307   1.000000
     24         -5.338790   1.000000
     25         -5.165660   1.000000
     26         -4.597774   1.000000
     27         -4.488913   1.000000
     28         -3.410681   1.000000
     29         -2.957246   1.000000
     30         -2.398913   1.000000
     31         -1.422057   1.000000
     32         -0.524978   0.000000
     33         -0.156064   0.000000
     34          0.691040   0.000000
     35          2.610757   0.000000
     36          3.065006   0.000000
     37          3.499456   0.000000
     38          3.516616   0.000000

  0.1262379E-14  0.5000000E+00  0.1262379E-14  0.1000000E-01
      1        -17.441628   1.000000
      2        -17.133392   1.000000
      3        -16.985216   1.000000
      4        -16.950610   1.000000
      5        -16.870546   1.000000
      6        -16.530173   1.000000
      7        -16.085400   1.000000
      8        -16.050092   1.000000
      9        -15.958612   1.000000
     10        -15.929918   1.000000
     11        -14.451364   1.000000
     12        -14.105976   1.000000
     13        -13.180253   1.000000
     14        -12.410477   1.000000
     15         -8.667505   1.000000
     16         -7.814804   1.000000
     17         -7.017846   1.000000
     18         -6.929257   1.000000
     19         -6.824335   1.000000
     20         -6.680991   1.000000
     21         -6.496059   1.000000
     22         -6.236232   1.000000
     23         -5.708307   1.000000
     24         -5.338791   1.000000
     25         -5.165660   1.000000
     26         -4.597774   1.000000
     27         -4.488913   1.000000
     28         -3.410681   1.000000
     29         -2.957246   1.000000
     30         -2.398913   1.000000
     31         -1.422057   1.000000
     32         -0.524978   0.000000
     33         -0.156064   0.000000
     34          0.691040   0.000000
     35          2.610756   0.000000
     36          3.065006   0.000000
     37          3.499456   0.000000
     38          3.516616   0.000000

  0.5000000E+00  0.5000000E+00  0.1262379E-14  0.1000000E-01
      1        -17.441628   1.000000
      2        -17.133392   1.000000
      3        -16.985216   1.000000
      4        -16.950611   1.000000
      5        -16.870546   1.000000
      6        -16.530173   1.000000
      7        -16.085400   1.000000
      8        -16.050092   1.000000
      9        -15.958612   1.000000
     10        -15.929918   1.000000
     11        -14.451365   1.000000
     12        -14.105975   1.000000
     13        -13.180254   1.000000
     14        -12.410479   1.000000
     15         -8.667504   1.000000
     16         -7.814802   1.000000
     17         -7.017843   1.000000
     18         -6.929259   1.000000
     19         -6.824332   1.000000
     20         -6.680991   1.000000
     21         -6.496060   1.000000
     22         -6.236236   1.000000
     23         -5.708303   1.000000
     24         -5.338789   1.000000
     25         -5.165660   1.000000
     26         -4.597774   1.000000
     27         -4.488914   1.000000
     28         -3.410676   1.000000
     29         -2.957246   1.000000
     30         -2.398912   1.000000
     31         -1.422064   1.000000
     32         -0.524976   0.000000
     33         -0.156064   0.000000
     34          0.691038   0.000000
     35          2.610753   0.000000
     36          3.065000   0.000000
     37          3.499456   0.000000
     38          3.516619   0.000000

  0.1000000E+00  0.1000000E+00  0.1262379E-14  0.2000000E-01
      1        -17.275059   1.000000
      2        -17.123655   1.000000
      3        -17.034181   1.000000
      4        -16.918307   1.000000
      5        -16.895320   1.000000
      6        -16.267748   1.000000
      7        -16.126194   1.000000
      8        -16.058720   1.000000
      9        -16.001475   1.000000
     10        -15.978208   1.000000
     11        -15.545766   1.000000
     12        -14.835399   1.000000
     13        -13.791645   1.000000
     14        -12.909484   1.000000
     15         -7.996421   1.000000
     16         -7.226496   1.000000
     17         -7.154848   1.000000
     18         -6.745289   1.000000
     19         -6.707500   1.000000
     20         -6.683433   1.000000
     21         -6.020921   1.000000
     22         -5.216929   1.000000
     23         -4.542768   1.000000
     24         -4.279632   1.000000
     25         -4.188153   1.000000
     26         -3.885827   1.000000
     27         -3.144303   1.000000
     28         -3.053526   1.000000
     29         -2.366306   1.000000
     30         -1.816366   1.000000
     31         -1.512778   1.000000
     32         -0.466034   0.000000
     33          0.793355   0.000000
     34          1.812729   0.000000
     35          2.498577   0.000000
     36          2.574250   0.000000
     37          2.940847   0.000000
     38          3.166627   0.000000

 -0.1000000E+00  0.2000000E+00  0.1262379E-14  0.2000000E-01
      1        -17.275058   1.000000
      2        -17.123655   1.000000
      3        -17.034181   1.000000
      4        -16.918308   1.000000
      5        -16.895320   1.000000
      6        -16.267748   1.000000
      7        -16.126194   1.000000
      8        -16.058720   1.000000
      9        -16.001476   1.000000
     10        -15.978208   1.000000
     11        -15.545766   1.000000
     12        -14.835399   1.000000
     13        -13.791645   1.000000
     14        -12.909484   1.000000
     15         -7.996421   1.000000
     16         -7.226497   1.000000
     17         -7.154847   1.000000
     18         -6.745289   1.000000
     19         -6.707499   1.000000
     20         -6.683434   1.000000
     21         -6.020921   1.000000
     22         -5.216928   1.000000
     23         -4.542768   1.000000
     24         -4.279631   1.000000
     25         -4.188152   1.000000
     26         -3.885828   1.000000
     27         -3.144304   1.000000
     28         -3.053525   1.000000
     29         -2.366299   1.000000
     30         -1.816365   1.000000
     31         -1.512785   1.000000
     32         -0.466035   0.000000
     33          0.793354   0.000000
     34          1.812729   0.000000
     35          2.498578   0.000000
     36          2.574250   0.000000
     37          2.940847   0.000000
     38          3.166627   0.000000

 -0.2000000E+00  0.1000000E+00  0.1262379E-14  0.2000000E-01
      1        -17.275058   1.000000
      2        -17.123655   1.000000
      3        -17.034181   1.000000
      4        -16.918308   1.000000
      5        -16.895320   1.000000
      6        -16.267748   1.000000
      7        -16.126194   1.000000
      8        -16.058720   1.000000
      9        -16.001476   1.000000
     10        -15.978208   1.000000
     11        -15.545766   1.000000
     12        -14.835399   1.000000
     13        -13.791645   1.000000
     14        -12.909484   1.000000
     15         -7.996421   1.000000
     16         -7.226497   1.000000
     17         -7.154847   1.000000
     18         -6.745289   1.000000
     19         -6.707499   1.000000
     20         -6.683434   1.000000
     21         -6.020921   1.000000
     22         -5.216928   1.000000
     23         -4.542768   1.000000
     24         -4.279631   1.000000
     25         -4.188152   1.000000
     26         -3.885828   1.000000
     27         -3.144305   1.000000
     28         -3.053525   1.000000
     29         -2.366299   1.000000
     30         -1.816365   1.000000
     31         -1.512785   1.000000
     32         -0.466035   0.000000
     33          0.793354   0.000000
     34          1.812729   0.000000
     35          2.498579   0.000000
     36          2.574250   0.000000
     37          2.940842   0.000000
     38          3.166622   0.000000

  0.2000000E+00  0.1000000E+00  0.1262379E-14  0.2000000E-01
      1        -17.333528   1.000000
      2        -17.140288   1.000000
      3        -17.013375   1.000000
      4        -16.930745   1.000000
      5        -16.892376   1.000000
      6        -16.368174   1.000000
      7        -16.124333   1.000000
      8        -16.029688   1.000000
      9        -16.005310   1.000000
     10        -15.964133   1.000000
     11        -15.179625   1.000000
     12        -14.577152   1.000000
     13        -13.546983   1.000000
     14        -12.728659   1.000000
     15         -7.999542   1.000000
     16         -7.196110   1.000000
     17         -7.067159   1.000000
     18         -6.846096   1.000000
     19         -6.753553   1.000000
     20         -6.687265   1.000000
     21         -6.475633   1.000000
     22         -5.750950   1.000000
     23         -5.043984   1.000000
     24         -4.908012   1.000000
     25         -4.509368   1.000000
     26         -4.141197   1.000000
     27         -3.619213   1.000000
     28         -3.175599   1.000000
     29         -3.030197   1.000000
     30         -2.024059   1.000000
     31         -1.621342   1.000000
     32         -0.101614   0.000000
     33          0.616800   0.000000
     34          1.496458   0.000000
     35          2.623226   0.000000
     36          2.985312   0.000000
     37          3.469624   0.000000
     38          3.674381   0.000000

 -0.1000000E+00  0.3000000E+00  0.1262379E-14  0.2000000E-01
      1        -17.333528   1.000000
      2        -17.140288   1.000000
      3        -17.013375   1.000000
      4        -16.930745   1.000000
      5        -16.892376   1.000000
      6        -16.368173   1.000000
      7        -16.124333   1.000000
      8        -16.029689   1.000000
      9        -16.005310   1.000000
     10        -15.964134   1.000000
     11        -15.179625   1.000000
     12        -14.577152   1.000000
     13        -13.546984   1.000000
     14        -12.728660   1.000000
     15         -7.999542   1.000000
     16         -7.196112   1.000000
     17         -7.067158   1.000000
     18         -6.846096   1.000000
     19         -6.753552   1.000000
     20         -6.687266   1.000000
     21         -6.475633   1.000000
     22         -5.750949   1.000000
     23         -5.043984   1.000000
     24         -4.908012   1.000000
     25         -4.509368   1.000000
     26         -4.141197   1.000000
     27         -3.619214   1.000000
     28         -3.175595   1.000000
     29         -3.030198   1.000000
     30         -2.024062   1.000000
     31         -1.621344   1.000000
     32         -0.101614   0.000000
     33          0.616800   0.000000
     34          1.496458   0.000000
     35          2.623226   0.000000
     36          2.985313   0.000000
     37          3.469625   0.000000
     38          3.674359   0.000000

 -0.3000000E+00  0.2000000E+00  0.1262379E-14  0.2000000E-01
      1        -17.333528   1.000000
      2        -17.140288   1.000000
      3        -17.013375   1.000000
      4        -16.930745   1.000000
      5        -16.892376   1.000000
      6        -16.368173   1.000000
      7        -16.124333   1.000000
      8        -16.029688   1.000000
      9        -16.005310   1.000000
     10        -15.964133   1.000000
     11        -15.179625   1.000000
     12        -14.577152   1.000000
     13        -13.546984   1.000000
     14        -12.728660   1.000000
     15         -7.999542   1.000000
     16         -7.196111   1.000000
     17         -7.067158   1.000000
     18         -6.846096   1.000000
     19         -6.753551   1.000000
     20         -6.687266   1.000000
     21         -6.475633   1.000000
     22         -5.750948   1.000000
     23         -5.043984   1.000000
     24         -4.908012   1.000000
     25         -4.509368   1.000000
     26         -4.141196   1.000000
     27         -3.619214   1.000000
     28         -3.175594   1.000000
     29         -3.030195   1.000000
     30         -2.024064   1.000000
     31         -1.621345   1.000000
     32         -0.101614   0.000000
     33          0.616800   0.000000
     34          1.496457   0.000000
     35          2.623226   0.000000
     36          2.985312   0.000000
     37          3.469624   0.000000
     38          3.674401   0.000000

 -0.2000000E+00  0.3000000E+00  0.1262379E-14  0.2000000E-01
      1        -17.333528   1.000000
      2        -17.140288   1.000000
      3        -17.013375   1.000000
      4        -16.930745   1.000000
      5        -16.892376   1.000000
      6        -16.368173   1.000000
      7        -16.124333   1.000000
      8        -16.029688   1.000000
      9        -16.005310   1.000000
     10        -15.964134   1.000000
     11        -15.179625   1.000000
     12        -14.577152   1.000000
     13        -13.546984   1.000000
     14        -12.728660   1.000000
     15         -7.999542   1.000000
     16         -7.196111   1.000000
     17         -7.067158   1.000000
     18         -6.846096   1.000000
     19         -6.753551   1.000000
     20         -6.687266   1.000000
     21         -6.475633   1.000000
     22         -5.750949   1.000000
     23         -5.043984   1.000000
     24         -4.908012   1.000000
     25         -4.509368   1.000000
     26         -4.141196   1.000000
     27         -3.619214   1.000000
     28         -3.175594   1.000000
     29         -3.030195   1.000000
     30         -2.024063   1.000000
     31         -1.621345   1.000000
     32         -0.101614   0.000000
     33          0.616800   0.000000
     34          1.496457   0.000000
     35          2.623226   0.000000
     36          2.985312   0.000000
     37          3.469623   0.000000
     38          3.674412   0.000000

  0.1000000E+00  0.2000000E+00  0.1262379E-14  0.2000000E-01
      1        -17.333528   1.000000
      2        -17.140288   1.000000
      3        -17.013375   1.000000
      4        -16.930745   1.000000
      5        -16.892376   1.000000
      6        -16.368174   1.000000
      7        -16.124333   1.000000
      8        -16.029688   1.000000
      9        -16.005310   1.000000
     10        -15.964133   1.000000
     11        -15.179625   1.000000
     12        -14.577152   1.000000
     13        -13.546983   1.000000
     14        -12.728659   1.000000
     15         -7.999542   1.000000
     16         -7.196110   1.000000
     17         -7.067159   1.000000
     18         -6.846096   1.000000
     19         -6.753553   1.000000
     20         -6.687265   1.000000
     21         -6.475633   1.000000
     22         -5.750950   1.000000
     23         -5.043984   1.000000
     24         -4.908011   1.000000
     25         -4.509368   1.000000
     26         -4.141197   1.000000
     27         -3.619213   1.000000
     28         -3.175599   1.000000
     29         -3.030197   1.000000
     30         -2.024059   1.000000
     31         -1.621342   1.000000
     32         -0.101613   0.000000
     33          0.616800   0.000000
     34          1.496458   0.000000
     35          2.623226   0.000000
     36          2.985312   0.000000
     37          3.469623   0.000000
     38          3.674413   0.000000

  0.3000000E+00 -0.1000000E+00  0.1262379E-14  0.2000000E-01
      1        -17.333528   1.000000
      2        -17.140288   1.000000
      3        -17.013375   1.000000
      4        -16.930745   1.000000
      5        -16.892376   1.000000
      6        -16.368173   1.000000
      7        -16.124333   1.000000
      8        -16.029689   1.000000
      9        -16.005310   1.000000
     10        -15.964134   1.000000
     11        -15.179625   1.000000
     12        -14.577152   1.000000
     13        -13.546984   1.000000
     14        -12.728660   1.000000
     15         -7.999542   1.000000
     16         -7.196112   1.000000
     17         -7.067158   1.000000
     18         -6.846096   1.000000
     19         -6.753552   1.000000
     20         -6.687266   1.000000
     21         -6.475633   1.000000
     22         -5.750949   1.000000
     23         -5.043983   1.000000
     24         -4.908012   1.000000
     25         -4.509367   1.000000
     26         -4.141197   1.000000
     27         -3.619214   1.000000
     28         -3.175595   1.000000
     29         -3.030198   1.000000
     30         -2.024062   1.000000
     31         -1.621344   1.000000
     32         -0.101614   0.000000
     33          0.616800   0.000000
     34          1.496458   0.000000
     35          2.623226   0.000000
     36          2.985313   0.000000
     37          3.469624   0.000000
     38          3.674401   0.000000

  0.3000000E+00  0.1000000E+00  0.1262379E-14  0.2000000E-01
      1        -17.397637   1.000000
      2        -17.137551   1.000000
      3        -16.997532   1.000000
      4        -16.940333   1.000000
      5        -16.884668   1.000000
      6        -16.457674   1.000000
      7        -16.120531   1.000000
      8        -16.033530   1.000000
      9        -15.983907   1.000000
     10        -15.946712   1.000000
     11        -14.766134   1.000000
     12        -14.275805   1.000000
     13        -13.321708   1.000000
     14        -12.536786   1.000000
     15         -8.256330   1.000000
     16         -7.351360   1.000000
     17         -7.116144   1.000000
     18         -6.973370   1.000000
     19         -6.794873   1.000000
     20         -6.690602   1.000000
     21         -6.601673   1.000000
     22         -6.016530   1.000000
     23         -5.564492   1.000000
     24         -5.212277   1.000000
     25         -4.805756   1.000000
     26         -4.655078   1.000000
     27         -4.078383   1.000000
     28         -3.442677   1.000000
     29         -3.083488   1.000000
     30         -2.445271   1.000000
     31         -1.475793   1.000000
     32         -0.125600   0.000000
     33          0.284776   0.000000
     34          1.153391   0.000000
     35          2.912863   0.000000
     36          3.032723   0.000000
     37          3.613067   0.000000
     38          3.897897   0.000000

 -0.1000000E+00  0.4000000E+00  0.1262379E-14  0.2000000E-01
      1        -17.397637   1.000000
      2        -17.137551   1.000000
      3        -16.997532   1.000000
      4        -16.940333   1.000000
      5        -16.884668   1.000000
      6        -16.457674   1.000000
      7        -16.120531   1.000000
      8        -16.033530   1.000000
      9        -15.983907   1.000000
     10        -15.946713   1.000000
     11        -14.766134   1.000000
     12        -14.275805   1.000000
     13        -13.321708   1.000000
     14        -12.536787   1.000000
     15         -8.256330   1.000000
     16         -7.351360   1.000000
     17         -7.116146   1.000000
     18         -6.973367   1.000000
     19         -6.794873   1.000000
     20         -6.690602   1.000000
     21         -6.601674   1.000000
     22         -6.016530   1.000000
     23         -5.564491   1.000000
     24         -5.212277   1.000000
     25         -4.805756   1.000000
     26         -4.655075   1.000000
     27         -4.078384   1.000000
     28         -3.442676   1.000000
     29         -3.083489   1.000000
     30         -2.445272   1.000000
     31         -1.475795   1.000000
     32         -0.125600   0.000000
     33          0.284776   0.000000
     34          1.153391   0.000000
     35          2.912865   0.000000
     36          3.032722   0.000000
     37          3.613068   0.000000
     38          3.897898   0.000000

 -0.4000000E+00  0.3000000E+00  0.1262379E-14  0.2000000E-01
      1        -17.397637   1.000000
      2        -17.137551   1.000000
      3        -16.997532   1.000000
      4        -16.940333   1.000000
      5        -16.884668   1.000000
      6        -16.457674   1.000000
      7        -16.120531   1.000000
      8        -16.033530   1.000000
      9        -15.983908   1.000000
     10        -15.946712   1.000000
     11        -14.766134   1.000000
     12        -14.275804   1.000000
     13        -13.321709   1.000000
     14        -12.536788   1.000000
     15         -8.256330   1.000000
     16         -7.351358   1.000000
     17         -7.116145   1.000000
     18         -6.973369   1.000000
     19         -6.794871   1.000000
     20         -6.690602   1.000000
     21         -6.601675   1.000000
     22         -6.016530   1.000000
     23         -5.564492   1.000000
     24         -5.212278   1.000000
     25         -4.805753   1.000000
     26         -4.655076   1.000000
     27         -4.078384   1.000000
     28         -3.442673   1.000000
     29         -3.083488   1.000000
     30         -2.445274   1.000000
     31         -1.475798   1.000000
     32         -0.125600   0.000000
     33          0.284776   0.000000
     34          1.153389   0.000000
     35          2.912862   0.000000
     36          3.032721   0.000000
     37          3.613064   0.000000
     38          3.897896   0.000000

 -0.3000000E+00  0.4000000E+00  0.1262379E-14  0.2000000E-01
      1        -17.397637   1.000000
      2        -17.137551   1.000000
      3        -16.997532   1.000000
      4        -16.940333   1.000000
      5        -16.884667   1.000000
      6        -16.457674   1.000000
      7        -16.120531   1.000000
      8        -16.033530   1.000000
      9        -15.983908   1.000000
     10        -15.946712   1.000000
     11        -14.766134   1.000000
     12        -14.275804   1.000000
     13        -13.321709   1.000000
     14        -12.536788   1.000000
     15         -8.256330   1.000000
     16         -7.351358   1.000000
     17         -7.116145   1.000000
     18         -6.973369   1.000000
     19         -6.794871   1.000000
     20         -6.690602   1.000000
     21         -6.601675   1.000000
     22         -6.016530   1.000000
     23         -5.564492   1.000000
     24         -5.212278   1.000000
     25         -4.805753   1.000000
     26         -4.655077   1.000000
     27         -4.078384   1.000000
     28         -3.442673   1.000000
     29         -3.083488   1.000000
     30         -2.445273   1.000000
     31         -1.475798   1.000000
     32         -0.125600   0.000000
     33          0.284776   0.000000
     34          1.153389   0.000000
     35          2.912863   0.000000
     36          3.032721   0.000000
     37          3.613064   0.000000
     38          3.897896   0.000000

  0.1000000E+00  0.3000000E+00  0.1262379E-14  0.2000000E-01
      1        -17.397637   1.000000
      2        -17.137551   1.000000
      3        -16.997532   1.000000
      4        -16.940333   1.000000
      5        -16.884668   1.000000
      6        -16.457674   1.000000
      7        -16.120531   1.000000
      8        -16.033530   1.000000
      9        -15.983907   1.000000
     10        -15.946712   1.000000
     11        -14.766134   1.000000
     12        -14.275805   1.000000
     13        -13.321707   1.000000
     14        -12.536786   1.000000
     15         -8.256330   1.000000
     16         -7.351360   1.000000
     17         -7.116144   1.000000
     18         -6.973370   1.000000
     19         -6.794873   1.000000
     20         -6.690602   1.000000
     21         -6.601673   1.000000
     22         -6.016530   1.000000
     23         -5.564491   1.000000
     24         -5.212277   1.000000
     25         -4.805756   1.000000
     26         -4.655078   1.000000
     27         -4.078383   1.000000
     28         -3.442677   1.000000
     29         -3.083488   1.000000
     30         -2.445271   1.000000
     31         -1.475793   1.000000
     32         -0.125600   0.000000
     33          0.284776   0.000000
     34          1.153391   0.000000
     35          2.912863   0.000000
     36          3.032723   0.000000
     37          3.613067   0.000000
     38          3.897898   0.000000

  0.4000000E+00 -0.1000000E+00  0.1262379E-14  0.2000000E-01
      1        -17.397637   1.000000
      2        -17.137551   1.000000
      3        -16.997532   1.000000
      4        -16.940333   1.000000
      5        -16.884668   1.000000
      6        -16.457674   1.000000
      7        -16.120531   1.000000
      8        -16.033530   1.000000
      9        -15.983907   1.000000
     10        -15.946713   1.000000
     11        -14.766134   1.000000
     12        -14.275805   1.000000
     13        -13.321708   1.000000
     14        -12.536787   1.000000
     15         -8.256330   1.000000
     16         -7.351359   1.000000
     17         -7.116146   1.000000
     18         -6.973367   1.000000
     19         -6.794873   1.000000
     20         -6.690602   1.000000
     21         -6.601674   1.000000
     22         -6.016530   1.000000
     23         -5.564491   1.000000
     24         -5.212277   1.000000
     25         -4.805756   1.000000
     26         -4.655075   1.000000
     27         -4.078384   1.000000
     28         -3.442676   1.000000
     29         -3.083489   1.000000
     30         -2.445272   1.000000
     31         -1.475795   1.000000
     32         -0.125600   0.000000
     33          0.284776   0.000000
     34          1.153391   0.000000
     35          2.912865   0.000000
     36          3.032722   0.000000
     37          3.613068   0.000000
     38          3.897897   0.000000

  0.4000000E+00  0.1000000E+00  0.1262379E-14  0.2000000E-01
      1        -17.435527   1.000000
      2        -17.133257   1.000000
      3        -16.990622   1.000000
      4        -16.945586   1.000000
      5        -16.876909   1.000000
      6        -16.508216   1.000000
      7        -16.119192   1.000000
      8        -16.040071   1.000000
      9        -15.963339   1.000000
     10        -15.938869   1.000000
     11        -14.458563   1.000000
     12        -14.071667   1.000000
     13        -13.197819   1.000000
     14        -12.412344   1.000000
     15         -8.576361   1.000000
     16         -7.741304   1.000000
     17         -7.035681   1.000000
     18         -6.918695   1.000000
     19         -6.815700   1.000000
     20         -6.691167   1.000000
     21         -6.509470   1.000000
     22         -6.154838   1.000000
     23         -5.763239   1.000000
     24         -5.377915   1.000000
     25         -5.305186   1.000000
     26         -4.718372   1.000000
     27         -4.420463   1.000000
     28         -3.528570   1.000000
     29         -3.071229   1.000000
     30         -2.676125   1.000000
     31         -1.394459   1.000000
     32         -0.240554   0.000000
     33          0.060198   0.000000
     34          0.971977   0.000000
     35          2.863395   0.000000
     36          3.145820   0.000000
     37          3.440894   0.000000
     38          3.749766   0.000000

 -0.1000000E+00  0.5000000E+00  0.1262379E-14  0.2000000E-01
      1        -17.435527   1.000000
      2        -17.133257   1.000000
      3        -16.990622   1.000000
      4        -16.945586   1.000000
      5        -16.876909   1.000000
      6        -16.508216   1.000000
      7        -16.119192   1.000000
      8        -16.040071   1.000000
      9        -15.963339   1.000000
     10        -15.938870   1.000000
     11        -14.458563   1.000000
     12        -14.071667   1.000000
     13        -13.197819   1.000000
     14        -12.412344   1.000000
     15         -8.576361   1.000000
     16         -7.741304   1.000000
     17         -7.035683   1.000000
     18         -6.918694   1.000000
     19         -6.815700   1.000000
     20         -6.691167   1.000000
     21         -6.509470   1.000000
     22         -6.154838   1.000000
     23         -5.763239   1.000000
     24         -5.377915   1.000000
     25         -5.305186   1.000000
     26         -4.718371   1.000000
     27         -4.420463   1.000000
     28         -3.528569   1.000000
     29         -3.071230   1.000000
     30         -2.676125   1.000000
     31         -1.394460   1.000000
     32         -0.240554   0.000000
     33          0.060198   0.000000
     34          0.971977   0.000000
     35          2.863396   0.000000
     36          3.145821   0.000000
     37          3.440893   0.000000
     38          3.749766   0.000000

  0.5000000E+00  0.4000000E+00  0.1262379E-14  0.2000000E-01
      1        -17.435527   1.000000
      2        -17.133257   1.000000
      3        -16.990622   1.000000
      4        -16.945586   1.000000
      5        -16.876909   1.000000
      6        -16.508216   1.000000
      7        -16.119192   1.000000
      8        -16.040071   1.000000
      9        -15.963339   1.000000
     10        -15.938869   1.000000
     11        -14.458563   1.000000
     12        -14.071666   1.000000
     13        -13.197820   1.000000
     14        -12.412346   1.000000
     15         -8.576361   1.000000
     16         -7.741302   1.000000
     17         -7.035681   1.000000
     18         -6.918695   1.000000
     19         -6.815697   1.000000
     20         -6.691167   1.000000
     21         -6.509472   1.000000
     22         -6.154840   1.000000
     23         -5.763238   1.000000
     24         -5.377916   1.000000
     25         -5.305182   1.000000
     26         -4.718371   1.000000
     27         -4.420464   1.000000
     28         -3.528566   1.000000
     29         -3.071228   1.000000
     30         -2.676126   1.000000
     31         -1.394466   1.000000
     32         -0.240552   0.000000
     33          0.060198   0.000000
     34          0.971976   0.000000
     35          2.863393   0.000000
     36          3.145819   0.000000
     37          3.440893   0.000000
     38          3.749762   0.000000

 -0.4000000E+00  0.5000000E+00  0.1262379E-14  0.2000000E-01
      1        -17.435527   1.000000
      2        -17.133257   1.000000
      3        -16.990622   1.000000
      4        -16.945586   1.000000
      5        -16.876909   1.000000
      6        -16.508216   1.000000
      7        -16.119192   1.000000
      8        -16.040071   1.000000
      9        -15.963339   1.000000
     10        -15.938869   1.000000
     11        -14.458563   1.000000
     12        -14.071666   1.000000
     13        -13.197820   1.000000
     14        -12.412346   1.000000
     15         -8.576361   1.000000
     16         -7.741302   1.000000
     17         -7.035681   1.000000
     18         -6.918695   1.000000
     19         -6.815697   1.000000
     20         -6.691167   1.000000
     21         -6.509472   1.000000
     22         -6.154840   1.000000
     23         -5.763238   1.000000
     24         -5.377916   1.000000
     25         -5.305182   1.000000
     26         -4.718371   1.000000
     27         -4.420463   1.000000
     28         -3.528566   1.000000
     29         -3.071228   1.000000
     30         -2.676126   1.000000
     31         -1.394466   1.000000
     32         -0.240552   0.000000
     33          0.060198   0.000000
     34          0.971976   0.000000
     35          2.863393   0.000000
     36          3.145819   0.000000
     37          3.440893   0.000000
     38          3.749762   0.000000

  0.1000000E+00  0.4000000E+00  0.1262379E-14  0.2000000E-01
      1        -17.435527   1.000000
      2        -17.133257   1.000000
      3        -16.990622   1.000000
      4        -16.945586   1.000000
      5        -16.876909   1.000000
      6        -16.508216   1.000000
      7        -16.119192   1.000000
      8        -16.040071   1.000000
      9        -15.963339   1.000000
     10        -15.938869   1.000000
     11        -14.458563   1.000000
     12        -14.071667   1.000000
     13        -13.197819   1.000000
     14        -12.412344   1.000000
     15         -8.576361   1.000000
     16         -7.741305   1.000000
     17         -7.035681   1.000000
     18         -6.918695   1.000000
     19         -6.815700   1.000000
     20         -6.691167   1.000000
     21         -6.509470   1.000000
     22         -6.154838   1.000000
     23         -5.763239   1.000000
     24         -5.377915   1.000000
     25         -5.305186   1.000000
     26         -4.718372   1.000000
     27         -4.420463   1.000000
     28         -3.528570   1.000000
     29         -3.071229   1.000000
     30         -2.676125   1.000000
     31         -1.394459   1.000000
     32         -0.240554   0.000000
     33          0.060198   0.000000
     34          0.971977   0.000000
     35          2.863395   0.000000
     36          3.145820   0.000000
     37          3.440894   0.000000
     38          3.749766   0.000000

  0.5000000E+00 -0.1000000E+00  0.1262379E-14  0.2000000E-01
      1        -17.435527   1.000000
      2        -17.133257   1.000000
      3        -16.990622   1.000000
      4        -16.945586   1.000000
      5        -16.876909   1.000000
      6        -16.508216   1.000000
      7        -16.119192   1.000000
      8        -16.040071   1.000000
      9        -15.963339   1.000000
     10        -15.938870   1.000000
     11        -14.458563   1.000000
     12        -14.071667   1.000000
     13        -13.197820   1.000000
     14        -12.412344   1.000000
     15         -8.576361   1.000000
     16         -7.741304   1.000000
     17         -7.035683   1.000000
     18         -6.918694   1.000000
     19         -6.815700   1.000000
     20         -6.691167   1.000000
     21         -6.509470   1.000000
     22         -6.154838   1.000000
     23         -5.763239   1.000000
     24         -5.377915   1.000000
     25         -5.305186   1.000000
     26         -4.718371   1.000000
     27         -4.420464   1.000000
     28         -3.528570   1.000000
     29         -3.071230   1.000000
     30         -2.676125   1.000000
     31         -1.394460   1.000000
     32         -0.240554   0.000000
     33          0.060198   0.000000
     34          0.971977   0.000000
     35          2.863396   0.000000
     36          3.145821   0.000000
     37          3.440893   0.000000
     38          3.749766   0.000000

  0.2000000E+00  0.2000000E+00  0.1262379E-14  0.2000000E-01
      1        -17.385656   1.000000
      2        -17.138887   1.000000
      3        -17.003400   1.000000
      4        -16.934530   1.000000
      5        -16.891358   1.000000
      6        -16.422923   1.000000
      7        -16.158475   1.000000
      8        -16.012505   1.000000
      9        -16.006290   1.000000
     10        -15.949002   1.000000
     11        -14.813765   1.000000
     12        -14.290057   1.000000
     13        -13.354796   1.000000
     14        -12.558745   1.000000
     15         -8.152866   1.000000
     16         -7.207339   1.000000
     17         -7.133021   1.000000
     18         -6.972767   1.000000
     19         -6.785862   1.000000
     20         -6.694779   1.000000
     21         -6.579513   1.000000
     22         -5.989523   1.000000
     23         -5.542564   1.000000
     24         -5.328907   1.000000
     25         -4.919797   1.000000
     26         -4.560271   1.000000
     27         -3.785578   1.000000
     28         -3.622903   1.000000
     29         -3.186415   1.000000
     30         -2.683720   1.000000
     31         -1.470946   1.000000
     32          0.156412   0.000000
     33          0.539777   0.000000
     34          1.702379   0.000000
     35          2.329116   0.000000
     36          3.503571   0.000000
     37          3.731577   0.000000
     38          4.090886   0.000000

 -0.2000000E+00  0.4000000E+00  0.1262379E-14  0.2000000E-01
      1        -17.385656   1.000000
      2        -17.138887   1.000000
      3        -17.003401   1.000000
      4        -16.934530   1.000000
      5        -16.891358   1.000000
      6        -16.422922   1.000000
      7        -16.158475   1.000000
      8        -16.012506   1.000000
      9        -16.006289   1.000000
     10        -15.949002   1.000000
     11        -14.813765   1.000000
     12        -14.290056   1.000000
     13        -13.354797   1.000000
     14        -12.558746   1.000000
     15         -8.152865   1.000000
     16         -7.207337   1.000000
     17         -7.133024   1.000000
     18         -6.972764   1.000000
     19         -6.785860   1.000000
     20         -6.694779   1.000000
     21         -6.579515   1.000000
     22         -5.989522   1.000000
     23         -5.542564   1.000000
     24         -5.328908   1.000000
     25         -4.919798   1.000000
     26         -4.560267   1.000000
     27         -3.785575   1.000000
     28         -3.622906   1.000000
     29         -3.186411   1.000000
     30         -2.683725   1.000000
     31         -1.470950   1.000000
     32          0.156411   0.000000
     33          0.539778   0.000000
     34          1.702379   0.000000
     35          2.329116   0.000000
     36          3.503568   0.000000
     37          3.731580   0.000000
     38          4.090888   0.000000

 -0.4000000E+00  0.2000000E+00  0.1262379E-14  0.2000000E-01
      1        -17.385656   1.000000
      2        -17.138887   1.000000
      3        -17.003401   1.000000
      4        -16.934530   1.000000
      5        -16.891358   1.000000
      6        -16.422922   1.000000
      7        -16.158475   1.000000
      8        -16.012506   1.000000
      9        -16.006290   1.000000
     10        -15.949002   1.000000
     11        -14.813765   1.000000
     12        -14.290056   1.000000
     13        -13.354797   1.000000
     14        -12.558746   1.000000
     15         -8.152865   1.000000
     16         -7.207337   1.000000
     17         -7.133024   1.000000
     18         -6.972764   1.000000
     19         -6.785860   1.000000
     20         -6.694779   1.000000
     21         -6.579515   1.000000
     22         -5.989522   1.000000
     23         -5.542564   1.000000
     24         -5.328908   1.000000
     25         -4.919798   1.000000
     26         -4.560267   1.000000
     27         -3.785576   1.000000
     28         -3.622906   1.000000
     29         -3.186411   1.000000
     30         -2.683725   1.000000
     31         -1.470950   1.000000
     32          0.156411   0.000000
     33          0.539778   0.000000
     34          1.702379   0.000000
     35          2.329116   0.000000
     36          3.503568   0.000000
     37          3.731581   0.000000
     38          4.090887   0.000000

  0.3000000E+00  0.2000000E+00  0.1262379E-14  0.2000000E-01
      1        -17.425190   1.000000
      2        -17.133428   1.000000
      3        -16.999523   1.000000
      4        -16.934808   1.000000
      5        -16.889876   1.000000
      6        -16.461849   1.000000
      7        -16.184544   1.000000
      8        -16.017297   1.000000
      9        -15.983853   1.000000
     10        -15.946429   1.000000
     11        -14.468824   1.000000
     12        -14.015989   1.000000
     13        -13.228504   1.000000
     14        -12.415370   1.000000
     15         -8.407073   1.000000
     16         -7.595561   1.000000
     17         -7.058229   1.000000
     18         -6.906289   1.000000
     19         -6.802826   1.000000
     20         -6.706734   1.000000
     21         -6.507314   1.000000
     22         -6.119586   1.000000
     23         -5.997703   1.000000
     24         -5.578639   1.000000
     25         -5.115508   1.000000
     26         -4.909219   1.000000
     27         -4.253586   1.000000
     28         -3.860662   1.000000
     29         -3.216574   1.000000
     30         -3.063707   1.000000
     31         -1.370115   1.000000
     32          0.210679   0.000000
     33          0.328043   0.000000
     34          1.622638   0.000000
     35          2.516855   0.000000
     36          3.528260   0.000000
     37          3.827333   0.000000
     38          4.415450   0.000000

 -0.2000000E+00  0.5000000E+00  0.1262379E-14  0.2000000E-01
      1        -17.425190   1.000000
      2        -17.133428   1.000000
      3        -16.999523   1.000000
      4        -16.934808   1.000000
      5        -16.889876   1.000000
      6        -16.461849   1.000000
      7        -16.184545   1.000000
      8        -16.017297   1.000000
      9        -15.983852   1.000000
     10        -15.946430   1.000000
     11        -14.468824   1.000000
     12        -14.015989   1.000000
     13        -13.228504   1.000000
     14        -12.415370   1.000000
     15         -8.407072   1.000000
     16         -7.595560   1.000000
     17         -7.058231   1.000000
     18         -6.906287   1.000000
     19         -6.802825   1.000000
     20         -6.706733   1.000000
     21         -6.507315   1.000000
     22         -6.119585   1.000000
     23         -5.997703   1.000000
     24         -5.578639   1.000000
     25         -5.115507   1.000000
     26         -4.909217   1.000000
     27         -4.253586   1.000000
     28         -3.860663   1.000000
     29         -3.216574   1.000000
     30         -3.063708   1.000000
     31         -1.370117   1.000000
     32          0.210680   0.000000
     33          0.328043   0.000000
     34          1.622638   0.000000
     35          2.516856   0.000000
     36          3.528257   0.000000
     37          3.827338   0.000000
     38          4.415449   0.000000

  0.5000000E+00  0.3000000E+00  0.1262379E-14  0.2000000E-01
      1        -17.425190   1.000000
      2        -17.133428   1.000000
      3        -16.999523   1.000000
      4        -16.934808   1.000000
      5        -16.889876   1.000000
      6        -16.461849   1.000000
      7        -16.184545   1.000000
      8        -16.017297   1.000000
      9        -15.983853   1.000000
     10        -15.946430   1.000000
     11        -14.468824   1.000000
     12        -14.015988   1.000000
     13        -13.228505   1.000000
     14        -12.415371   1.000000
     15         -8.407072   1.000000
     16         -7.595559   1.000000
     17         -7.058231   1.000000
     18         -6.906287   1.000000
     19         -6.802824   1.000000
     20         -6.706733   1.000000
     21         -6.507316   1.000000
     22         -6.119586   1.000000
     23         -5.997703   1.000000
     24         -5.578641   1.000000
     25         -5.115503   1.000000
     26         -4.909218   1.000000
     27         -4.253586   1.000000
     28         -3.860662   1.000000
     29         -3.216570   1.000000
     30         -3.063712   1.000000
     31         -1.370120   1.000000
     32          0.210681   0.000000
     33          0.328043   0.000000
     34          1.622637   0.000000
     35          2.516855   0.000000
     36          3.528259   0.000000
     37          3.827336   0.000000
     38          4.415446   0.000000

 -0.3000000E+00  0.5000000E+00  0.1262379E-14  0.2000000E-01
      1        -17.425190   1.000000
      2        -17.133428   1.000000
      3        -16.999523   1.000000
      4        -16.934808   1.000000
      5        -16.889876   1.000000
      6        -16.461849   1.000000
      7        -16.184545   1.000000
      8        -16.017297   1.000000
      9        -15.983853   1.000000
     10        -15.946430   1.000000
     11        -14.468824   1.000000
     12        -14.015988   1.000000
     13        -13.228505   1.000000
     14        -12.415371   1.000000
     15         -8.407072   1.000000
     16         -7.595559   1.000000
     17         -7.058231   1.000000
     18         -6.906287   1.000000
     19         -6.802824   1.000000
     20         -6.706733   1.000000
     21         -6.507316   1.000000
     22         -6.119586   1.000000
     23         -5.997703   1.000000
     24         -5.578641   1.000000
     25         -5.115503   1.000000
     26         -4.909218   1.000000
     27         -4.253586   1.000000
     28         -3.860662   1.000000
     29         -3.216570   1.000000
     30         -3.063712   1.000000
     31         -1.370120   1.000000
     32          0.210681   0.000000
     33          0.328043   0.000000
     34          1.622638   0.000000
     35          2.516855   0.000000
     36          3.528259   0.000000
     37          3.827336   0.000000
     38          4.415443   0.000000

  0.2000000E+00  0.3000000E+00  0.1262379E-14  0.2000000E-01
      1        -17.425190   1.000000
      2        -17.133428   1.000000
      3        -16.999523   1.000000
      4        -16.934808   1.000000
      5        -16.889876   1.000000
      6        -16.461849   1.000000
      7        -16.184544   1.000000
      8        -16.017297   1.000000
      9        -15.983853   1.000000
     10        -15.946429   1.000000
     11        -14.468824   1.000000
     12        -14.015989   1.000000
     13        -13.228504   1.000000
     14        -12.415370   1.000000
     15         -8.407073   1.000000
     16         -7.595561   1.000000
     17         -7.058229   1.000000
     18         -6.906289   1.000000
     19         -6.802826   1.000000
     20         -6.706734   1.000000
     21         -6.507314   1.000000
     22         -6.119586   1.000000
     23         -5.997703   1.000000
     24         -5.578639   1.000000
     25         -5.115508   1.000000
     26         -4.909219   1.000000
     27         -4.253586   1.000000
     28         -3.860662   1.000000
     29         -3.216574   1.000000
     30         -3.063707   1.000000
     31         -1.370115   1.000000
     32          0.210680   0.000000
     33          0.328043   0.000000
     34          1.622638   0.000000
     35          2.516855   0.000000
     36          3.528260   0.000000
     37          3.827333   0.000000
     38          4.415451   0.000000

  0.5000000E+00 -0.2000000E+00  0.1262379E-14  0.2000000E-01
      1        -17.425190   1.000000
      2        -17.133428   1.000000
      3        -16.999523   1.000000
      4        -16.934808   1.000000
      5        -16.889876   1.000000
      6        -16.461849   1.000000
      7        -16.184545   1.000000
      8        -16.017297   1.000000
      9        -15.983852   1.000000
     10        -15.946430   1.000000
     11        -14.468824   1.000000
     12        -14.015988   1.000000
     13        -13.228505   1.000000
     14        -12.415370   1.000000
     15         -8.407072   1.000000
     16         -7.595560   1.000000
     17         -7.058231   1.000000
     18         -6.906287   1.000000
     19         -6.802825   1.000000
     20         -6.706733   1.000000
     21         -6.507315   1.000000
     22         -6.119585   1.000000
     23         -5.997703   1.000000
     24         -5.578639   1.000000
     25         -5.115507   1.000000
     26         -4.909216   1.000000
     27         -4.253586   1.000000
     28         -3.860663   1.000000
     29         -3.216574   1.000000
     30         -3.063708   1.000000
     31         -1.370117   1.000000
     32          0.210680   0.000000
     33          0.328043   0.000000
     34          1.622638   0.000000
     35          2.516856   0.000000
     36          3.528257   0.000000
     37          3.827338   0.000000
     38          4.415448   0.000000

  0.4000000E+00  0.2000000E+00  0.1262379E-14  0.2000000E-01
      1        -17.439619   1.000000
      2        -17.130790   1.000000
      3        -16.998877   1.000000
      4        -16.934386   1.000000
      5        -16.889072   1.000000
      6        -16.476164   1.000000
      7        -16.193893   1.000000
      8        -16.019786   1.000000
      9        -15.963813   1.000000
     10        -15.956692   1.000000
     11        -14.317250   1.000000
     12        -13.899577   1.000000
     13        -13.193062   1.000000
     14        -12.359192   1.000000
     15         -8.535001   1.000000
     16         -7.764665   1.000000
     17         -7.015495   1.000000
     18         -6.889587   1.000000
     19         -6.809157   1.000000
     20         -6.711170   1.000000
     21         -6.393745   1.000000
     22         -6.210288   1.000000
     23         -6.124142   1.000000
     24         -5.708749   1.000000
     25         -5.334236   1.000000
     26         -4.766706   1.000000
     27         -4.556542   1.000000
     28         -3.972792   1.000000
     29         -3.344840   1.000000
     30         -3.045725   1.000000
     31         -1.338808   1.000000
     32          0.169804   0.000000
     33          0.254834   0.000000
     34          1.553322   0.000000
     35          2.602656   0.000000
     36          3.511059   0.000000
     37          3.811576   0.000000
     38          4.410498   0.000000

 -0.2000000E+00 -0.4000000E+00  0.1262379E-14  0.2000000E-01
      1        -17.439619   1.000000
      2        -17.130790   1.000000
      3        -16.998877   1.000000
      4        -16.934386   1.000000
      5        -16.889072   1.000000
      6        -16.476164   1.000000
      7        -16.193893   1.000000
      8        -16.019786   1.000000
      9        -15.963813   1.000000
     10        -15.956692   1.000000
     11        -14.317250   1.000000
     12        -13.899577   1.000000
     13        -13.193062   1.000000
     14        -12.359192   1.000000
     15         -8.535001   1.000000
     16         -7.764665   1.000000
     17         -7.015495   1.000000
     18         -6.889587   1.000000
     19         -6.809157   1.000000
     20         -6.711170   1.000000
     21         -6.393745   1.000000
     22         -6.210288   1.000000
     23         -6.124143   1.000000
     24         -5.708749   1.000000
     25         -5.334236   1.000000
     26         -4.766706   1.000000
     27         -4.556542   1.000000
     28         -3.972792   1.000000
     29         -3.344840   1.000000
     30         -3.045725   1.000000
     31         -1.338808   1.000000
     32          0.169804   0.000000
     33          0.254834   0.000000
     34          1.553322   0.000000
     35          2.602656   0.000000
     36          3.511059   0.000000
     37          3.811576   0.000000
     38          4.410498   0.000000

  0.4000000E+00  0.4000000E+00  0.1262379E-14  0.2000000E-01
      1        -17.439619   1.000000
      2        -17.130790   1.000000
      3        -16.998877   1.000000
      4        -16.934386   1.000000
      5        -16.889072   1.000000
      6        -16.476164   1.000000
      7        -16.193893   1.000000
      8        -16.019786   1.000000
      9        -15.963813   1.000000
     10        -15.956692   1.000000
     11        -14.317250   1.000000
     12        -13.899577   1.000000
     13        -13.193063   1.000000
     14        -12.359193   1.000000
     15         -8.535000   1.000000
     16         -7.764663   1.000000
     17         -7.015496   1.000000
     18         -6.889586   1.000000
     19         -6.809155   1.000000
     20         -6.711170   1.000000
     21         -6.393746   1.000000
     22         -6.210288   1.000000
     23         -6.124144   1.000000
     24         -5.708751   1.000000
     25         -5.334230   1.000000
     26         -4.766705   1.000000
     27         -4.556544   1.000000
     28         -3.972791   1.000000
     29         -3.344839   1.000000
     30         -3.045726   1.000000
     31         -1.338813   1.000000
     32          0.169806   0.000000
     33          0.254833   0.000000
     34          1.553322   0.000000
     35          2.602654   0.000000
     36          3.511061   0.000000
     37          3.811576   0.000000
     38          4.410488   0.000000

  0.3000000E+00  0.3000000E+00  0.1262379E-14  0.2000000E-01
      1        -17.439403   1.000000
      2        -17.129690   1.000000
      3        -17.003492   1.000000
      4        -16.922690   1.000000
      5        -16.901537   1.000000
      6        -16.446267   1.000000
      7        -16.242367   1.000000
      8        -15.996823   1.000000
      9        -15.981872   1.000000
     10        -15.961645   1.000000
     11        -14.265358   1.000000
     12        -13.812069   1.000000
     13        -13.207100   1.000000
     14        -12.339337   1.000000
     15         -8.467036   1.000000
     16         -7.745988   1.000000
     17         -7.005146   1.000000
     18         -6.884823   1.000000
     19         -6.803561   1.000000
     20         -6.723225   1.000000
     21         -6.480056   1.000000
     22         -6.346624   1.000000
     23         -6.163816   1.000000
     24         -5.775965   1.000000
     25         -5.170789   1.000000
     26         -4.904622   1.000000
     27         -4.544639   1.000000
     28         -4.224946   1.000000
     29         -3.662301   1.000000
     30         -3.032457   1.000000
     31         -1.323688   1.000000
     32          0.267444   0.000000
     33          0.400539   0.000000
     34          1.797757   0.000000
     35          2.546146   0.000000
     36          3.755124   0.000000
     37          4.028629   0.000000
     38          4.649476   0.000000

 -0.3000000E+00 -0.4000000E+00  0.1262379E-14  0.2000000E-01
      1        -17.439403   1.000000
      2        -17.129690   1.000000
      3        -17.003492   1.000000
      4        -16.922690   1.000000
      5        -16.901537   1.000000
      6        -16.446267   1.000000
      7        -16.242367   1.000000
      8        -15.996823   1.000000
      9        -15.981871   1.000000
     10        -15.961645   1.000000
     11        -14.265358   1.000000
     12        -13.812068   1.000000
     13        -13.207100   1.000000
     14        -12.339338   1.000000
     15         -8.467036   1.000000
     16         -7.745987   1.000000
     17         -7.005148   1.000000
     18         -6.884822   1.000000
     19         -6.803561   1.000000
     20         -6.723225   1.000000
     21         -6.480056   1.000000
     22         -6.346625   1.000000
     23         -6.163816   1.000000
     24         -5.775965   1.000000
     25         -5.170785   1.000000
     26         -4.904621   1.000000
     27         -4.544640   1.000000
     28         -4.224947   1.000000
     29         -3.662301   1.000000
     30         -3.032457   1.000000
     31         -1.323690   1.000000
     32          0.267445   0.000000
     33          0.400539   0.000000
     34          1.797757   0.000000
     35          2.546146   0.000000
     36          3.755124   0.000000
     37          4.028629   0.000000
     38          4.649478   0.000000

  0.4000000E+00  0.3000000E+00  0.1262379E-14  0.2000000E-01
      1        -17.439403   1.000000
      2        -17.129690   1.000000
      3        -17.003492   1.000000
      4        -16.922690   1.000000
      5        -16.901537   1.000000
      6        -16.446267   1.000000
      7        -16.242367   1.000000
      8        -15.996823   1.000000
      9        -15.981871   1.000000
     10        -15.961645   1.000000
     11        -14.265358   1.000000
     12        -13.812068   1.000000
     13        -13.207100   1.000000
     14        -12.339338   1.000000
     15         -8.467036   1.000000
     16         -7.745987   1.000000
     17         -7.005148   1.000000
     18         -6.884822   1.000000
     19         -6.803561   1.000000
     20         -6.723225   1.000000
     21         -6.480056   1.000000
     22         -6.346625   1.000000
     23         -6.163816   1.000000
     24         -5.775965   1.000000
     25         -5.170785   1.000000
     26         -4.904621   1.000000
     27         -4.544640   1.000000
     28         -4.224947   1.000000
     29         -3.662302   1.000000
     30         -3.032457   1.000000
     31         -1.323690   1.000000
     32          0.267445   0.000000
     33          0.400539   0.000000
     34          1.797757   0.000000
     35          2.546146   0.000000
     36          3.755124   0.000000
     37          4.028629   0.000000
     38          4.649478   0.000000
