WP2-P02-beta001-A2-k10-500              
           1
     3.878284    0.000000    0.000000
    -1.939142    3.358693    0.000000
     0.000000    0.000000   29.419858
   S    In   Zn
     4     2     1
Direct configuration=           1
   0.00000093  0.99999907  0.33929043
   0.66666746  0.33333251  0.46030624
   0.00000061  0.99999949  0.55614416
   0.33333157  0.66666827  0.66070957
   0.66666755  0.33333246  0.37855143
   0.33333402  0.66666606  0.51480046
   0.99999780  0.00000209  0.64977565
