beta_100_t02                            
   1.0000000000000000     
     3.8782842923585310    0.0000000000000000    0.0000000000000000
     0.0000000000000000   12.1484331332749314    0.0000000000000000
     0.0000000000000000    0.0000000000000000   32.3152066051120386
   S    In   Zn   S    In   Zn
     8     4     2     8     4     2
Direct
     0.9999999999833875    0.9032135183089807    0.4480323170750609
     0.4999999999944649    0.9032135183089807    0.3440969543432502
     0.4999999844796932    0.6120051846906875    0.4826774389903790
     0.9999999844907705    0.6120051846906875    0.3787420762585612
     0.9999999999833875    0.3823027384724114    0.4480323170750609
     0.4999999999944649    0.3823027384724114    0.3440969543432502
     0.0000000004981544    0.1278165509095928    0.3094518355459925
     0.5000000004870842    0.1278165509095928    0.4133871982778103
     0.4999999844796932    0.8137554374257192    0.4826774389903790
     0.9999999844907705    0.8137554374257192    0.3787420762585612
     0.0000000004981544    0.4864600982214071    0.3094518355459925
     0.5000000004870842    0.4864600982214071    0.4133871982778103
     0.9999999999833875    0.1734465139712000    0.4480323170750609
     0.4999999999944649    0.1734465139712000    0.3440969543432502
     0.9999999999612470    0.9032135183089807    0.6559030425386894
     0.4999999999723173    0.9032135183089807    0.5519676798068787
     0.4999999844575527    0.6120051846906875    0.6905481644540075
     0.9999999844686229    0.6120051846906875    0.5866128017221897
     0.9999999999612470    0.3823027384724114    0.6559030425386894
     0.4999999999723173    0.3823027384724114    0.5519676798068787
     0.0000000004760068    0.1278165509095928    0.5173225610096210
     0.5000000004649365    0.1278165509095928    0.6212579237414388
     0.4999999844575527    0.8137554374257192    0.6905481644540075
     0.9999999844686229    0.8137554374257192    0.5866128017221897
     0.0000000004760068    0.4864600982214071    0.5173225610096210
     0.5000000004649365    0.4864600982214071    0.6212579237414388
     0.9999999999612470    0.1734465139712000    0.6559030425386894
     0.4999999999723173    0.1734465139712000    0.5519676798068787

  0.00000000E+00  0.00000000E+00  0.00000000E+00
  0.00000000E+00  0.00000000E+00  0.00000000E+00
  0.00000000E+00  0.00000000E+00  0.00000000E+00
  0.00000000E+00  0.00000000E+00  0.00000000E+00
  0.00000000E+00  0.00000000E+00  0.00000000E+00
  0.00000000E+00  0.00000000E+00  0.00000000E+00
  0.00000000E+00  0.00000000E+00  0.00000000E+00
  0.00000000E+00  0.00000000E+00  0.00000000E+00
  0.00000000E+00  0.00000000E+00  0.00000000E+00
  0.00000000E+00  0.00000000E+00  0.00000000E+00
  0.00000000E+00  0.00000000E+00  0.00000000E+00
  0.00000000E+00  0.00000000E+00  0.00000000E+00
  0.00000000E+00  0.00000000E+00  0.00000000E+00
  0.00000000E+00  0.00000000E+00  0.00000000E+00
  0.00000000E+00  0.00000000E+00  0.00000000E+00
  0.00000000E+00  0.00000000E+00  0.00000000E+00
  0.00000000E+00  0.00000000E+00  0.00000000E+00
  0.00000000E+00  0.00000000E+00  0.00000000E+00
  0.00000000E+00  0.00000000E+00  0.00000000E+00
  0.00000000E+00  0.00000000E+00  0.00000000E+00
  0.00000000E+00  0.00000000E+00  0.00000000E+00
  0.00000000E+00  0.00000000E+00  0.00000000E+00
  0.00000000E+00  0.00000000E+00  0.00000000E+00
  0.00000000E+00  0.00000000E+00  0.00000000E+00
  0.00000000E+00  0.00000000E+00  0.00000000E+00
  0.00000000E+00  0.00000000E+00  0.00000000E+00
  0.00000000E+00  0.00000000E+00  0.00000000E+00
  0.00000000E+00  0.00000000E+00  0.00000000E+00
