  28  28   0   0
  0.5437620E+02  0.3878284E-09  0.1214843E-08  0.3231521E-08  0.5000000E-15
   1.0000000000000000E-004
  CAR 
 WP2-P01-B0-beta100-static-dipole        
      5.17425266    -17.91579722  301     -1.23657528      1.00000000
    -17.916  0.0000E+00  0.0000E+00
    -17.839  0.0000E+00  0.0000E+00
    -17.762  0.0000E+00  0.0000E+00
    -17.685  0.0000E+00  0.0000E+00
    -17.608  0.0000E+00  0.0000E+00
    -17.531  0.0000E+00  0.0000E+00
    -17.454  0.0000E+00  0.0000E+00
    -17.377  0.0000E+00  0.0000E+00
    -17.300  0.0000E+00  0.0000E+00
    -17.223  0.0000E+00  0.0000E+00
    -17.146  0.8975E-14  0.6908E-15
    -17.069  0.3886E-07  0.2991E-08
    -16.992  0.1808E-02  0.1392E-03
    -16.915  0.1168E+01  0.9000E-01
    -16.838  0.1840E+02  0.1507E+01
    -16.761  0.1707E+02  0.2820E+01
    -16.684  0.8073E+01  0.3442E+01
    -16.607  0.6768E+01  0.3963E+01
    -16.530  0.7843E+01  0.4566E+01
    -16.453  0.2445E+02  0.6448E+01
    -16.376  0.5182E+02  0.1044E+02
    -16.299  0.8109E+02  0.1668E+02
    -16.223  0.5649E+02  0.2103E+02
    -16.146  0.4796E+02  0.2472E+02
    -16.069  0.2485E+02  0.2663E+02
    -15.992  0.5152E+02  0.3060E+02
    -15.915  0.3527E+02  0.3331E+02
    -15.838  0.2223E+02  0.3502E+02
    -15.761  0.1826E+02  0.3643E+02
    -15.684  0.2075E+02  0.3802E+02
    -15.607  0.5832E+02  0.4251E+02
    -15.530  0.1060E+03  0.5067E+02
    -15.453  0.7133E+02  0.5616E+02
    -15.376  0.4281E+02  0.5945E+02
    -15.299  0.4820E+02  0.6316E+02
    -15.222  0.6859E+02  0.6844E+02
    -15.145  0.7742E+02  0.7440E+02
    -15.068  0.6925E+02  0.7973E+02
    -14.991  0.8423E+01  0.8038E+02
    -14.914  0.3545E+01  0.8065E+02
    -14.837  0.2096E+00  0.8067E+02
    -14.760  0.6567E+00  0.8072E+02
    -14.683  0.4592E+01  0.8107E+02
    -14.606  0.4010E+01  0.8138E+02
    -14.529  0.4514E+01  0.8173E+02
    -14.452  0.8152E+00  0.8179E+02
    -14.375  0.5922E+01  0.8225E+02
    -14.298  0.1241E+02  0.8320E+02
    -14.221  0.6935E+01  0.8373E+02
    -14.144  0.4204E+01  0.8406E+02
    -14.067  0.8726E+01  0.8473E+02
    -13.990  0.1138E+02  0.8561E+02
    -13.914  0.5413E+01  0.8602E+02
    -13.837  0.1511E+02  0.8719E+02
    -13.760  0.1460E+02  0.8831E+02
    -13.683  0.1342E+02  0.8934E+02
    -13.606  0.1400E+02  0.9042E+02
    -13.529  0.1086E+02  0.9126E+02
    -13.452  0.1220E+02  0.9219E+02
    -13.375  0.1941E+02  0.9369E+02
    -13.298  0.9753E+01  0.9444E+02
    -13.221  0.5640E+01  0.9487E+02
    -13.144  0.8398E+01  0.9552E+02
    -13.067  0.1463E+02  0.9665E+02
    -12.990  0.2091E+02  0.9825E+02
    -12.913  0.2374E+02  0.1001E+03
    -12.836  0.2117E+02  0.1017E+03
    -12.759  0.1997E+02  0.1032E+03
    -12.682  0.1799E+02  0.1046E+03
    -12.605  0.6226E+01  0.1051E+03
    -12.528  0.3867E+01  0.1054E+03
    -12.451  0.7574E+01  0.1060E+03
    -12.374  0.7686E+01  0.1066E+03
    -12.297  0.8137E+01  0.1072E+03
    -12.220  0.1920E+02  0.1087E+03
    -12.143  0.1054E+02  0.1095E+03
    -12.066  0.9826E+01  0.1103E+03
    -11.989  0.7255E+01  0.1108E+03
    -11.912  0.8285E+01  0.1115E+03
    -11.835  0.5975E+01  0.1119E+03
    -11.758  0.1149E+01  0.1120E+03
    -11.681  0.7068E-02  0.1120E+03
    -11.605  0.5548E-06  0.1120E+03
    -11.528  0.4445E-12  0.1120E+03
    -11.451  0.0000E+00  0.1120E+03
    -11.374  0.0000E+00  0.1120E+03
    -11.297  0.0000E+00  0.1120E+03
    -11.220  0.0000E+00  0.1120E+03
    -11.143  0.0000E+00  0.1120E+03
    -11.066  0.0000E+00  0.1120E+03
    -10.989  0.0000E+00  0.1120E+03
    -10.912  0.0000E+00  0.1120E+03
    -10.835  0.0000E+00  0.1120E+03
    -10.758  0.0000E+00  0.1120E+03
    -10.681  0.0000E+00  0.1120E+03
    -10.604  0.0000E+00  0.1120E+03
    -10.527  0.0000E+00  0.1120E+03
    -10.450  0.0000E+00  0.1120E+03
    -10.373  0.0000E+00  0.1120E+03
    -10.296  0.0000E+00  0.1120E+03
    -10.219  0.0000E+00  0.1120E+03
    -10.142  0.0000E+00  0.1120E+03
    -10.065  0.0000E+00  0.1120E+03
     -9.988  0.0000E+00  0.1120E+03
     -9.911  0.0000E+00  0.1120E+03
     -9.834  0.0000E+00  0.1120E+03
     -9.757  0.0000E+00  0.1120E+03
     -9.680  0.0000E+00  0.1120E+03
     -9.603  0.0000E+00  0.1120E+03
     -9.526  0.0000E+00  0.1120E+03
     -9.449  0.0000E+00  0.1120E+03
     -9.372  0.0000E+00  0.1120E+03
     -9.296  0.0000E+00  0.1120E+03
     -9.219  0.0000E+00  0.1120E+03
     -9.142  0.0000E+00  0.1120E+03
     -9.065  0.0000E+00  0.1120E+03
     -8.988  0.0000E+00  0.1120E+03
     -8.911  0.0000E+00  0.1120E+03
     -8.834  0.0000E+00  0.1120E+03
     -8.757  0.0000E+00  0.1120E+03
     -8.680  0.0000E+00  0.1120E+03
     -8.603  0.0000E+00  0.1120E+03
     -8.526  0.0000E+00  0.1120E+03
     -8.449  0.1339E-08  0.1120E+03
     -8.372  0.1662E-03  0.1120E+03
     -8.295  0.2411E+00  0.1120E+03
     -8.218  0.6711E+01  0.1125E+03
     -8.141  0.1389E+02  0.1136E+03
     -8.064  0.1548E+02  0.1148E+03
     -7.987  0.2199E+02  0.1165E+03
     -7.910  0.3927E+02  0.1195E+03
     -7.833  0.3751E+02  0.1224E+03
     -7.756  0.1847E+02  0.1238E+03
     -7.679  0.9204E+01  0.1245E+03
     -7.602  0.1409E+02  0.1256E+03
     -7.525  0.2597E+02  0.1276E+03
     -7.448  0.2669E+02  0.1297E+03
     -7.371  0.2356E+02  0.1315E+03
     -7.294  0.4893E+02  0.1352E+03
     -7.217  0.6175E+02  0.1400E+03
     -7.140  0.2970E+02  0.1423E+03
     -7.063  0.2853E+02  0.1445E+03
     -6.987  0.5169E+02  0.1485E+03
     -6.910  0.5729E+02  0.1529E+03
     -6.833  0.2385E+02  0.1547E+03
     -6.756  0.3172E+02  0.1571E+03
     -6.679  0.4139E+02  0.1603E+03
     -6.602  0.2335E+02  0.1621E+03
     -6.525  0.1454E+02  0.1632E+03
     -6.448  0.6926E+01  0.1638E+03
     -6.371  0.4807E+01  0.1641E+03
     -6.294  0.2162E+01  0.1643E+03
     -6.217  0.1184E+02  0.1652E+03
     -6.140  0.7006E+01  0.1658E+03
     -6.063  0.4393E+01  0.1661E+03
     -5.986  0.1132E+02  0.1670E+03
     -5.909  0.8075E+01  0.1676E+03
     -5.832  0.9434E+01  0.1683E+03
     -5.755  0.1063E+02  0.1691E+03
     -5.678  0.1104E+02  0.1700E+03
     -5.601  0.6021E+01  0.1705E+03
     -5.524  0.1568E+02  0.1717E+03
     -5.447  0.1905E+02  0.1731E+03
     -5.370  0.2133E+02  0.1748E+03
     -5.293  0.1116E+02  0.1756E+03
     -5.216  0.9637E+01  0.1764E+03
     -5.139  0.1154E+02  0.1773E+03
     -5.062  0.1591E+02  0.1785E+03
     -4.985  0.1685E+02  0.1798E+03
     -4.908  0.1816E+02  0.1812E+03
     -4.831  0.1788E+02  0.1826E+03
     -4.754  0.1832E+02  0.1840E+03
     -4.678  0.1582E+02  0.1852E+03
     -4.601  0.1436E+02  0.1863E+03
     -4.524  0.1562E+02  0.1875E+03
     -4.447  0.1728E+02  0.1888E+03
     -4.370  0.1391E+02  0.1899E+03
     -4.293  0.1441E+02  0.1910E+03
     -4.216  0.1429E+02  0.1921E+03
     -4.139  0.1808E+02  0.1935E+03
     -4.062  0.2241E+02  0.1952E+03
     -3.985  0.2016E+02  0.1968E+03
     -3.908  0.2388E+02  0.1986E+03
     -3.831  0.2308E+02  0.2004E+03
     -3.754  0.2056E+02  0.2020E+03
     -3.677  0.1883E+02  0.2034E+03
     -3.600  0.1939E+02  0.2049E+03
     -3.523  0.1416E+02  0.2060E+03
     -3.446  0.1385E+02  0.2071E+03
     -3.369  0.1816E+02  0.2085E+03
     -3.292  0.1287E+02  0.2094E+03
     -3.215  0.2012E+02  0.2110E+03
     -3.138  0.1943E+02  0.2125E+03
     -3.061  0.2069E+02  0.2141E+03
     -2.984  0.2054E+02  0.2157E+03
     -2.907  0.1901E+02  0.2171E+03
     -2.830  0.1917E+02  0.2186E+03
     -2.753  0.2565E+02  0.2206E+03
     -2.676  0.2954E+02  0.2229E+03
     -2.599  0.2034E+02  0.2244E+03
     -2.522  0.1655E+02  0.2257E+03
     -2.445  0.2041E+02  0.2273E+03
     -2.368  0.1597E+02  0.2285E+03
     -2.292  0.1739E+02  0.2298E+03
     -2.215  0.2562E+02  0.2318E+03
     -2.138  0.2081E+02  0.2334E+03
     -2.061  0.2134E+02  0.2350E+03
     -1.984  0.1706E+02  0.2364E+03
     -1.907  0.1301E+02  0.2374E+03
     -1.830  0.1648E+02  0.2386E+03
     -1.753  0.1740E+02  0.2400E+03
     -1.676  0.1438E+02  0.2411E+03
     -1.599  0.9230E+01  0.2418E+03
     -1.522  0.5419E+01  0.2422E+03
     -1.445  0.1385E+02  0.2433E+03
     -1.368  0.2121E+02  0.2449E+03
     -1.291  0.2438E+02  0.2468E+03
     -1.214  0.2004E+02  0.2483E+03
     -1.137  0.1376E+02  0.2494E+03
     -1.060  0.1982E+02  0.2509E+03
     -0.983  0.1304E+02  0.2519E+03
     -0.906  0.1175E+01  0.2520E+03
     -0.829  0.3313E-02  0.2520E+03
     -0.752  0.1297E-06  0.2520E+03
     -0.675  0.5471E-13  0.2520E+03
     -0.598  0.0000E+00  0.2520E+03
     -0.521  0.0000E+00  0.2520E+03
     -0.444  0.0000E+00  0.2520E+03
     -0.367  0.2250E-12  0.2520E+03
     -0.290  0.2045E-06  0.2520E+03
     -0.213  0.1911E-02  0.2520E+03
     -0.136  0.2309E+00  0.2520E+03
     -0.059  0.9363E+00  0.2521E+03
      0.017  0.2211E+01  0.2523E+03
      0.094  0.3596E+01  0.2525E+03
      0.171  0.5475E+01  0.2530E+03
      0.248  0.5773E+01  0.2534E+03
      0.325  0.8567E+01  0.2541E+03
      0.402  0.3511E+01  0.2543E+03
      0.479  0.5466E+01  0.2548E+03
      0.556  0.7077E+01  0.2553E+03
      0.633  0.1462E+02  0.2564E+03
      0.710  0.9873E+01  0.2572E+03
      0.787  0.9047E+01  0.2579E+03
      0.864  0.9027E+01  0.2586E+03
      0.941  0.1016E+02  0.2594E+03
      1.018  0.1194E+02  0.2603E+03
      1.095  0.1410E+02  0.2614E+03
      1.172  0.1074E+02  0.2622E+03
      1.249  0.1154E+02  0.2631E+03
      1.326  0.7633E+01  0.2637E+03
      1.403  0.6509E+01  0.2642E+03
      1.480  0.4775E+01  0.2645E+03
      1.557  0.9461E+01  0.2653E+03
      1.634  0.1545E+02  0.2664E+03
      1.711  0.1290E+02  0.2674E+03
      1.788  0.7037E+01  0.2680E+03
      1.865  0.4763E+01  0.2683E+03
      1.942  0.4879E+01  0.2687E+03
      2.019  0.1660E+02  0.2700E+03
      2.096  0.8309E+01  0.2706E+03
      2.173  0.1127E+01  0.2707E+03
      2.250  0.5050E+01  0.2711E+03
      2.326  0.8592E+01  0.2718E+03
      2.403  0.1243E+02  0.2727E+03
      2.480  0.1290E+02  0.2737E+03
      2.557  0.9557E+01  0.2745E+03
      2.634  0.8800E+01  0.2751E+03
      2.711  0.1356E+02  0.2762E+03
      2.788  0.1134E+02  0.2771E+03
      2.865  0.1036E+02  0.2779E+03
      2.942  0.1229E+02  0.2788E+03
      3.019  0.1290E+02  0.2798E+03
      3.096  0.1710E+02  0.2811E+03
      3.173  0.1677E+02  0.2824E+03
      3.250  0.1922E+02  0.2839E+03
      3.327  0.1618E+02  0.2851E+03
      3.404  0.1423E+02  0.2862E+03
      3.481  0.1589E+02  0.2874E+03
      3.558  0.1667E+02  0.2887E+03
      3.635  0.1290E+02  0.2897E+03
      3.712  0.1772E+02  0.2911E+03
      3.789  0.1784E+02  0.2925E+03
      3.866  0.1222E+02  0.2934E+03
      3.943  0.1291E+02  0.2944E+03
      4.020  0.1073E+02  0.2952E+03
      4.097  0.6233E+01  0.2957E+03
      4.174  0.3611E+01  0.2960E+03
      4.251  0.3322E+00  0.2960E+03
      4.328  0.7108E-03  0.2960E+03
      4.405  0.1831E-07  0.2960E+03
      4.482  0.4701E-14  0.2960E+03
      4.559  0.0000E+00  0.2960E+03
      4.635  0.0000E+00  0.2960E+03
      4.712  0.0000E+00  0.2960E+03
      4.789  0.0000E+00  0.2960E+03
      4.866  0.0000E+00  0.2960E+03
      4.943  0.0000E+00  0.2960E+03
      5.020  0.0000E+00  0.2960E+03
      5.097  0.0000E+00  0.2960E+03
      5.174  0.0000E+00  0.2960E+03
