   28   28    1    1
  0.5437620E+02  0.3878284E-09  0.1214843E-08  0.3231521E-08  0.5000000E-15
   1.0000000000000000E-004
  CAR 
 WP2-P01-B0-beta100-static-dipole        
    248     14    148

  0.1262379E-14  0.1262379E-14  0.1262379E-14  0.3703704E-01
      1        -16.836018   1.000000
      2        -16.650342   1.000000
      3        -16.460119   1.000000
      4        -16.446912   1.000000
      5        -16.384487   1.000000
      6        -16.361496   1.000000
      7        -16.351315   1.000000
      8        -16.336398   1.000000
      9        -16.290698   1.000000
     10        -16.287730   1.000000
     11        -16.211736   1.000000
     12        -16.176808   1.000000
     13        -16.105730   1.000000
     14        -16.046596   1.000000
     15        -16.021334   1.000000
     16        -15.981488   1.000000
     17        -15.888541   1.000000
     18        -15.702589   1.000000
     19        -15.672260   1.000000
     20        -15.658822   1.000000
     21        -15.630700   1.000000
     22        -15.603314   1.000000
     23        -15.580228   1.000000
     24        -15.570377   1.000000
     25        -15.567521   1.000000
     26        -15.550485   1.000000
     27        -15.535419   1.000000
     28        -15.499219   1.000000
     29        -15.388083   1.000000
     30        -15.359055   1.000000
     31        -15.330330   1.000000
     32        -15.291806   1.000000
     33        -15.258547   1.000000
     34        -15.220414   1.000000
     35        -15.207640   1.000000
     36        -15.169349   1.000000
     37        -15.158018   1.000000
     38        -15.149064   1.000000
     39        -15.132884   1.000000
     40        -15.113480   1.000000
     41        -15.080512   1.000000
     42        -14.649093   1.000000
     43        -14.362469   1.000000
     44        -14.288575   1.000000
     45        -13.924671   1.000000
     46        -13.846003   1.000000
     47        -13.794347   1.000000
     48        -13.489842   1.000000
     49        -13.176765   1.000000
     50        -13.096122   1.000000
     51        -13.005975   1.000000
     52        -12.936966   1.000000
     53        -12.858021   1.000000
     54        -12.517748   1.000000
     55        -12.284505   1.000000
     56        -12.148817   1.000000
     57         -8.228560   1.000000
     58         -8.151077   1.000000
     59         -7.975995   1.000000
     60         -7.915230   1.000000
     61         -7.843603   1.000000
     62         -7.770617   1.000000
     63         -7.560751   1.000000
     64         -7.553420   1.000000
     65         -7.528982   1.000000
     66         -7.379257   1.000000
     67         -7.305616   1.000000
     68         -7.288529   1.000000
     69         -7.285237   1.000000
     70         -7.238597   1.000000
     71         -7.218494   1.000000
     72         -7.107734   1.000000
     73         -7.026089   1.000000
     74         -6.998842   1.000000
     75         -6.993268   1.000000
     76         -6.940382   1.000000
     77         -6.905730   1.000000
     78         -6.798268   1.000000
     79         -6.780471   1.000000
     80         -6.685225   1.000000
     81         -6.678157   1.000000
     82         -6.215712   1.000000
     83         -5.757254   1.000000
     84         -5.648576   1.000000
     85         -5.433237   1.000000
     86         -5.131597   1.000000
     87         -5.038773   1.000000
     88         -4.788759   1.000000
     89         -4.735022   1.000000
     90         -4.497350   1.000000
     91         -4.486486   1.000000
     92         -4.313988   1.000000
     93         -4.110498   1.000000
     94         -4.070322   1.000000
     95         -3.939148   1.000000
     96         -3.899684   1.000000
     97         -3.767067   1.000000
     98         -3.612271   1.000000
     99         -3.610315   1.000000
    100         -3.479117   1.000000
    101         -3.322796   1.000000
    102         -3.247838   1.000000
    103         -3.118118   1.000000
    104         -3.048538   1.000000
    105         -2.936392   1.000000
    106         -2.768095   1.000000
    107         -2.712383   1.000000
    108         -2.633175   1.000000
    109         -2.555366   1.000000
    110         -2.522457   1.000000
    111         -2.445842   1.000000
    112         -2.316168   1.000000
    113         -2.225313   1.000000
    114         -2.176123   1.000000
    115         -2.047117   1.000000
    116         -1.962638   1.000000
    117         -1.836698   1.000000
    118         -1.716095   1.000000
    119         -1.658483   1.000000
    120         -1.607924   1.000000
    121         -1.431324   1.000000
    122         -1.360470   0.999771
    123         -1.271092   0.835537
    124         -1.244979   0.593938
    125         -1.172021   0.033934
    126         -1.103078   0.000080
    127         -0.111586   0.000000
    128          0.249135   0.000000
    129          0.405218   0.000000
    130          0.561710   0.000000
    131          0.859466   0.000000
    132          1.121334   0.000000
    133          1.263790   0.000000
    134          1.329955   0.000000
    135          1.651753   0.000000
    136          1.736468   0.000000
    137          2.264453   0.000000
    138          2.357358   0.000000
    139          2.496299   0.000000
    140          2.653006   0.000000
    141          2.845186   0.000000
    142          2.985253   0.000000
    143          3.140924   0.000000
    144          3.266740   0.000000
    145          3.337270   0.000000
    146          3.407631   0.000000
    147          3.576112   0.000000
    148          3.757173   0.000000

  0.1111111E+00  0.1262379E-14  0.1262379E-14  0.7407407E-01
      1        -16.838142   1.000000
      2        -16.667138   1.000000
      3        -16.494265   1.000000
      4        -16.420930   1.000000
      5        -16.383389   1.000000
      6        -16.361271   1.000000
      7        -16.349309   1.000000
      8        -16.336710   1.000000
      9        -16.297649   1.000000
     10        -16.277475   1.000000
     11        -16.208484   1.000000
     12        -16.185065   1.000000
     13        -16.129358   1.000000
     14        -16.028688   1.000000
     15        -16.016923   1.000000
     16        -15.986965   1.000000
     17        -15.888394   1.000000
     18        -15.761271   1.000000
     19        -15.707544   1.000000
     20        -15.652871   1.000000
     21        -15.620936   1.000000
     22        -15.585744   1.000000
     23        -15.580516   1.000000
     24        -15.569248   1.000000
     25        -15.563740   1.000000
     26        -15.539611   1.000000
     27        -15.528826   1.000000
     28        -15.482290   1.000000
     29        -15.430171   1.000000
     30        -15.363902   1.000000
     31        -15.321112   1.000000
     32        -15.289060   1.000000
     33        -15.263439   1.000000
     34        -15.247546   1.000000
     35        -15.218399   1.000000
     36        -15.162618   1.000000
     37        -15.152375   1.000000
     38        -15.146310   1.000000
     39        -15.136706   1.000000
     40        -15.118472   1.000000
     41        -14.983385   1.000000
     42        -14.572252   1.000000
     43        -14.285816   1.000000
     44        -14.211451   1.000000
     45        -13.847587   1.000000
     46        -13.772422   1.000000
     47        -13.744306   1.000000
     48        -13.424751   1.000000
     49        -13.133194   1.000000
     50        -13.046432   1.000000
     51        -12.966481   1.000000
     52        -12.895800   1.000000
     53        -12.834264   1.000000
     54        -12.459729   1.000000
     55        -12.276534   1.000000
     56        -12.115705   1.000000
     57         -8.224803   1.000000
     58         -8.122772   1.000000
     59         -7.969691   1.000000
     60         -7.911907   1.000000
     61         -7.856009   1.000000
     62         -7.747334   1.000000
     63         -7.569727   1.000000
     64         -7.524305   1.000000
     65         -7.508586   1.000000
     66         -7.363969   1.000000
     67         -7.300402   1.000000
     68         -7.294568   1.000000
     69         -7.259905   1.000000
     70         -7.232810   1.000000
     71         -7.216733   1.000000
     72         -7.091489   1.000000
     73         -7.018733   1.000000
     74         -7.000973   1.000000
     75         -6.982611   1.000000
     76         -6.950034   1.000000
     77         -6.894759   1.000000
     78         -6.779375   1.000000
     79         -6.770379   1.000000
     80         -6.691772   1.000000
     81         -6.681458   1.000000
     82         -6.248941   1.000000
     83         -5.757605   1.000000
     84         -5.701742   1.000000
     85         -5.414445   1.000000
     86         -5.197250   1.000000
     87         -5.055249   1.000000
     88         -4.937589   1.000000
     89         -4.917889   1.000000
     90         -4.698184   1.000000
     91         -4.557087   1.000000
     92         -4.464090   1.000000
     93         -4.283684   1.000000
     94         -4.255977   1.000000
     95         -4.070537   1.000000
     96         -3.984185   1.000000
     97         -3.911225   1.000000
     98         -3.828929   1.000000
     99         -3.724838   1.000000
    100         -3.650430   1.000000
    101         -3.434285   1.000000
    102         -3.364290   1.000000
    103         -3.243366   1.000000
    104         -3.135034   1.000000
    105         -3.047418   1.000000
    106         -2.926132   1.000000
    107         -2.916743   1.000000
    108         -2.822683   1.000000
    109         -2.684759   1.000000
    110         -2.657418   1.000000
    111         -2.503747   1.000000
    112         -2.480923   1.000000
    113         -2.381781   1.000000
    114         -2.245786   1.000000
    115         -2.235234   1.000000
    116         -2.177910   1.000000
    117         -2.101356   1.000000
    118         -1.818010   1.000000
    119         -1.743112   1.000000
    120         -1.685616   1.000000
    121         -1.422068   1.000000
    122         -1.372929   0.999943
    123         -1.343963   0.998807
    124         -1.299236   0.961829
    125         -1.175492   0.042021
    126         -1.077977   0.000004
    127          0.028918   0.000000
    128          0.505416   0.000000
    129          0.612615   0.000000
    130          0.777619   0.000000
    131          1.081826   0.000000
    132          1.312132   0.000000
    133          1.495900   0.000000
    134          1.549977   0.000000
    135          1.964858   0.000000
    136          2.021091   0.000000
    137          2.594553   0.000000
    138          2.635700   0.000000
    139          2.712748   0.000000
    140          2.870451   0.000000
    141          3.059039   0.000000
    142          3.124314   0.000000
    143          3.243788   0.000000
    144          3.437169   0.000000
    145          3.507138   0.000000
    146          3.534315   0.000000
    147          3.625458   0.000000
    148          3.736233   0.000000

  0.2222222E+00  0.1262379E-14  0.1262379E-14  0.7407407E-01
      1        -16.846935   1.000000
      2        -16.720622   1.000000
      3        -16.516991   1.000000
      4        -16.401652   1.000000
      5        -16.394672   1.000000
      6        -16.363018   1.000000
      7        -16.344605   1.000000
      8        -16.329224   1.000000
      9        -16.308176   1.000000
     10        -16.264182   1.000000
     11        -16.207459   1.000000
     12        -16.194711   1.000000
     13        -16.160114   1.000000
     14        -16.005523   1.000000
     15        -16.002889   1.000000
     16        -15.996481   1.000000
     17        -15.917761   1.000000
     18        -15.860723   1.000000
     19        -15.750224   1.000000
     20        -15.635412   1.000000
     21        -15.602343   1.000000
     22        -15.594769   1.000000
     23        -15.570005   1.000000
     24        -15.560159   1.000000
     25        -15.553291   1.000000
     26        -15.543891   1.000000
     27        -15.502055   1.000000
     28        -15.487323   1.000000
     29        -15.460178   1.000000
     30        -15.386354   1.000000
     31        -15.301914   1.000000
     32        -15.297624   1.000000
     33        -15.283134   1.000000
     34        -15.275223   1.000000
     35        -15.223590   1.000000
     36        -15.154010   1.000000
     37        -15.145376   1.000000
     38        -15.137456   1.000000
     39        -15.135748   1.000000
     40        -15.130116   1.000000
     41        -14.723247   1.000000
     42        -14.364637   1.000000
     43        -14.087007   1.000000
     44        -14.010692   1.000000
     45        -13.665294   1.000000
     46        -13.617892   1.000000
     47        -13.587502   1.000000
     48        -13.254697   1.000000
     49        -13.021266   1.000000
     50        -12.955060   1.000000
     51        -12.910811   1.000000
     52        -12.772746   1.000000
     53        -12.733605   1.000000
     54        -12.305400   1.000000
     55        -12.258862   1.000000
     56        -12.029649   1.000000
     57         -8.198252   1.000000
     58         -8.060087   1.000000
     59         -7.951689   1.000000
     60         -7.904742   1.000000
     61         -7.885317   1.000000
     62         -7.734533   1.000000
     63         -7.553262   1.000000
     64         -7.502676   1.000000
     65         -7.453000   1.000000
     66         -7.354076   1.000000
     67         -7.301711   1.000000
     68         -7.273409   1.000000
     69         -7.257016   1.000000
     70         -7.228615   1.000000
     71         -7.169458   1.000000
     72         -7.072245   1.000000
     73         -7.026755   1.000000
     74         -7.010772   1.000000
     75         -6.987872   1.000000
     76         -6.959465   1.000000
     77         -6.914476   1.000000
     78         -6.761043   1.000000
     79         -6.735372   1.000000
     80         -6.720659   1.000000
     81         -6.683265   1.000000
     82         -6.432093   1.000000
     83         -6.024156   1.000000
     84         -5.845183   1.000000
     85         -5.549049   1.000000
     86         -5.427997   1.000000
     87         -5.351633   1.000000
     88         -5.219538   1.000000
     89         -5.106770   1.000000
     90         -5.024972   1.000000
     91         -4.949355   1.000000
     92         -4.664896   1.000000
     93         -4.583660   1.000000
     94         -4.519393   1.000000
     95         -4.396865   1.000000
     96         -4.316391   1.000000
     97         -4.161376   1.000000
     98         -4.071345   1.000000
     99         -3.950074   1.000000
    100         -3.878610   1.000000
    101         -3.765681   1.000000
    102         -3.661641   1.000000
    103         -3.592562   1.000000
    104         -3.460818   1.000000
    105         -3.423918   1.000000
    106         -3.230428   1.000000
    107         -3.175729   1.000000
    108         -3.116527   1.000000
    109         -3.009447   1.000000
    110         -2.853197   1.000000
    111         -2.772299   1.000000
    112         -2.760185   1.000000
    113         -2.631400   1.000000
    114         -2.433133   1.000000
    115         -2.363540   1.000000
    116         -2.240511   1.000000
    117         -2.113781   1.000000
    118         -2.084613   1.000000
    119         -2.006861   1.000000
    120         -1.794107   1.000000
    121         -1.610356   1.000000
    122         -1.489197   1.000000
    123         -1.389822   0.999993
    124         -1.324517   0.993565
    125         -1.106800   0.000121
    126         -1.038410   0.000000
    127          0.165691   0.000000
    128          0.763487   0.000000
    129          0.922760   0.000000
    130          1.042370   0.000000
    131          1.191878   0.000000
    132          1.334532   0.000000
    133          1.647949   0.000000
    134          1.994271   0.000000
    135          2.318904   0.000000
    136          2.446510   0.000000
    137          2.483266   0.000000
    138          2.661345   0.000000
    139          2.908342   0.000000
    140          3.060202   0.000000
    141          3.104172   0.000000
    142          3.219733   0.000000
    143          3.368426   0.000000
    144          3.491116   0.000000
    145          3.681121   0.000000
    146          3.774280   0.000000
    147          3.835508   0.000000
    148          3.914321   0.000000

  0.3333333E+00  0.1262379E-14  0.1262379E-14  0.7407407E-01
      1        -16.860353   1.000000
      2        -16.787466   1.000000
      3        -16.519303   1.000000
      4        -16.428857   1.000000
      5        -16.394460   1.000000
      6        -16.367704   1.000000
      7        -16.338838   1.000000
      8        -16.319611   1.000000
      9        -16.300719   1.000000
     10        -16.265870   1.000000
     11        -16.224828   1.000000
     12        -16.180607   1.000000
     13        -16.165012   1.000000
     14        -16.033706   1.000000
     15        -16.013115   1.000000
     16        -15.995035   1.000000
     17        -15.973611   1.000000
     18        -15.877080   1.000000
     19        -15.772776   1.000000
     20        -15.625185   1.000000
     21        -15.612490   1.000000
     22        -15.608422   1.000000
     23        -15.576009   1.000000
     24        -15.558006   1.000000
     25        -15.553996   1.000000
     26        -15.531467   1.000000
     27        -15.491536   1.000000
     28        -15.465384   1.000000
     29        -15.447147   1.000000
     30        -15.412803   1.000000
     31        -15.344336   1.000000
     32        -15.288379   1.000000
     33        -15.279061   1.000000
     34        -15.266444   1.000000
     35        -15.217414   1.000000
     36        -15.160319   1.000000
     37        -15.145205   1.000000
     38        -15.142960   1.000000
     39        -15.118748   1.000000
     40        -15.114312   1.000000
     41        -14.366663   1.000000
     42        -14.078193   1.000000
     43        -13.851289   1.000000
     44        -13.755386   1.000000
     45        -13.491433   1.000000
     46        -13.443761   1.000000
     47        -13.407043   1.000000
     48        -13.044051   1.000000
     49        -13.001341   1.000000
     50        -12.887010   1.000000
     51        -12.780083   1.000000
     52        -12.706966   1.000000
     53        -12.531378   1.000000
     54        -12.241769   1.000000
     55        -12.113767   1.000000
     56        -11.929280   1.000000
     57         -8.139599   1.000000
     58         -8.003025   1.000000
     59         -7.936473   1.000000
     60         -7.920612   1.000000
     61         -7.888574   1.000000
     62         -7.839212   1.000000
     63         -7.578653   1.000000
     64         -7.513287   1.000000
     65         -7.429213   1.000000
     66         -7.380263   1.000000
     67         -7.338110   1.000000
     68         -7.315006   1.000000
     69         -7.267622   1.000000
     70         -7.236316   1.000000
     71         -7.223056   1.000000
     72         -7.136185   1.000000
     73         -7.095461   1.000000
     74         -7.011477   1.000000
     75         -6.979487   1.000000
     76         -6.961489   1.000000
     77         -6.943855   1.000000
     78         -6.833464   1.000000
     79         -6.745054   1.000000
     80         -6.726146   1.000000
     81         -6.678378   1.000000
     82         -6.574195   1.000000
     83         -6.500740   1.000000
     84         -6.062962   1.000000
     85         -5.981761   1.000000
     86         -5.670101   1.000000
     87         -5.581894   1.000000
     88         -5.518781   1.000000
     89         -5.436369   1.000000
     90         -5.203469   1.000000
     91         -5.030777   1.000000
     92         -4.955042   1.000000
     93         -4.897265   1.000000
     94         -4.794951   1.000000
     95         -4.663261   1.000000
     96         -4.602759   1.000000
     97         -4.470636   1.000000
     98         -4.323930   1.000000
     99         -4.159510   1.000000
    100         -4.078132   1.000000
    101         -3.965401   1.000000
    102         -3.909738   1.000000
    103         -3.827294   1.000000
    104         -3.795308   1.000000
    105         -3.620774   1.000000
    106         -3.470235   1.000000
    107         -3.325009   1.000000
    108         -3.252517   1.000000
    109         -3.180744   1.000000
    110         -2.993328   1.000000
    111         -2.910954   1.000000
    112         -2.770747   1.000000
    113         -2.656445   1.000000
    114         -2.554684   1.000000
    115         -2.494652   1.000000
    116         -2.294295   1.000000
    117         -2.250455   1.000000
    118         -2.181222   1.000000
    119         -2.111512   1.000000
    120         -1.863496   1.000000
    121         -1.762692   1.000000
    122         -1.723475   1.000000
    123         -1.423797   1.000000
    124         -1.293724   0.946998
    125         -1.189463   0.091342
    126         -1.022276   0.000000
    127          0.176700   0.000000
    128          0.685832   0.000000
    129          0.797230   0.000000
    130          1.019837   0.000000
    131          1.075161   0.000000
    132          1.211048   0.000000
    133          1.646716   0.000000
    134          1.810914   0.000000
    135          1.945062   0.000000
    136          2.189816   0.000000
    137          2.414559   0.000000
    138          2.703931   0.000000
    139          2.906126   0.000000
    140          2.998861   0.000000
    141          3.114562   0.000000
    142          3.219071   0.000000
    143          3.441128   0.000000
    144          3.658515   0.000000
    145          3.747875   0.000000
    146          3.896597   0.000000
    147          3.950500   0.000000
    148          4.086688   0.000000

  0.4444444E+00  0.1262379E-14  0.1262379E-14  0.7407407E-01
      1        -16.866249   1.000000
      2        -16.834825   1.000000
      3        -16.517217   1.000000
      4        -16.455679   1.000000
      5        -16.393789   1.000000
      6        -16.372869   1.000000
      7        -16.339282   1.000000
      8        -16.307469   1.000000
      9        -16.290109   1.000000
     10        -16.275556   1.000000
     11        -16.236565   1.000000
     12        -16.168252   1.000000
     13        -16.160186   1.000000
     14        -16.080624   1.000000
     15        -16.022686   1.000000
     16        -16.021156   1.000000
     17        -15.973197   1.000000
     18        -15.849564   1.000000
     19        -15.796846   1.000000
     20        -15.649547   1.000000
     21        -15.621958   1.000000
     22        -15.612022   1.000000
     23        -15.562471   1.000000
     24        -15.558140   1.000000
     25        -15.545631   1.000000
     26        -15.512808   1.000000
     27        -15.478553   1.000000
     28        -15.466277   1.000000
     29        -15.438919   1.000000
     30        -15.426624   1.000000
     31        -15.357835   1.000000
     32        -15.296593   1.000000
     33        -15.275451   1.000000
     34        -15.245459   1.000000
     35        -15.212379   1.000000
     36        -15.167244   1.000000
     37        -15.151202   1.000000
     38        -15.143382   1.000000
     39        -15.106010   1.000000
     40        -15.096254   1.000000
     41        -14.028879   1.000000
     42        -13.853869   1.000000
     43        -13.663193   1.000000
     44        -13.563100   1.000000
     45        -13.421625   1.000000
     46        -13.385318   1.000000
     47        -13.283428   1.000000
     48        -13.086463   1.000000
     49        -12.870656   1.000000
     50        -12.810337   1.000000
     51        -12.693983   1.000000
     52        -12.681675   1.000000
     53        -12.405625   1.000000
     54        -12.220756   1.000000
     55        -11.977306   1.000000
     56        -11.865647   1.000000
     57         -8.081075   1.000000
     58         -8.014476   1.000000
     59         -7.991933   1.000000
     60         -7.952917   1.000000
     61         -7.880796   1.000000
     62         -7.863687   1.000000
     63         -7.792952   1.000000
     64         -7.639031   1.000000
     65         -7.471355   1.000000
     66         -7.421564   1.000000
     67         -7.341754   1.000000
     68         -7.321225   1.000000
     69         -7.297754   1.000000
     70         -7.247584   1.000000
     71         -7.219411   1.000000
     72         -7.137610   1.000000
     73         -7.093261   1.000000
     74         -7.091896   1.000000
     75         -7.043995   1.000000
     76         -6.973838   1.000000
     77         -6.938733   1.000000
     78         -6.889125   1.000000
     79         -6.849678   1.000000
     80         -6.745736   1.000000
     81         -6.741854   1.000000
     82         -6.662952   1.000000
     83         -6.554107   1.000000
     84         -6.259560   1.000000
     85         -6.192260   1.000000
     86         -5.956658   1.000000
     87         -5.763685   1.000000
     88         -5.584741   1.000000
     89         -5.484851   1.000000
     90         -5.380877   1.000000
     91         -5.317702   1.000000
     92         -5.117928   1.000000
     93         -4.989912   1.000000
     94         -4.957373   1.000000
     95         -4.879807   1.000000
     96         -4.807713   1.000000
     97         -4.500868   1.000000
     98         -4.377087   1.000000
     99         -4.239569   1.000000
    100         -4.206188   1.000000
    101         -4.053441   1.000000
    102         -3.935958   1.000000
    103         -3.857998   1.000000
    104         -3.828106   1.000000
    105         -3.715432   1.000000
    106         -3.582091   1.000000
    107         -3.422617   1.000000
    108         -3.283864   1.000000
    109         -3.226105   1.000000
    110         -3.014480   1.000000
    111         -2.924582   1.000000
    112         -2.826578   1.000000
    113         -2.772581   1.000000
    114         -2.702156   1.000000
    115         -2.550740   1.000000
    116         -2.375417   1.000000
    117         -2.308129   1.000000
    118         -2.202604   1.000000
    119         -2.081829   1.000000
    120         -1.932737   1.000000
    121         -1.889560   1.000000
    122         -1.768767   1.000000
    123         -1.393698   0.999996
    124         -1.303751   0.971284
    125         -1.248346   0.630407
    126         -1.071388   0.000001
    127          0.121436   0.000000
    128          0.506250   0.000000
    129          0.576391   0.000000
    130          0.939338   0.000000
    131          1.010080   0.000000
    132          1.098752   0.000000
    133          1.563744   0.000000
    134          1.597866   0.000000
    135          1.651663   0.000000
    136          1.996510   0.000000
    137          2.331683   0.000000
    138          2.472438   0.000000
    139          3.051424   0.000000
    140          3.082669   0.000000
    141          3.141946   0.000000
    142          3.262602   0.000000
    143          3.521420   0.000000
    144          3.635736   0.000000
    145          3.718293   0.000000
    146          3.875035   0.000000
    147          3.924193   0.000000
    148          4.039518   0.000000

  0.1262379E-14  0.3333333E+00  0.1262379E-14  0.7407407E-01
      1        -16.836018   1.000000
      2        -16.650383   1.000000
      3        -16.460104   1.000000
      4        -16.446911   1.000000
      5        -16.384472   1.000000
      6        -16.361496   1.000000
      7        -16.351318   1.000000
      8        -16.336395   1.000000
      9        -16.290698   1.000000
     10        -16.287822   1.000000
     11        -16.211731   1.000000
     12        -16.176806   1.000000
     13        -16.105730   1.000000
     14        -16.046582   1.000000
     15        -16.021361   1.000000
     16        -15.981487   1.000000
     17        -15.888619   1.000000
     18        -15.702589   1.000000
     19        -15.672163   1.000000
     20        -15.658819   1.000000
     21        -15.630707   1.000000
     22        -15.603403   1.000000
     23        -15.580241   1.000000
     24        -15.570377   1.000000
     25        -15.567529   1.000000
     26        -15.550084   1.000000
     27        -15.535418   1.000000
     28        -15.499206   1.000000
     29        -15.388082   1.000000
     30        -15.359232   1.000000
     31        -15.330308   1.000000
     32        -15.291766   1.000000
     33        -15.258546   1.000000
     34        -15.220413   1.000000
     35        -15.207639   1.000000
     36        -15.169302   1.000000
     37        -15.158040   1.000000
     38        -15.149022   1.000000
     39        -15.132882   1.000000
     40        -15.113479   1.000000
     41        -15.073347   1.000000
     42        -14.646833   1.000000
     43        -14.390621   1.000000
     44        -14.293196   1.000000
     45        -13.927841   1.000000
     46        -13.884070   1.000000
     47        -13.736734   1.000000
     48        -13.438697   1.000000
     49        -13.168518   1.000000
     50        -13.137606   1.000000
     51        -13.008781   1.000000
     52        -12.947017   1.000000
     53        -12.859725   1.000000
     54        -12.492142   1.000000
     55        -12.288865   1.000000
     56        -12.170784   1.000000
     57         -8.228561   1.000000
     58         -8.151442   1.000000
     59         -7.994595   1.000000
     60         -7.922893   1.000000
     61         -7.843607   1.000000
     62         -7.781191   1.000000
     63         -7.633001   1.000000
     64         -7.560754   1.000000
     65         -7.546373   1.000000
     66         -7.383819   1.000000
     67         -7.305175   1.000000
     68         -7.288536   1.000000
     69         -7.284004   1.000000
     70         -7.218505   1.000000
     71         -7.200919   1.000000
     72         -7.050564   1.000000
     73         -6.998296   1.000000
     74         -6.993275   1.000000
     75         -6.970509   1.000000
     76         -6.940391   1.000000
     77         -6.824384   1.000000
     78         -6.774926   1.000000
     79         -6.743912   1.000000
     80         -6.678165   1.000000
     81         -6.576761   1.000000
     82         -6.208821   1.000000
     83         -5.880765   1.000000
     84         -5.728801   1.000000
     85         -5.487927   1.000000
     86         -5.445645   1.000000
     87         -5.038522   1.000000
     88         -4.775713   1.000000
     89         -4.641352   1.000000
     90         -4.520359   1.000000
     91         -4.490749   1.000000
     92         -4.255898   1.000000
     93         -4.100399   1.000000
     94         -4.024742   1.000000
     95         -3.921273   1.000000
     96         -3.776239   1.000000
     97         -3.678773   1.000000
     98         -3.610356   1.000000
     99         -3.584197   1.000000
    100         -3.502621   1.000000
    101         -3.399656   1.000000
    102         -3.200721   1.000000
    103         -3.056340   1.000000
    104         -3.049928   1.000000
    105         -2.895545   1.000000
    106         -2.751183   1.000000
    107         -2.723637   1.000000
    108         -2.680634   1.000000
    109         -2.527538   1.000000
    110         -2.511914   1.000000
    111         -2.449669   1.000000
    112         -2.300258   1.000000
    113         -2.219203   1.000000
    114         -2.163918   1.000000
    115         -2.039184   1.000000
    116         -1.968529   1.000000
    117         -1.968194   1.000000
    118         -1.940781   1.000000
    119         -1.740709   1.000000
    120         -1.620487   1.000000
    121         -1.455580   1.000000
    122         -1.303578   0.970961
    123         -1.272848   0.847544
    124         -1.179969   0.054682
    125         -1.178938   0.051526
    126         -1.112919   0.000235
    127         -0.020710   0.000000
    128          0.309194   0.000000
    129          0.421941   0.000000
    130          0.576845   0.000000
    131          0.985268   0.000000
    132          1.072998   0.000000
    133          1.259526   0.000000
    134          1.422671   0.000000
    135          1.686573   0.000000
    136          1.741160   0.000000
    137          2.255863   0.000000
    138          2.405975   0.000000
    139          2.532117   0.000000
    140          2.610640   0.000000
    141          2.799070   0.000000
    142          2.866456   0.000000
    143          3.077306   0.000000
    144          3.226817   0.000000
    145          3.269705   0.000000
    146          3.335056   0.000000
    147          3.517080   0.000000
    148          3.701023   0.000000

  0.1111111E+00  0.3333333E+00  0.1262379E-14  0.7407407E-01
      1        -16.838143   1.000000
      2        -16.667169   1.000000
      3        -16.494254   1.000000
      4        -16.420929   1.000000
      5        -16.383378   1.000000
      6        -16.361272   1.000000
      7        -16.349310   1.000000
      8        -16.336712   1.000000
      9        -16.297648   1.000000
     10        -16.277541   1.000000
     11        -16.208480   1.000000
     12        -16.185064   1.000000
     13        -16.129364   1.000000
     14        -16.028649   1.000000
     15        -16.016954   1.000000
     16        -15.986970   1.000000
     17        -15.888470   1.000000
     18        -15.761293   1.000000
     19        -15.707508   1.000000
     20        -15.652854   1.000000
     21        -15.620939   1.000000
     22        -15.585775   1.000000
     23        -15.580525   1.000000
     24        -15.569264   1.000000
     25        -15.563749   1.000000
     26        -15.539611   1.000000
     27        -15.528572   1.000000
     28        -15.482350   1.000000
     29        -15.430239   1.000000
     30        -15.364038   1.000000
     31        -15.321101   1.000000
     32        -15.289044   1.000000
     33        -15.263445   1.000000
     34        -15.247369   1.000000
     35        -15.218405   1.000000
     36        -15.162620   1.000000
     37        -15.152379   1.000000
     38        -15.146298   1.000000
     39        -15.136705   1.000000
     40        -15.118459   1.000000
     41        -14.975405   1.000000
     42        -14.571584   1.000000
     43        -14.312031   1.000000
     44        -14.216819   1.000000
     45        -13.853143   1.000000
     46        -13.810252   1.000000
     47        -13.687905   1.000000
     48        -13.369643   1.000000
     49        -13.124917   1.000000
     50        -13.089324   1.000000
     51        -12.970157   1.000000
     52        -12.907453   1.000000
     53        -12.831020   1.000000
     54        -12.438650   1.000000
     55        -12.280241   1.000000
     56        -12.134921   1.000000
     57         -8.224747   1.000000
     58         -8.123128   1.000000
     59         -7.986647   1.000000
     60         -7.918853   1.000000
     61         -7.855717   1.000000
     62         -7.760979   1.000000
     63         -7.615180   1.000000
     64         -7.565433   1.000000
     65         -7.514604   1.000000
     66         -7.371058   1.000000
     67         -7.303921   1.000000
     68         -7.294972   1.000000
     69         -7.252579   1.000000
     70         -7.231846   1.000000
     71         -7.193370   1.000000
     72         -7.040744   1.000000
     73         -6.999855   1.000000
     74         -6.981276   1.000000
     75         -6.962494   1.000000
     76         -6.943179   1.000000
     77         -6.823620   1.000000
     78         -6.766866   1.000000
     79         -6.741801   1.000000
     80         -6.685812   1.000000
     81         -6.583264   1.000000
     82         -6.235480   1.000000
     83         -5.865190   1.000000
     84         -5.758007   1.000000
     85         -5.454846   1.000000
     86         -5.436500   1.000000
     87         -5.067824   1.000000
     88         -4.873145   1.000000
     89         -4.855203   1.000000
     90         -4.757687   1.000000
     91         -4.573111   1.000000
     92         -4.428154   1.000000
     93         -4.323989   1.000000
     94         -4.149987   1.000000
     95         -4.078386   1.000000
     96         -3.972085   1.000000
     97         -3.884165   1.000000
     98         -3.807208   1.000000
     99         -3.727565   1.000000
    100         -3.599538   1.000000
    101         -3.449321   1.000000
    102         -3.386048   1.000000
    103         -3.186318   1.000000
    104         -3.142235   1.000000
    105         -3.082279   1.000000
    106         -2.922072   1.000000
    107         -2.863482   1.000000
    108         -2.812667   1.000000
    109         -2.715717   1.000000
    110         -2.632213   1.000000
    111         -2.533057   1.000000
    112         -2.469248   1.000000
    113         -2.380829   1.000000
    114         -2.263696   1.000000
    115         -2.250305   1.000000
    116         -2.159180   1.000000
    117         -2.037302   1.000000
    118         -1.893164   1.000000
    119         -1.839914   1.000000
    120         -1.655363   1.000000
    121         -1.481802   1.000000
    122         -1.371152   0.999929
    123         -1.332261   0.996599
    124         -1.301757   0.967380
    125         -1.112694   0.000229
    126         -1.092053   0.000022
    127          0.098782   0.000000
    128          0.445227   0.000000
    129          0.676509   0.000000
    130          0.735773   0.000000
    131          1.173516   0.000000
    132          1.327346   0.000000
    133          1.519570   0.000000
    134          1.547425   0.000000
    135          1.991681   0.000000
    136          2.023291   0.000000
    137          2.592538   0.000000
    138          2.691039   0.000000
    139          2.751698   0.000000
    140          2.823314   0.000000
    141          2.991951   0.000000
    142          3.141877   0.000000
    143          3.224773   0.000000
    144          3.343879   0.000000
    145          3.402831   0.000000
    146          3.514889   0.000000
    147          3.589051   0.000000
    148          3.685608   0.000000

  0.1111111E+00 -0.3333333E+00  0.1262379E-14  0.7407407E-01
      1        -16.838143   1.000000
      2        -16.667169   1.000000
      3        -16.494254   1.000000
      4        -16.420929   1.000000
      5        -16.383378   1.000000
      6        -16.361272   1.000000
      7        -16.349310   1.000000
      8        -16.336712   1.000000
      9        -16.297648   1.000000
     10        -16.277541   1.000000
     11        -16.208480   1.000000
     12        -16.185064   1.000000
     13        -16.129364   1.000000
     14        -16.028649   1.000000
     15        -16.016954   1.000000
     16        -15.986970   1.000000
     17        -15.888470   1.000000
     18        -15.761293   1.000000
     19        -15.707508   1.000000
     20        -15.652854   1.000000
     21        -15.620939   1.000000
     22        -15.585775   1.000000
     23        -15.580525   1.000000
     24        -15.569264   1.000000
     25        -15.563749   1.000000
     26        -15.539611   1.000000
     27        -15.528572   1.000000
     28        -15.482350   1.000000
     29        -15.430239   1.000000
     30        -15.364038   1.000000
     31        -15.321101   1.000000
     32        -15.289044   1.000000
     33        -15.263445   1.000000
     34        -15.247369   1.000000
     35        -15.218405   1.000000
     36        -15.162620   1.000000
     37        -15.152379   1.000000
     38        -15.146298   1.000000
     39        -15.136705   1.000000
     40        -15.118459   1.000000
     41        -14.975405   1.000000
     42        -14.571584   1.000000
     43        -14.312031   1.000000
     44        -14.216819   1.000000
     45        -13.853143   1.000000
     46        -13.810252   1.000000
     47        -13.687905   1.000000
     48        -13.369643   1.000000
     49        -13.124917   1.000000
     50        -13.089324   1.000000
     51        -12.970157   1.000000
     52        -12.907453   1.000000
     53        -12.831020   1.000000
     54        -12.438650   1.000000
     55        -12.280241   1.000000
     56        -12.134921   1.000000
     57         -8.224747   1.000000
     58         -8.123128   1.000000
     59         -7.986647   1.000000
     60         -7.918853   1.000000
     61         -7.855717   1.000000
     62         -7.760979   1.000000
     63         -7.615180   1.000000
     64         -7.565433   1.000000
     65         -7.514604   1.000000
     66         -7.371058   1.000000
     67         -7.303921   1.000000
     68         -7.294972   1.000000
     69         -7.252579   1.000000
     70         -7.231846   1.000000
     71         -7.193370   1.000000
     72         -7.040744   1.000000
     73         -6.999855   1.000000
     74         -6.981276   1.000000
     75         -6.962494   1.000000
     76         -6.943179   1.000000
     77         -6.823620   1.000000
     78         -6.766866   1.000000
     79         -6.741801   1.000000
     80         -6.685812   1.000000
     81         -6.583264   1.000000
     82         -6.235480   1.000000
     83         -5.865190   1.000000
     84         -5.758007   1.000000
     85         -5.454846   1.000000
     86         -5.436500   1.000000
     87         -5.067824   1.000000
     88         -4.873145   1.000000
     89         -4.855203   1.000000
     90         -4.757687   1.000000
     91         -4.573111   1.000000
     92         -4.428154   1.000000
     93         -4.323989   1.000000
     94         -4.149987   1.000000
     95         -4.078386   1.000000
     96         -3.972085   1.000000
     97         -3.884165   1.000000
     98         -3.807208   1.000000
     99         -3.727565   1.000000
    100         -3.599538   1.000000
    101         -3.449321   1.000000
    102         -3.386048   1.000000
    103         -3.186318   1.000000
    104         -3.142235   1.000000
    105         -3.082279   1.000000
    106         -2.922072   1.000000
    107         -2.863482   1.000000
    108         -2.812667   1.000000
    109         -2.715717   1.000000
    110         -2.632213   1.000000
    111         -2.533057   1.000000
    112         -2.469248   1.000000
    113         -2.380829   1.000000
    114         -2.263696   1.000000
    115         -2.250305   1.000000
    116         -2.159180   1.000000
    117         -2.037302   1.000000
    118         -1.893164   1.000000
    119         -1.839914   1.000000
    120         -1.655363   1.000000
    121         -1.481802   1.000000
    122         -1.371152   0.999929
    123         -1.332261   0.996599
    124         -1.301757   0.967380
    125         -1.112694   0.000229
    126         -1.092054   0.000022
    127          0.098782   0.000000
    128          0.445227   0.000000
    129          0.676509   0.000000
    130          0.735773   0.000000
    131          1.173516   0.000000
    132          1.327346   0.000000
    133          1.519570   0.000000
    134          1.547425   0.000000
    135          1.991681   0.000000
    136          2.023291   0.000000
    137          2.592538   0.000000
    138          2.691039   0.000000
    139          2.751698   0.000000
    140          2.823314   0.000000
    141          2.991951   0.000000
    142          3.141877   0.000000
    143          3.224773   0.000000
    144          3.343879   0.000000
    145          3.402831   0.000000
    146          3.514879   0.000000
    147          3.588999   0.000000
    148          3.691453   0.000000

  0.2222222E+00  0.3333333E+00  0.1262379E-14  0.7407407E-01
      1        -16.846936   1.000000
      2        -16.720634   1.000000
      3        -16.516989   1.000000
      4        -16.401656   1.000000
      5        -16.394670   1.000000
      6        -16.363025   1.000000
      7        -16.344606   1.000000
      8        -16.329223   1.000000
      9        -16.308175   1.000000
     10        -16.264206   1.000000
     11        -16.207461   1.000000
     12        -16.194710   1.000000
     13        -16.160135   1.000000
     14        -16.005530   1.000000
     15        -16.002821   1.000000
     16        -15.996545   1.000000
     17        -15.917808   1.000000
     18        -15.860726   1.000000
     19        -15.750219   1.000000
     20        -15.635414   1.000000
     21        -15.602345   1.000000
     22        -15.594776   1.000000
     23        -15.570022   1.000000
     24        -15.560164   1.000000
     25        -15.553294   1.000000
     26        -15.543898   1.000000
     27        -15.502161   1.000000
     28        -15.487186   1.000000
     29        -15.460308   1.000000
     30        -15.386424   1.000000
     31        -15.301684   1.000000
     32        -15.297630   1.000000
     33        -15.283136   1.000000
     34        -15.275229   1.000000
     35        -15.223600   1.000000
     36        -15.154016   1.000000
     37        -15.145379   1.000000
     38        -15.137441   1.000000
     39        -15.135748   1.000000
     40        -15.130110   1.000000
     41        -14.714120   1.000000
     42        -14.366645   1.000000
     43        -14.108690   1.000000
     44        -14.017584   1.000000
     45        -13.674312   1.000000
     46        -13.631621   1.000000
     47        -13.557514   1.000000
     48        -13.195611   1.000000
     49        -13.015483   1.000000
     50        -12.971186   1.000000
     51        -12.943123   1.000000
     52        -12.778264   1.000000
     53        -12.728994   1.000000
     54        -12.294092   1.000000
     55        -12.260763   1.000000
     56        -12.041476   1.000000
     57         -8.198010   1.000000
     58         -8.060752   1.000000
     59         -7.963822   1.000000
     60         -7.909479   1.000000
     61         -7.885943   1.000000
     62         -7.748123   1.000000
     63         -7.586227   1.000000
     64         -7.542926   1.000000
     65         -7.456114   1.000000
     66         -7.355494   1.000000
     67         -7.302155   1.000000
     68         -7.286523   1.000000
     69         -7.257056   1.000000
     70         -7.229379   1.000000
     71         -7.168406   1.000000
     72         -7.032298   1.000000
     73         -6.993178   1.000000
     74         -6.989592   1.000000
     75         -6.976353   1.000000
     76         -6.942992   1.000000
     77         -6.918085   1.000000
     78         -6.757694   1.000000
     79         -6.733822   1.000000
     80         -6.678267   1.000000
     81         -6.626343   1.000000
     82         -6.397584   1.000000
     83         -6.022288   1.000000
     84         -5.868360   1.000000
     85         -5.563863   1.000000
     86         -5.425551   1.000000
     87         -5.394212   1.000000
     88         -5.227218   1.000000
     89         -5.184558   1.000000
     90         -4.963629   1.000000
     91         -4.934699   1.000000
     92         -4.722563   1.000000
     93         -4.601174   1.000000
     94         -4.505929   1.000000
     95         -4.427892   1.000000
     96         -4.268918   1.000000
     97         -4.205603   1.000000
     98         -4.128724   1.000000
     99         -3.965606   1.000000
    100         -3.891702   1.000000
    101         -3.833974   1.000000
    102         -3.673621   1.000000
    103         -3.583610   1.000000
    104         -3.449505   1.000000
    105         -3.389511   1.000000
    106         -3.276819   1.000000
    107         -3.126088   1.000000
    108         -3.043983   1.000000
    109         -2.970984   1.000000
    110         -2.863360   1.000000
    111         -2.747716   1.000000
    112         -2.715174   1.000000
    113         -2.664723   1.000000
    114         -2.475200   1.000000
    115         -2.326681   1.000000
    116         -2.236823   1.000000
    117         -2.115671   1.000000
    118         -2.068946   1.000000
    119         -2.017188   1.000000
    120         -1.782783   1.000000
    121         -1.530712   1.000000
    122         -1.476736   1.000000
    123         -1.422519   1.000000
    124         -1.284676   0.913164
    125         -1.100255   0.000058
    126         -1.061963   0.000000
    127          0.234492   0.000000
    128          0.608445   0.000000
    129          0.862473   0.000000
    130          0.991818   0.000000
    131          1.220738   0.000000
    132          1.408132   0.000000
    133          1.615676   0.000000
    134          1.981088   0.000000
    135          2.312995   0.000000
    136          2.424527   0.000000
    137          2.502145   0.000000
    138          2.670986   0.000000
    139          2.941039   0.000000
    140          3.054379   0.000000
    141          3.115153   0.000000
    142          3.306488   0.000000
    143          3.410455   0.000000
    144          3.541948   0.000000
    145          3.656957   0.000000
    146          3.755812   0.000000
    147          3.782604   0.000000
    148          3.989928   0.000000

  0.2222222E+00 -0.3333333E+00  0.1262379E-14  0.7407407E-01
      1        -16.846936   1.000000
      2        -16.720634   1.000000
      3        -16.516989   1.000000
      4        -16.401656   1.000000
      5        -16.394670   1.000000
      6        -16.363025   1.000000
      7        -16.344606   1.000000
      8        -16.329223   1.000000
      9        -16.308175   1.000000
     10        -16.264206   1.000000
     11        -16.207461   1.000000
     12        -16.194710   1.000000
     13        -16.160135   1.000000
     14        -16.005530   1.000000
     15        -16.002821   1.000000
     16        -15.996545   1.000000
     17        -15.917808   1.000000
     18        -15.860726   1.000000
     19        -15.750219   1.000000
     20        -15.635414   1.000000
     21        -15.602345   1.000000
     22        -15.594776   1.000000
     23        -15.570022   1.000000
     24        -15.560164   1.000000
     25        -15.553294   1.000000
     26        -15.543898   1.000000
     27        -15.502161   1.000000
     28        -15.487186   1.000000
     29        -15.460308   1.000000
     30        -15.386424   1.000000
     31        -15.301684   1.000000
     32        -15.297630   1.000000
     33        -15.283136   1.000000
     34        -15.275229   1.000000
     35        -15.223600   1.000000
     36        -15.154016   1.000000
     37        -15.145379   1.000000
     38        -15.137441   1.000000
     39        -15.135748   1.000000
     40        -15.130110   1.000000
     41        -14.714120   1.000000
     42        -14.366645   1.000000
     43        -14.108690   1.000000
     44        -14.017584   1.000000
     45        -13.674312   1.000000
     46        -13.631621   1.000000
     47        -13.557514   1.000000
     48        -13.195611   1.000000
     49        -13.015483   1.000000
     50        -12.971186   1.000000
     51        -12.943123   1.000000
     52        -12.778264   1.000000
     53        -12.728994   1.000000
     54        -12.294092   1.000000
     55        -12.260763   1.000000
     56        -12.041476   1.000000
     57         -8.198010   1.000000
     58         -8.060752   1.000000
     59         -7.963822   1.000000
     60         -7.909479   1.000000
     61         -7.885943   1.000000
     62         -7.748123   1.000000
     63         -7.586227   1.000000
     64         -7.542926   1.000000
     65         -7.456114   1.000000
     66         -7.355494   1.000000
     67         -7.302155   1.000000
     68         -7.286523   1.000000
     69         -7.257056   1.000000
     70         -7.229379   1.000000
     71         -7.168406   1.000000
     72         -7.032298   1.000000
     73         -6.993178   1.000000
     74         -6.989592   1.000000
     75         -6.976353   1.000000
     76         -6.942992   1.000000
     77         -6.918085   1.000000
     78         -6.757694   1.000000
     79         -6.733822   1.000000
     80         -6.678267   1.000000
     81         -6.626343   1.000000
     82         -6.397584   1.000000
     83         -6.022288   1.000000
     84         -5.868360   1.000000
     85         -5.563863   1.000000
     86         -5.425551   1.000000
     87         -5.394212   1.000000
     88         -5.227218   1.000000
     89         -5.184558   1.000000
     90         -4.963629   1.000000
     91         -4.934699   1.000000
     92         -4.722563   1.000000
     93         -4.601174   1.000000
     94         -4.505929   1.000000
     95         -4.427892   1.000000
     96         -4.268918   1.000000
     97         -4.205603   1.000000
     98         -4.128724   1.000000
     99         -3.965606   1.000000
    100         -3.891702   1.000000
    101         -3.833974   1.000000
    102         -3.673621   1.000000
    103         -3.583610   1.000000
    104         -3.449505   1.000000
    105         -3.389511   1.000000
    106         -3.276819   1.000000
    107         -3.126088   1.000000
    108         -3.043983   1.000000
    109         -2.970984   1.000000
    110         -2.863360   1.000000
    111         -2.747716   1.000000
    112         -2.715174   1.000000
    113         -2.664723   1.000000
    114         -2.475200   1.000000
    115         -2.326681   1.000000
    116         -2.236823   1.000000
    117         -2.115671   1.000000
    118         -2.068946   1.000000
    119         -2.017188   1.000000
    120         -1.782783   1.000000
    121         -1.530712   1.000000
    122         -1.476736   1.000000
    123         -1.422519   1.000000
    124         -1.284676   0.913164
    125         -1.100255   0.000058
    126         -1.061963   0.000000
    127          0.234492   0.000000
    128          0.608445   0.000000
    129          0.862473   0.000000
    130          0.991818   0.000000
    131          1.220738   0.000000
    132          1.408132   0.000000
    133          1.615676   0.000000
    134          1.981088   0.000000
    135          2.312995   0.000000
    136          2.424527   0.000000
    137          2.502145   0.000000
    138          2.670986   0.000000
    139          2.941039   0.000000
    140          3.054379   0.000000
    141          3.115153   0.000000
    142          3.306488   0.000000
    143          3.410455   0.000000
    144          3.541948   0.000000
    145          3.656955   0.000000
    146          3.755806   0.000000
    147          3.782534   0.000000
    148          3.992462   0.000000

  0.3333333E+00  0.3333333E+00  0.1262379E-14  0.7407407E-01
      1        -16.860351   1.000000
      2        -16.787467   1.000000
      3        -16.519308   1.000000
      4        -16.428859   1.000000
      5        -16.394460   1.000000
      6        -16.367711   1.000000
      7        -16.338836   1.000000
      8        -16.319606   1.000000
      9        -16.300718   1.000000
     10        -16.265883   1.000000
     11        -16.224828   1.000000
     12        -16.180607   1.000000
     13        -16.165039   1.000000
     14        -16.033682   1.000000
     15        -16.013156   1.000000
     16        -15.995023   1.000000
     17        -15.973598   1.000000
     18        -15.877087   1.000000
     19        -15.772770   1.000000
     20        -15.625200   1.000000
     21        -15.612493   1.000000
     22        -15.608432   1.000000
     23        -15.576008   1.000000
     24        -15.558005   1.000000
     25        -15.553995   1.000000
     26        -15.531469   1.000000
     27        -15.491533   1.000000
     28        -15.465426   1.000000
     29        -15.447215   1.000000
     30        -15.412803   1.000000
     31        -15.344183   1.000000
     32        -15.288381   1.000000
     33        -15.279060   1.000000
     34        -15.266442   1.000000
     35        -15.217416   1.000000
     36        -15.160319   1.000000
     37        -15.145203   1.000000
     38        -15.142959   1.000000
     39        -15.118731   1.000000
     40        -15.114316   1.000000
     41        -14.358132   1.000000
     42        -14.079212   1.000000
     43        -13.868926   1.000000
     44        -13.763166   1.000000
     45        -13.472983   1.000000
     46        -13.459264   1.000000
     47        -13.405845   1.000000
     48        -13.005610   1.000000
     49        -12.991626   1.000000
     50        -12.887083   1.000000
     51        -12.813330   1.000000
     52        -12.706227   1.000000
     53        -12.532164   1.000000
     54        -12.240896   1.000000
     55        -12.111775   1.000000
     56        -11.932597   1.000000
     57         -8.139898   1.000000
     58         -8.006579   1.000000
     59         -7.936157   1.000000
     60         -7.918427   1.000000
     61         -7.896829   1.000000
     62         -7.838032   1.000000
     63         -7.614168   1.000000
     64         -7.501791   1.000000
     65         -7.457724   1.000000
     66         -7.385727   1.000000
     67         -7.352154   1.000000
     68         -7.303232   1.000000
     69         -7.266500   1.000000
     70         -7.257201   1.000000
     71         -7.219317   1.000000
     72         -7.115876   1.000000
     73         -7.077861   1.000000
     74         -7.019813   1.000000
     75         -6.963452   1.000000
     76         -6.957474   1.000000
     77         -6.940263   1.000000
     78         -6.832736   1.000000
     79         -6.745325   1.000000
     80         -6.704133   1.000000
     81         -6.648586   1.000000
     82         -6.573869   1.000000
     83         -6.477425   1.000000
     84         -6.066161   1.000000
     85         -5.943808   1.000000
     86         -5.722461   1.000000
     87         -5.564918   1.000000
     88         -5.489790   1.000000
     89         -5.375384   1.000000
     90         -5.225158   1.000000
     91         -5.087227   1.000000
     92         -5.007285   1.000000
     93         -4.853807   1.000000
     94         -4.779073   1.000000
     95         -4.730387   1.000000
     96         -4.599982   1.000000
     97         -4.479800   1.000000
     98         -4.359035   1.000000
     99         -4.204486   1.000000
    100         -4.083401   1.000000
    101         -4.042488   1.000000
    102         -3.937929   1.000000
    103         -3.801049   1.000000
    104         -3.711765   1.000000
    105         -3.661641   1.000000
    106         -3.448003   1.000000
    107         -3.268975   1.000000
    108         -3.205869   1.000000
    109         -3.056760   1.000000
    110         -2.976035   1.000000
    111         -2.890466   1.000000
    112         -2.774925   1.000000
    113         -2.722398   1.000000
    114         -2.622557   1.000000
    115         -2.496030   1.000000
    116         -2.382814   1.000000
    117         -2.283915   1.000000
    118         -2.209014   1.000000
    119         -2.075510   1.000000
    120         -1.846246   1.000000
    121         -1.733748   1.000000
    122         -1.682836   1.000000
    123         -1.425942   1.000000
    124         -1.262915   0.771868
    125         -1.173006   0.036087
    126         -1.036879   0.000000
    127          0.289566   0.000000
    128          0.625220   0.000000
    129          0.785948   0.000000
    130          0.911325   0.000000
    131          1.078350   0.000000
    132          1.205660   0.000000
    133          1.627623   0.000000
    134          1.846075   0.000000
    135          1.960599   0.000000
    136          2.232127   0.000000
    137          2.372506   0.000000
    138          2.718012   0.000000
    139          2.903078   0.000000
    140          2.954526   0.000000
    141          3.195640   0.000000
    142          3.272340   0.000000
    143          3.426745   0.000000
    144          3.629170   0.000000
    145          3.756063   0.000000
    146          3.837179   0.000000
    147          3.964463   0.000000
    148          4.124705   0.000000

  0.3333333E+00 -0.3333333E+00  0.1262379E-14  0.7407407E-01
      1        -16.860351   1.000000
      2        -16.787467   1.000000
      3        -16.519308   1.000000
      4        -16.428859   1.000000
      5        -16.394460   1.000000
      6        -16.367711   1.000000
      7        -16.338836   1.000000
      8        -16.319606   1.000000
      9        -16.300718   1.000000
     10        -16.265883   1.000000
     11        -16.224828   1.000000
     12        -16.180607   1.000000
     13        -16.165039   1.000000
     14        -16.033682   1.000000
     15        -16.013156   1.000000
     16        -15.995023   1.000000
     17        -15.973598   1.000000
     18        -15.877087   1.000000
     19        -15.772770   1.000000
     20        -15.625200   1.000000
     21        -15.612493   1.000000
     22        -15.608432   1.000000
     23        -15.576008   1.000000
     24        -15.558005   1.000000
     25        -15.553995   1.000000
     26        -15.531469   1.000000
     27        -15.491533   1.000000
     28        -15.465426   1.000000
     29        -15.447215   1.000000
     30        -15.412803   1.000000
     31        -15.344183   1.000000
     32        -15.288381   1.000000
     33        -15.279060   1.000000
     34        -15.266442   1.000000
     35        -15.217416   1.000000
     36        -15.160319   1.000000
     37        -15.145203   1.000000
     38        -15.142959   1.000000
     39        -15.118731   1.000000
     40        -15.114316   1.000000
     41        -14.358132   1.000000
     42        -14.079212   1.000000
     43        -13.868926   1.000000
     44        -13.763166   1.000000
     45        -13.472983   1.000000
     46        -13.459264   1.000000
     47        -13.405845   1.000000
     48        -13.005610   1.000000
     49        -12.991626   1.000000
     50        -12.887083   1.000000
     51        -12.813330   1.000000
     52        -12.706227   1.000000
     53        -12.532164   1.000000
     54        -12.240896   1.000000
     55        -12.111775   1.000000
     56        -11.932597   1.000000
     57         -8.139898   1.000000
     58         -8.006579   1.000000
     59         -7.936157   1.000000
     60         -7.918427   1.000000
     61         -7.896829   1.000000
     62         -7.838032   1.000000
     63         -7.614168   1.000000
     64         -7.501791   1.000000
     65         -7.457724   1.000000
     66         -7.385727   1.000000
     67         -7.352154   1.000000
     68         -7.303232   1.000000
     69         -7.266500   1.000000
     70         -7.257201   1.000000
     71         -7.219317   1.000000
     72         -7.115876   1.000000
     73         -7.077861   1.000000
     74         -7.019813   1.000000
     75         -6.963452   1.000000
     76         -6.957474   1.000000
     77         -6.940263   1.000000
     78         -6.832736   1.000000
     79         -6.745325   1.000000
     80         -6.704133   1.000000
     81         -6.648586   1.000000
     82         -6.573869   1.000000
     83         -6.477425   1.000000
     84         -6.066161   1.000000
     85         -5.943808   1.000000
     86         -5.722461   1.000000
     87         -5.564918   1.000000
     88         -5.489790   1.000000
     89         -5.375384   1.000000
     90         -5.225158   1.000000
     91         -5.087227   1.000000
     92         -5.007285   1.000000
     93         -4.853807   1.000000
     94         -4.779073   1.000000
     95         -4.730387   1.000000
     96         -4.599982   1.000000
     97         -4.479800   1.000000
     98         -4.359035   1.000000
     99         -4.204486   1.000000
    100         -4.083401   1.000000
    101         -4.042488   1.000000
    102         -3.937929   1.000000
    103         -3.801049   1.000000
    104         -3.711765   1.000000
    105         -3.661641   1.000000
    106         -3.448003   1.000000
    107         -3.268975   1.000000
    108         -3.205869   1.000000
    109         -3.056760   1.000000
    110         -2.976035   1.000000
    111         -2.890466   1.000000
    112         -2.774925   1.000000
    113         -2.722398   1.000000
    114         -2.622557   1.000000
    115         -2.496030   1.000000
    116         -2.382814   1.000000
    117         -2.283915   1.000000
    118         -2.209014   1.000000
    119         -2.075510   1.000000
    120         -1.846246   1.000000
    121         -1.733748   1.000000
    122         -1.682836   1.000000
    123         -1.425942   1.000000
    124         -1.262915   0.771868
    125         -1.173006   0.036087
    126         -1.036879   0.000000
    127          0.289566   0.000000
    128          0.625220   0.000000
    129          0.785948   0.000000
    130          0.911326   0.000000
    131          1.078350   0.000000
    132          1.205660   0.000000
    133          1.627623   0.000000
    134          1.846075   0.000000
    135          1.960599   0.000000
    136          2.232127   0.000000
    137          2.372506   0.000000
    138          2.718012   0.000000
    139          2.903078   0.000000
    140          2.954526   0.000000
    141          3.195640   0.000000
    142          3.272340   0.000000
    143          3.426745   0.000000
    144          3.629170   0.000000
    145          3.756063   0.000000
    146          3.837179   0.000000
    147          3.964464   0.000000
    148          4.124700   0.000000

  0.4444444E+00  0.3333333E+00  0.1262379E-14  0.7407407E-01
      1        -16.866248   1.000000
      2        -16.834823   1.000000
      3        -16.517221   1.000000
      4        -16.455686   1.000000
      5        -16.393791   1.000000
      6        -16.372876   1.000000
      7        -16.339282   1.000000
      8        -16.307466   1.000000
      9        -16.290110   1.000000
     10        -16.275564   1.000000
     11        -16.236566   1.000000
     12        -16.168258   1.000000
     13        -16.160210   1.000000
     14        -16.080629   1.000000
     15        -16.022707   1.000000
     16        -16.021115   1.000000
     17        -15.973196   1.000000
     18        -15.849569   1.000000
     19        -15.796845   1.000000
     20        -15.649557   1.000000
     21        -15.621958   1.000000
     22        -15.612022   1.000000
     23        -15.562471   1.000000
     24        -15.558138   1.000000
     25        -15.545629   1.000000
     26        -15.512833   1.000000
     27        -15.478528   1.000000
     28        -15.466331   1.000000
     29        -15.438934   1.000000
     30        -15.426632   1.000000
     31        -15.357750   1.000000
     32        -15.296594   1.000000
     33        -15.275450   1.000000
     34        -15.245455   1.000000
     35        -15.212382   1.000000
     36        -15.167244   1.000000
     37        -15.151203   1.000000
     38        -15.143381   1.000000
     39        -15.105998   1.000000
     40        -15.096259   1.000000
     41        -14.024916   1.000000
     42        -13.846306   1.000000
     43        -13.681989   1.000000
     44        -13.566339   1.000000
     45        -13.418134   1.000000
     46        -13.369531   1.000000
     47        -13.302257   1.000000
     48        -13.085963   1.000000
     49        -12.846785   1.000000
     50        -12.804053   1.000000
     51        -12.713402   1.000000
     52        -12.683118   1.000000
     53        -12.405985   1.000000
     54        -12.219303   1.000000
     55        -11.977584   1.000000
     56        -11.865532   1.000000
     57         -8.090078   1.000000
     58         -8.011416   1.000000
     59         -7.978911   1.000000
     60         -7.942656   1.000000
     61         -7.880283   1.000000
     62         -7.866038   1.000000
     63         -7.800582   1.000000
     64         -7.646406   1.000000
     65         -7.473392   1.000000
     66         -7.456217   1.000000
     67         -7.338371   1.000000
     68         -7.314637   1.000000
     69         -7.289992   1.000000
     70         -7.265035   1.000000
     71         -7.222419   1.000000
     72         -7.127752   1.000000
     73         -7.089651   1.000000
     74         -7.059532   1.000000
     75         -7.031792   1.000000
     76         -6.964670   1.000000
     77         -6.929776   1.000000
     78         -6.889101   1.000000
     79         -6.833895   1.000000
     80         -6.775231   1.000000
     81         -6.739729   1.000000
     82         -6.665349   1.000000
     83         -6.554468   1.000000
     84         -6.249109   1.000000
     85         -6.223064   1.000000
     86         -6.020517   1.000000
     87         -5.784457   1.000000
     88         -5.566771   1.000000
     89         -5.507056   1.000000
     90         -5.367821   1.000000
     91         -5.302376   1.000000
     92         -5.110125   1.000000
     93         -5.070952   1.000000
     94         -4.898319   1.000000
     95         -4.806530   1.000000
     96         -4.745380   1.000000
     97         -4.638257   1.000000
     98         -4.366533   1.000000
     99         -4.172174   1.000000
    100         -4.114375   1.000000
    101         -4.031307   1.000000
    102         -3.984045   1.000000
    103         -3.895771   1.000000
    104         -3.810075   1.000000
    105         -3.695719   1.000000
    106         -3.556061   1.000000
    107         -3.310213   1.000000
    108         -3.251275   1.000000
    109         -3.135502   1.000000
    110         -3.071610   1.000000
    111         -2.985763   1.000000
    112         -2.793350   1.000000
    113         -2.764955   1.000000
    114         -2.722861   1.000000
    115         -2.632464   1.000000
    116         -2.549229   1.000000
    117         -2.379777   1.000000
    118         -2.210445   1.000000
    119         -2.098095   1.000000
    120         -1.972856   1.000000
    121         -1.880896   1.000000
    122         -1.806374   1.000000
    123         -1.399897   0.999998
    124         -1.311946   0.983489
    125         -1.253580   0.684732
    126         -1.023614   0.000000
    127          0.297909   0.000000
    128          0.564917   0.000000
    129          0.618659   0.000000
    130          0.869541   0.000000
    131          0.997827   0.000000
    132          1.107480   0.000000
    133          1.590375   0.000000
    134          1.680544   0.000000
    135          1.753753   0.000000
    136          2.038332   0.000000
    137          2.355175   0.000000
    138          2.473008   0.000000
    139          2.798997   0.000000
    140          3.035084   0.000000
    141          3.189398   0.000000
    142          3.251038   0.000000
    143          3.412189   0.000000
    144          3.513681   0.000000
    145          3.701188   0.000000
    146          3.860203   0.000000
    147          3.910212   0.000000
    148          4.021432   0.000000

  0.4444444E+00 -0.3333333E+00  0.1262379E-14  0.7407407E-01
      1        -16.866248   1.000000
      2        -16.834823   1.000000
      3        -16.517221   1.000000
      4        -16.455686   1.000000
      5        -16.393791   1.000000
      6        -16.372876   1.000000
      7        -16.339282   1.000000
      8        -16.307466   1.000000
      9        -16.290110   1.000000
     10        -16.275564   1.000000
     11        -16.236566   1.000000
     12        -16.168258   1.000000
     13        -16.160210   1.000000
     14        -16.080629   1.000000
     15        -16.022707   1.000000
     16        -16.021115   1.000000
     17        -15.973196   1.000000
     18        -15.849569   1.000000
     19        -15.796845   1.000000
     20        -15.649557   1.000000
     21        -15.621958   1.000000
     22        -15.612022   1.000000
     23        -15.562471   1.000000
     24        -15.558138   1.000000
     25        -15.545629   1.000000
     26        -15.512833   1.000000
     27        -15.478528   1.000000
     28        -15.466331   1.000000
     29        -15.438934   1.000000
     30        -15.426632   1.000000
     31        -15.357750   1.000000
     32        -15.296594   1.000000
     33        -15.275450   1.000000
     34        -15.245455   1.000000
     35        -15.212382   1.000000
     36        -15.167244   1.000000
     37        -15.151203   1.000000
     38        -15.143381   1.000000
     39        -15.105998   1.000000
     40        -15.096259   1.000000
     41        -14.024916   1.000000
     42        -13.846306   1.000000
     43        -13.681989   1.000000
     44        -13.566339   1.000000
     45        -13.418134   1.000000
     46        -13.369531   1.000000
     47        -13.302257   1.000000
     48        -13.085963   1.000000
     49        -12.846785   1.000000
     50        -12.804053   1.000000
     51        -12.713402   1.000000
     52        -12.683118   1.000000
     53        -12.405985   1.000000
     54        -12.219303   1.000000
     55        -11.977584   1.000000
     56        -11.865532   1.000000
     57         -8.090078   1.000000
     58         -8.011416   1.000000
     59         -7.978911   1.000000
     60         -7.942656   1.000000
     61         -7.880283   1.000000
     62         -7.866038   1.000000
     63         -7.800582   1.000000
     64         -7.646406   1.000000
     65         -7.473392   1.000000
     66         -7.456217   1.000000
     67         -7.338371   1.000000
     68         -7.314637   1.000000
     69         -7.289992   1.000000
     70         -7.265035   1.000000
     71         -7.222419   1.000000
     72         -7.127752   1.000000
     73         -7.089651   1.000000
     74         -7.059532   1.000000
     75         -7.031792   1.000000
     76         -6.964670   1.000000
     77         -6.929776   1.000000
     78         -6.889101   1.000000
     79         -6.833895   1.000000
     80         -6.775231   1.000000
     81         -6.739729   1.000000
     82         -6.665349   1.000000
     83         -6.554468   1.000000
     84         -6.249109   1.000000
     85         -6.223064   1.000000
     86         -6.020517   1.000000
     87         -5.784457   1.000000
     88         -5.566771   1.000000
     89         -5.507056   1.000000
     90         -5.367821   1.000000
     91         -5.302376   1.000000
     92         -5.110125   1.000000
     93         -5.070952   1.000000
     94         -4.898319   1.000000
     95         -4.806530   1.000000
     96         -4.745380   1.000000
     97         -4.638257   1.000000
     98         -4.366533   1.000000
     99         -4.172174   1.000000
    100         -4.114375   1.000000
    101         -4.031307   1.000000
    102         -3.984045   1.000000
    103         -3.895771   1.000000
    104         -3.810075   1.000000
    105         -3.695719   1.000000
    106         -3.556061   1.000000
    107         -3.310213   1.000000
    108         -3.251275   1.000000
    109         -3.135502   1.000000
    110         -3.071610   1.000000
    111         -2.985763   1.000000
    112         -2.793350   1.000000
    113         -2.764955   1.000000
    114         -2.722861   1.000000
    115         -2.632464   1.000000
    116         -2.549229   1.000000
    117         -2.379777   1.000000
    118         -2.210445   1.000000
    119         -2.098095   1.000000
    120         -1.972856   1.000000
    121         -1.880896   1.000000
    122         -1.806374   1.000000
    123         -1.399897   0.999998
    124         -1.311946   0.983489
    125         -1.253580   0.684732
    126         -1.023614   0.000000
    127          0.297909   0.000000
    128          0.564917   0.000000
    129          0.618659   0.000000
    130          0.869541   0.000000
    131          0.997827   0.000000
    132          1.107480   0.000000
    133          1.590375   0.000000
    134          1.680544   0.000000
    135          1.753753   0.000000
    136          2.038332   0.000000
    137          2.355175   0.000000
    138          2.473008   0.000000
    139          2.798997   0.000000
    140          3.035084   0.000000
    141          3.189398   0.000000
    142          3.251038   0.000000
    143          3.412189   0.000000
    144          3.513681   0.000000
    145          3.701188   0.000000
    146          3.860203   0.000000
    147          3.910208   0.000000
    148          4.021386   0.000000
