WP2-P01-B0-beta100-static-dipole        
           1
     3.878284    0.000000    0.000000
     0.000000   12.148433    0.000000
     0.000000    0.000000   32.315207
   S    In   Zn   S    In   Zn
     8     4     2     8     4     2
Direct configuration=           1
   1.00000000  0.90321352  0.44803232
   0.50000000  0.90321352  0.34409695
   0.49999998  0.61200518  0.48267744
   0.99999998  0.61200518  0.37874208
   1.00000000  0.38230274  0.44803232
   0.50000000  0.38230274  0.34409695
   0.00000000  0.12781655  0.30945184
   0.50000000  0.12781655  0.41338720
   0.49999998  0.81375544  0.48267744
   0.99999998  0.81375544  0.37874208
   0.00000000  0.48646010  0.30945184
   0.50000000  0.48646010  0.41338720
   1.00000000  0.17344651  0.44803232
   0.50000000  0.17344651  0.34409695
   1.00000000  0.90321352  0.65590304
   0.50000000  0.90321352  0.55196768
   0.49999998  0.61200518  0.69054816
   0.99999998  0.61200518  0.58661280
   1.00000000  0.38230274  0.65590304
   0.50000000  0.38230274  0.55196768
   0.00000000  0.12781655  0.51732256
   0.50000000  0.12781655  0.62125792
   0.49999998  0.81375544  0.69054816
   0.99999998  0.81375544  0.58661280
   0.00000000  0.48646010  0.51732256
   0.50000000  0.48646010  0.62125792
   1.00000000  0.17344651  0.65590304
   0.50000000  0.17344651  0.55196768
