  14  14   0   0
  0.2262920E+02  0.3850000E-09  0.3850000E-09  0.2468000E-08  0.5000000E-15
  1.000000000000000E-004
  CAR 
 ZnIn2S4 bulk PBE-D3BJ relaxation        
     12.45569480    -12.53261193  301      4.32601361      1.00000000
    -12.533  0.0000E+00  0.0000E+00
    -12.449  0.0000E+00  0.0000E+00
    -12.366  0.0000E+00  0.0000E+00
    -12.283  0.0000E+00  0.0000E+00
    -12.199  0.0000E+00  0.0000E+00
    -12.116  0.0000E+00  0.0000E+00
    -12.033  0.0000E+00  0.0000E+00
    -11.950  0.0000E+00  0.0000E+00
    -11.866  0.0000E+00  0.0000E+00
    -11.783  0.0000E+00  0.0000E+00
    -11.700  0.0000E+00  0.0000E+00
    -11.616  0.6665E-11  0.5552E-12
    -11.533  0.2132E-05  0.1775E-06
    -11.450  0.3984E-02  0.3320E-03
    -11.366  0.8482E-01  0.7397E-02
    -11.283  0.9116E-01  0.1499E-01
    -11.200  0.4870E-01  0.1905E-01
    -11.117  0.5683E-01  0.2378E-01
    -11.033  0.1789E+00  0.3868E-01
    -10.950  0.1594E+00  0.5196E-01
    -10.867  0.3077E+00  0.7759E-01
    -10.783  0.2532E+00  0.9867E-01
    -10.700  0.1591E-01  0.1000E+00
    -10.617  0.1498E-04  0.1000E+00
    -10.534  0.3949E-09  0.1000E+00
    -10.450  0.1475E-04  0.1000E+00
    -10.367  0.6347E-02  0.1005E+00
    -10.284  0.7414E-01  0.1067E+00
    -10.200  0.8880E-01  0.1141E+00
    -10.117  0.3714E-01  0.1172E+00
    -10.034  0.4751E-01  0.1212E+00
     -9.950  0.1293E+00  0.1319E+00
     -9.867  0.2368E+00  0.1516E+00
     -9.784  0.4125E+00  0.1860E+00
     -9.701  0.1747E+00  0.2006E+00
     -9.617  0.1276E-01  0.2016E+00
     -9.534  0.2861E-02  0.2019E+00
     -9.451  0.8058E-02  0.2025E+00
     -9.367  0.1099E-01  0.2034E+00
     -9.284  0.4702E-02  0.2038E+00
     -9.201  0.8467E-02  0.2045E+00
     -9.118  0.9364E-02  0.2053E+00
     -9.034  0.1198E-01  0.2063E+00
     -8.951  0.5831E-02  0.2068E+00
     -8.868  0.1461E-01  0.2080E+00
     -8.784  0.1857E-01  0.2096E+00
     -8.701  0.2533E-01  0.2117E+00
     -8.618  0.2563E-01  0.2138E+00
     -8.534  0.3375E-01  0.2166E+00
     -8.451  0.4780E-01  0.2206E+00
     -8.368  0.3672E-01  0.2237E+00
     -8.285  0.4937E-01  0.2278E+00
     -8.201  0.3384E-01  0.2306E+00
     -8.118  0.2074E-01  0.2323E+00
     -8.035  0.3868E-01  0.2355E+00
     -7.951  0.3658E-01  0.2386E+00
     -7.868  0.5440E-01  0.2431E+00
     -7.785  0.5314E-01  0.2475E+00
     -7.702  0.4736E-01  0.2515E+00
     -7.618  0.4805E-01  0.2555E+00
     -7.535  0.6249E-01  0.2607E+00
     -7.452  0.2415E-01  0.2627E+00
     -7.368  0.1506E-01  0.2640E+00
     -7.285  0.1258E-01  0.2650E+00
     -7.202  0.1634E-01  0.2664E+00
     -7.118  0.2043E-01  0.2681E+00
     -7.035  0.2884E-01  0.2705E+00
     -6.952  0.5592E-01  0.2751E+00
     -6.869  0.5553E-01  0.2798E+00
     -6.785  0.2827E-02  0.2800E+00
     -6.702  0.1685E-05  0.2800E+00
     -6.619  0.5804E-11  0.2800E+00
     -6.535  0.0000E+00  0.2800E+00
     -6.452  0.0000E+00  0.2800E+00
     -6.369  0.0000E+00  0.2800E+00
     -6.286  0.0000E+00  0.2800E+00
     -6.202  0.0000E+00  0.2800E+00
     -6.119  0.0000E+00  0.2800E+00
     -6.036  0.0000E+00  0.2800E+00
     -5.952  0.0000E+00  0.2800E+00
     -5.869  0.0000E+00  0.2800E+00
     -5.786  0.0000E+00  0.2800E+00
     -5.702  0.0000E+00  0.2800E+00
     -5.619  0.0000E+00  0.2800E+00
     -5.536  0.0000E+00  0.2800E+00
     -5.453  0.0000E+00  0.2800E+00
     -5.369  0.0000E+00  0.2800E+00
     -5.286  0.0000E+00  0.2800E+00
     -5.203  0.0000E+00  0.2800E+00
     -5.119  0.0000E+00  0.2800E+00
     -5.036  0.0000E+00  0.2800E+00
     -4.953  0.0000E+00  0.2800E+00
     -4.870  0.0000E+00  0.2800E+00
     -4.786  0.0000E+00  0.2800E+00
     -4.703  0.0000E+00  0.2800E+00
     -4.620  0.0000E+00  0.2800E+00
     -4.536  0.0000E+00  0.2800E+00
     -4.453  0.0000E+00  0.2800E+00
     -4.370  0.0000E+00  0.2800E+00
     -4.286  0.0000E+00  0.2800E+00
     -4.203  0.0000E+00  0.2800E+00
     -4.120  0.0000E+00  0.2800E+00
     -4.037  0.0000E+00  0.2800E+00
     -3.953  0.0000E+00  0.2800E+00
     -3.870  0.0000E+00  0.2800E+00
     -3.787  0.0000E+00  0.2800E+00
     -3.703  0.0000E+00  0.2800E+00
     -3.620  0.0000E+00  0.2800E+00
     -3.537  0.0000E+00  0.2800E+00
     -3.454  0.0000E+00  0.2800E+00
     -3.370  0.0000E+00  0.2800E+00
     -3.287  0.0000E+00  0.2800E+00
     -3.204  0.0000E+00  0.2800E+00
     -3.120  0.0000E+00  0.2800E+00
     -3.037  0.0000E+00  0.2800E+00
     -2.954  0.5766E-14  0.2800E+00
     -2.870  0.6363E-08  0.2800E+00
     -2.787  0.3463E-04  0.2800E+00
     -2.704  0.1882E-02  0.2802E+00
     -2.621  0.1005E-01  0.2810E+00
     -2.537  0.1522E-01  0.2823E+00
     -2.454  0.3163E-01  0.2849E+00
     -2.371  0.3039E-01  0.2874E+00
     -2.287  0.1762E-01  0.2889E+00
     -2.204  0.5566E-01  0.2935E+00
     -2.121  0.7054E-01  0.2994E+00
     -2.038  0.1150E+00  0.3090E+00
     -1.954  0.1349E+00  0.3202E+00
     -1.871  0.2046E+00  0.3373E+00
     -1.788  0.1901E+00  0.3531E+00
     -1.704  0.1566E+00  0.3661E+00
     -1.621  0.4531E-01  0.3699E+00
     -1.538  0.1119E+00  0.3792E+00
     -1.454  0.1787E+00  0.3941E+00
     -1.371  0.1132E+00  0.4036E+00
     -1.288  0.5735E-01  0.4083E+00
     -1.205  0.1742E-01  0.4098E+00
     -1.121  0.4695E-02  0.4102E+00
     -1.038  0.1937E-01  0.4118E+00
     -0.955  0.6711E-02  0.4123E+00
     -0.871  0.7311E-03  0.4124E+00
     -0.788  0.8185E-02  0.4131E+00
     -0.705  0.1181E-01  0.4141E+00
     -0.622  0.9252E-02  0.4148E+00
     -0.538  0.1533E-01  0.4161E+00
     -0.455  0.1992E-01  0.4178E+00
     -0.372  0.1063E-01  0.4187E+00
     -0.288  0.2095E-01  0.4204E+00
     -0.205  0.3193E-01  0.4231E+00
     -0.122  0.6266E-01  0.4283E+00
     -0.038  0.6091E-01  0.4334E+00
      0.045  0.4808E-01  0.4374E+00
      0.128  0.5310E-01  0.4418E+00
      0.211  0.5957E-01  0.4468E+00
      0.295  0.4758E-01  0.4507E+00
      0.378  0.3790E-01  0.4539E+00
      0.461  0.2847E-01  0.4562E+00
      0.545  0.5005E-01  0.4604E+00
      0.628  0.6299E-01  0.4657E+00
      0.711  0.5655E-01  0.4704E+00
      0.794  0.6831E-01  0.4761E+00
      0.878  0.4827E-01  0.4801E+00
      0.961  0.3331E-01  0.4829E+00
      1.044  0.2592E-01  0.4850E+00
      1.128  0.4432E-01  0.4887E+00
      1.211  0.4567E-01  0.4925E+00
      1.294  0.2655E-01  0.4947E+00
      1.378  0.5334E-01  0.4992E+00
      1.461  0.6466E-01  0.5045E+00
      1.544  0.5586E-01  0.5092E+00
      1.627  0.4336E-01  0.5128E+00
      1.711  0.5921E-01  0.5177E+00
      1.794  0.5987E-01  0.5227E+00
      1.877  0.4905E-01  0.5268E+00
      1.961  0.5732E-01  0.5316E+00
      2.044  0.4575E-01  0.5354E+00
      2.127  0.3409E-01  0.5382E+00
      2.210  0.6546E-01  0.5437E+00
      2.294  0.5415E-01  0.5482E+00
      2.377  0.3697E-01  0.5513E+00
      2.460  0.2159E-01  0.5531E+00
      2.544  0.3164E-01  0.5557E+00
      2.627  0.4175E-01  0.5592E+00
      2.710  0.5611E-01  0.5639E+00
      2.794  0.4813E-01  0.5679E+00
      2.877  0.6963E-01  0.5737E+00
      2.960  0.2271E-01  0.5756E+00
      3.043  0.3154E-01  0.5782E+00
      3.127  0.6644E-01  0.5837E+00
      3.210  0.7921E-01  0.5903E+00
      3.293  0.4242E-01  0.5939E+00
      3.377  0.7515E-01  0.6001E+00
      3.460  0.7611E-01  0.6065E+00
      3.543  0.3720E-01  0.6096E+00
      3.626  0.2937E-01  0.6120E+00
      3.710  0.9063E-02  0.6128E+00
      3.793  0.1341E-01  0.6139E+00
      3.876  0.1893E-01  0.6155E+00
      3.960  0.9792E-02  0.6163E+00
      4.043  0.1403E-01  0.6174E+00
      4.126  0.1707E-01  0.6189E+00
      4.210  0.1292E-01  0.6199E+00
      4.293  0.7784E-03  0.6200E+00
      4.376  0.3484E-05  0.6200E+00
      4.459  0.1803E-03  0.6200E+00
      4.543  0.2301E-03  0.6200E+00
      4.626  0.1665E-03  0.6200E+00
      4.709  0.2481E-03  0.6201E+00
      4.793  0.4933E-03  0.6201E+00
      4.876  0.2748E-02  0.6203E+00
      4.959  0.1711E-02  0.6205E+00
      5.042  0.5682E-04  0.6205E+00
      5.126  0.8005E-04  0.6205E+00
      5.209  0.5380E-03  0.6205E+00
      5.292  0.3206E-02  0.6208E+00
      5.376  0.4877E-02  0.6212E+00
      5.459  0.1146E-01  0.6222E+00
      5.542  0.4651E-02  0.6226E+00
      5.626  0.1118E-01  0.6235E+00
      5.709  0.1877E-01  0.6250E+00
      5.792  0.2908E-01  0.6275E+00
      5.875  0.2144E-01  0.6293E+00
      5.959  0.2286E-01  0.6312E+00
      6.042  0.2312E-01  0.6331E+00
      6.125  0.2860E-01  0.6355E+00
      6.209  0.2552E-01  0.6376E+00
      6.292  0.4103E-01  0.6410E+00
      6.375  0.4082E-01  0.6444E+00
      6.459  0.3472E-01  0.6473E+00
      6.542  0.4188E-01  0.6508E+00
      6.625  0.3538E-01  0.6537E+00
      6.708  0.2142E-01  0.6555E+00
      6.792  0.1820E-01  0.6570E+00
      6.875  0.3093E-01  0.6596E+00
      6.958  0.2159E-01  0.6614E+00
      7.042  0.1676E-01  0.6628E+00
      7.125  0.1254E-01  0.6639E+00
      7.208  0.1259E-01  0.6649E+00
      7.291  0.1897E-01  0.6665E+00
      7.375  0.8559E-02  0.6672E+00
      7.458  0.1232E-01  0.6682E+00
      7.541  0.2532E-01  0.6703E+00
      7.625  0.3009E-01  0.6728E+00
      7.708  0.3016E-01  0.6753E+00
      7.791  0.3260E-01  0.6781E+00
      7.875  0.1496E-01  0.6793E+00
      7.958  0.2361E-01  0.6813E+00
      8.041  0.2953E-01  0.6837E+00
      8.124  0.1032E-01  0.6846E+00
      8.208  0.1264E-01  0.6856E+00
      8.291  0.2007E-01  0.6873E+00
      8.374  0.1236E-01  0.6883E+00
      8.458  0.1955E-01  0.6900E+00
      8.541  0.2464E-01  0.6920E+00
      8.624  0.3493E-01  0.6949E+00
      8.707  0.3996E-01  0.6983E+00
      8.791  0.3642E-01  0.7013E+00
      8.874  0.6737E-01  0.7069E+00
      8.957  0.6674E-01  0.7125E+00
      9.041  0.4717E-01  0.7164E+00
      9.124  0.3529E-01  0.7193E+00
      9.207  0.4324E-01  0.7229E+00
      9.291  0.2979E-01  0.7254E+00
      9.374  0.4853E-01  0.7295E+00
      9.457  0.6691E-01  0.7350E+00
      9.540  0.5427E-01  0.7396E+00
      9.624  0.4248E-01  0.7431E+00
      9.707  0.5138E-01  0.7474E+00
      9.790  0.4037E-01  0.7507E+00
      9.874  0.3417E-01  0.7536E+00
      9.957  0.3632E-01  0.7566E+00
     10.040  0.4233E-01  0.7601E+00
     10.123  0.3929E-01  0.7634E+00
     10.207  0.3949E-01  0.7667E+00
     10.290  0.4575E-01  0.7705E+00
     10.373  0.2627E-01  0.7727E+00
     10.457  0.3315E-01  0.7755E+00
     10.540  0.4071E-01  0.7789E+00
     10.623  0.4207E-01  0.7824E+00
     10.707  0.2867E-01  0.7847E+00
     10.790  0.3868E-01  0.7880E+00
     10.873  0.4048E-01  0.7913E+00
     10.956  0.3563E-01  0.7943E+00
     11.040  0.3462E-01  0.7972E+00
     11.123  0.2816E-01  0.7995E+00
     11.206  0.2328E-02  0.7997E+00
     11.290  0.1526E-02  0.7999E+00
     11.373  0.1642E-02  0.8000E+00
     11.456  0.9784E-04  0.8000E+00
     11.539  0.7220E-07  0.8000E+00
     11.623  0.2935E-12  0.8000E+00
     11.706  0.0000E+00  0.8000E+00
     11.789  0.0000E+00  0.8000E+00
     11.873  0.0000E+00  0.8000E+00
     11.956  0.0000E+00  0.8000E+00
     12.039  0.0000E+00  0.8000E+00
     12.123  0.0000E+00  0.8000E+00
     12.206  0.0000E+00  0.8000E+00
     12.289  0.0000E+00  0.8000E+00
     12.372  0.0000E+00  0.8000E+00
     12.456  0.0000E+00  0.8000E+00
