In2 S4 Zn
1.0
        3.8499999046         0.0000000000         0.0000000000
       -1.9249999523         3.3341977220         0.0000000000
        0.0000000000         0.0000000000        24.6800003052
   In    S   Zn
    4    8    2
Direct
     0.000000000         0.000000000         0.250000000
     0.000000000         0.000000000         0.750000000
     0.333333343         0.666666687         0.094099998
     0.666666627         0.333333313         0.905900002
     0.333333343         0.666666687         0.193800002
     0.666666627         0.333333313         0.806200027
     0.333333343         0.666666687         0.937500000
     0.666666627         0.333333313         0.062500000
     0.333333343         0.666666687         0.693499982
     0.666666627         0.333333313         0.306500018
     0.333333343         0.666666687         0.437500000
     0.666666627         0.333333313         0.562500000
     0.333333343         0.666666687         0.593999982
     0.666666627         0.333333313         0.406000018
