<?xml version="1.0" encoding="ISO-8859-1"?>
<modeling>
 <generator>
  <i name="program" type="string">vasp </i>
  <i name="version" type="string">5.4.4.18Apr17-6-g9f103f2a35  </i>
  <i name="subversion" type="string">(build Feb 10 2022 16:34:21) complex            parallel </i>
  <i name="platform" type="string">VASP-optcell </i>
  <i name="date" type="string">2026 09 02 </i>
  <i name="time" type="string">17:25:09 </i>
 </generator>
 <incar>
  <i type="string" name="SYSTEM"> ZnIn2S4 bulk PBE-D3BJ relaxation</i>
  <i type="string" name="PREC">accurate</i>
  <i type="string" name="ALGO"> Normal</i>
  <i type="logical" name="ADDGRID"> T  </i>
  <i type="int" name="ISPIN">     1</i>
  <i type="int" name="NELM">   120</i>
  <i type="int" name="IBRION">     2</i>
  <i name="EDIFF">      0.00000100</i>
  <i name="EDIFFG">     -0.01000000</i>
  <i type="int" name="NSW">   200</i>
  <i type="int" name="ISIF">     3</i>
  <i type="int" name="ISYM">     2</i>
  <i name="ENCUT">    500.00000000</i>
  <i name="POTIM">      0.50000000</i>
  <i type="logical" name="LREAL"> F  </i>
  <i type="int" name="ISMEAR">     0</i>
  <i name="SIGMA">      0.05000000</i>
  <i type="logical" name="LWAVE"> F  </i>
  <i type="logical" name="LCHARG"> F  </i>
  <i type="logical" name="LASPH"> T  </i>
  <v type="int" name="KPOINT_BSE">    -1     0     0     0</v>
  <i type="int" name="NELM">   120</i>
  <i type="string" name="GGA"> PE</i>
  <i type="logical" name="LASPH"> T  </i>
 </incar>
 <structure name="primitive_cell" >
  <crystal>
   <varray name="basis" >
    <v>       3.84999990       0.00000000       0.00000000 </v>
    <v>      -1.92499995       3.33419772       0.00000000 </v>
    <v>       0.00000000       0.00000000      24.68000031 </v>
   </varray>
   <i name="volume">    316.80879522 </i>
   <varray name="rec_basis" >
    <v>       0.25974027       0.14996111       0.00000000 </v>
    <v>       0.00000000       0.29992223       0.00000000 </v>
    <v>       0.00000000       0.00000000       0.04051864 </v>
   </varray>
  </crystal>
  <varray name="positions" >
   <v>       0.00000000       0.00000000       0.25000000 </v>
   <v>       0.33333334      -0.33333331       0.19380000 </v>
   <v>      -0.33333337       0.33333331       0.30650002 </v>
   <v>       0.33333334      -0.33333331       0.09410000 </v>
   <v>      -0.33333337       0.33333331       0.40600002 </v>
   <v>      -0.33333337       0.33333331       0.06250000 </v>
   <v>       0.33333334      -0.33333331       0.43750000 </v>
   <v>      -0.33333337       0.33333331      -0.43750000 </v>
   <v>       0.33333334      -0.33333331      -0.06250000 </v>
   <v>       0.33333334      -0.33333331      -0.40600002 </v>
   <v>      -0.33333337       0.33333331      -0.09410000 </v>
   <v>       0.33333334      -0.33333331      -0.30650002 </v>
   <v>      -0.33333337       0.33333331      -0.19379997 </v>
   <v>       0.00000000       0.00000000      -0.25000000 </v>
  </varray>
 </structure>
 <varray name="primitive_index" >
  <v type="int" >        1 </v>
  <v type="int" >        5 </v>
  <v type="int" >       10 </v>
  <v type="int" >        3 </v>
  <v type="int" >       14 </v>
  <v type="int" >        8 </v>
  <v type="int" >       11 </v>
  <v type="int" >       12 </v>
  <v type="int" >        7 </v>
  <v type="int" >       13 </v>
  <v type="int" >        4 </v>
  <v type="int" >        9 </v>
  <v type="int" >        6 </v>
  <v type="int" >        2 </v>
 </varray>
 <kpoints>
  <generation param="Gamma">
   <v type="int" name="divisions">      12       12        2 </v>
   <v name="usershift">      0.00000000       0.00000000       0.00000000 </v>
   <v name="genvec1">      0.08333333      -0.00000000       0.00000000 </v>
   <v name="genvec2">      0.00000000       0.08333333       0.00000000 </v>
   <v name="genvec3">      0.00000000       0.00000000       0.50000000 </v>
   <v name="shift">      0.00000000       0.00000000       0.00000000 </v>
  </generation>
  <varray name="kpointlist" >
   <v>       0.00000000       0.00000000       0.00000000 </v>
   <v>       0.08333333      -0.00000000       0.00000000 </v>
   <v>       0.16666667       0.00000000       0.00000000 </v>
   <v>       0.25000000       0.00000000       0.00000000 </v>
   <v>       0.33333333       0.00000000       0.00000000 </v>
   <v>       0.41666667       0.00000000       0.00000000 </v>
   <v>       0.50000000       0.00000000       0.00000000 </v>
   <v>       0.08333333       0.08333333       0.00000000 </v>
   <v>       0.16666667       0.08333333       0.00000000 </v>
   <v>       0.25000000       0.08333333       0.00000000 </v>
   <v>       0.33333333       0.08333333       0.00000000 </v>
   <v>       0.41666667       0.08333333       0.00000000 </v>
   <v>       0.16666667       0.16666667       0.00000000 </v>
   <v>       0.25000000       0.16666667       0.00000000 </v>
   <v>       0.33333333       0.16666667       0.00000000 </v>
   <v>       0.41666667       0.16666667       0.00000000 </v>
   <v>       0.25000000       0.25000000       0.00000000 </v>
   <v>       0.33333333       0.25000000       0.00000000 </v>
   <v>       0.33333333       0.33333333       0.00000000 </v>
   <v>       0.00000000       0.00000000       0.50000000 </v>
   <v>       0.08333333      -0.00000000       0.50000000 </v>
   <v>       0.16666667       0.00000000       0.50000000 </v>
   <v>       0.25000000       0.00000000       0.50000000 </v>
   <v>       0.33333333       0.00000000       0.50000000 </v>
   <v>       0.41666667       0.00000000       0.50000000 </v>
   <v>       0.50000000       0.00000000       0.50000000 </v>
   <v>       0.08333333       0.08333333       0.50000000 </v>
   <v>       0.16666667       0.08333333       0.50000000 </v>
   <v>       0.25000000       0.08333333       0.50000000 </v>
   <v>       0.33333333       0.08333333       0.50000000 </v>
   <v>       0.41666667       0.08333333       0.50000000 </v>
   <v>       0.16666667       0.16666667       0.50000000 </v>
   <v>       0.25000000       0.16666667       0.50000000 </v>
   <v>       0.33333333       0.16666667       0.50000000 </v>
   <v>       0.41666667       0.16666667       0.50000000 </v>
   <v>       0.25000000       0.25000000       0.50000000 </v>
   <v>       0.33333333       0.25000000       0.50000000 </v>
   <v>       0.33333333       0.33333333       0.50000000 </v>
  </varray>
  <varray name="weights" >
   <v>       0.00347222 </v>
   <v>       0.02083333 </v>
   <v>       0.02083333 </v>
   <v>       0.02083333 </v>
   <v>       0.02083333 </v>
   <v>       0.02083333 </v>
   <v>       0.01041667 </v>
   <v>       0.02083333 </v>
   <v>       0.04166667 </v>
   <v>       0.04166667 </v>
   <v>       0.04166667 </v>
   <v>       0.04166667 </v>
   <v>       0.02083333 </v>
   <v>       0.04166667 </v>
   <v>       0.04166667 </v>
   <v>       0.02083333 </v>
   <v>       0.02083333 </v>
   <v>       0.04166667 </v>
   <v>       0.00694444 </v>
   <v>       0.00347222 </v>
   <v>       0.02083333 </v>
   <v>       0.02083333 </v>
   <v>       0.02083333 </v>
   <v>       0.02083333 </v>
   <v>       0.02083333 </v>
   <v>       0.01041667 </v>
   <v>       0.02083333 </v>
   <v>       0.04166667 </v>
   <v>       0.04166667 </v>
   <v>       0.04166667 </v>
   <v>       0.04166667 </v>
   <v>       0.02083333 </v>
   <v>       0.04166667 </v>
   <v>       0.04166667 </v>
   <v>       0.02083333 </v>
   <v>       0.02083333 </v>
   <v>       0.04166667 </v>
   <v>       0.00694444 </v>
  </varray>
 </kpoints>
 <parameters>
  <separator name="general" >
   <i type="string" name="SYSTEM">ZnIn2S4 bulk PBE-D3BJ relaxation</i>
   <i type="logical" name="LCOMPAT"> F  </i>
  </separator>
  <separator name="electronic" >
   <i type="string" name="PREC">accura</i>
   <i name="ENMAX">    500.00000000</i>
   <i name="ENAUG">    575.89200000</i>
   <i name="EDIFF">      0.00000100</i>
   <i type="int" name="IALGO">    38</i>
   <i type="int" name="IWAVPR">    11</i>
   <i type="int" name="NBANDS">    80</i>
   <i name="NELECT">    124.00000000</i>
   <i type="int" name="TURBO">     0</i>
   <i type="int" name="IRESTART">     0</i>
   <i type="int" name="NREBOOT">     0</i>
   <i type="int" name="NMIN">     0</i>
   <i name="EREF">      0.00000000</i>
   <separator name="electronic smearing" >
    <i type="int" name="ISMEAR">     0</i>
    <i name="SIGMA">      0.05000000</i>
    <i name="KSPACING">      0.50000000</i>
    <i type="logical" name="KGAMMA"> T  </i>
   </separator>
   <separator name="electronic projectors" >
    <i type="logical" name="LREAL"> F  </i>
    <v name="ROPT">      0.00000000      0.00000000      0.00000000</v>
    <i type="int" name="LMAXPAW">  -100</i>
    <i type="int" name="LMAXMIX">     2</i>
    <i type="logical" name="NLSPLINE"> F  </i>
   </separator>
   <separator name="electronic startup" >
    <i type="int" name="ISTART">     0</i>
    <i type="int" name="ICHARG">     2</i>
    <i type="int" name="INIWAV">     1</i>
   </separator>
   <separator name="electronic spin" >
    <i type="int" name="ISPIN">     1</i>
    <i type="logical" name="LNONCOLLINEAR"> F  </i>
    <v name="MAGMOM">      1.00000000      1.00000000      1.00000000      1.00000000      1.00000000      1.00000000      1.00000000      1.00000000      1.00000000      1.00000000      1.00000000      1.00000000      1.00000000      1.00000000</v>
    <i name="NUPDOWN">     -1.00000000</i>
    <i type="logical" name="LSORBIT"> F  </i>
    <v name="SAXIS">      0.00000000      0.00000000      1.00000000</v>
    <i type="logical" name="LSPIRAL"> F  </i>
    <v name="QSPIRAL">      0.00000000      0.00000000      0.00000000</v>
    <i type="logical" name="LZEROZ"> F  </i>
   </separator>
   <separator name="electronic exchange-correlation" >
    <i type="logical" name="LASPH"> T  </i>
    <i type="logical" name="LMETAGGA"> F  </i>
   </separator>
   <separator name="electronic convergence" >
    <i type="int" name="NELM">   120</i>
    <i type="int" name="NELMDL">     0</i>
    <i type="int" name="NELMIN">     2</i>
    <i name="ENINI">    500.00000000</i>
    <separator name="electronic convergence detail" >
     <i type="logical" name="LDIAG"> T  </i>
     <i type="logical" name="LSUBROT"> F  </i>
     <i name="WEIMIN">      0.00100000</i>
     <i name="EBREAK">      0.00000000</i>
     <i name="DEPER">      0.30000000</i>
     <i type="int" name="NRMM">     4</i>
     <i name="TIME">      0.40000000</i>
    </separator>
   </separator>
   <separator name="electronic mixer" >
    <i name="AMIX">      0.40000000</i>
    <i name="BMIX">      1.00000000</i>
    <i name="AMIN">      0.10000000</i>
    <i name="AMIX_MAG">      1.60000000</i>
    <i name="BMIX_MAG">      1.00000000</i>
    <separator name="electronic mixer details" >
     <i type="int" name="IMIX">     4</i>
     <i type="logical" name="MIXFIRST"> F  </i>
     <i type="int" name="MAXMIX">   -45</i>
     <i name="WC">    100.00000000</i>
     <i type="int" name="INIMIX">     1</i>
     <i type="int" name="MIXPRE">     1</i>
     <i type="int" name="MREMOVE">     5</i>
    </separator>
   </separator>
   <separator name="electronic dipolcorrection" >
    <i type="logical" name="LDIPOL"> F  </i>
    <i type="logical" name="LMONO"> F  </i>
    <i type="int" name="IDIPOL">     0</i>
    <i name="EPSILON">      1.00000000</i>
    <v name="DIPOL">   -100.00000000   -100.00000000   -100.00000000</v>
    <i name="EFIELD">      0.00000000</i>
   </separator>
  </separator>
  <separator name="grids" >
   <i type="int" name="NGX">    28</i>
   <i type="int" name="NGY">    28</i>
   <i type="int" name="NGZ">   180</i>
   <i type="int" name="NGXF">    56</i>
   <i type="int" name="NGYF">    56</i>
   <i type="int" name="NGZF">   360</i>
   <i type="logical" name="ADDGRID"> T  </i>
  </separator>
  <separator name="ionic" >
   <i type="int" name="NSW">   200</i>
   <i type="int" name="IBRION">     2</i>
   <i type="int" name="MDALGO">     0</i>
   <i type="int" name="ISIF">     3</i>
   <i name="PSTRESS">      0.00000000</i>
   <i name="EDIFFG">     -0.01000000</i>
   <i type="int" name="NFREE">     1</i>
   <i name="POTIM">      0.50000000</i>
   <i name="SMASS">     -3.00000000</i>
   <i name="SCALEE">      1.00000000</i>
  </separator>
  <separator name="ionic md" >
   <i name="TEBEG">      0.00010000</i>
   <i name="TEEND">      0.00010000</i>
   <i type="int" name="NBLOCK">     1</i>
   <i type="int" name="KBLOCK">   200</i>
   <i type="int" name="NPACO">   256</i>
   <i name="APACO">     16.00000000</i>
  </separator>
  <separator name="symmetry" >
   <i type="int" name="ISYM">     2</i>
   <i name="SYMPREC">      0.00001000</i>
  </separator>
  <separator name="dos" >
   <i type="int" name="LORBIT">     0</i>
   <v name="RWIGS">     -1.00000000     -1.00000000     -1.00000000</v>
   <i type="int" name="NEDOS">   301</i>
   <i name="EMIN">     10.00000000</i>
   <i name="EMAX">    -10.00000000</i>
   <i name="EFERMI">      0.00000000</i>
  </separator>
  <separator name="writing" >
   <i type="int" name="NWRITE">     2</i>
   <i type="logical" name="LWAVE"> F  </i>
   <i type="logical" name="LDOWNSAMPLE"> F  </i>
   <i type="logical" name="LCHARG"> F  </i>
   <i type="logical" name="LPARD"> F  </i>
   <i type="logical" name="LVTOT"> F  </i>
   <i type="logical" name="LVHAR"> F  </i>
   <i type="logical" name="LELF"> F  </i>
   <i type="logical" name="LOPTICS"> F  </i>
   <v name="STM">      0.00000000      0.00000000      0.00000000      0.00000000      0.00000000      0.00000000      0.00000000</v>
  </separator>
  <separator name="performance" >
   <i type="int" name="NPAR">     8</i>
   <i type="int" name="NSIM">     4</i>
   <i type="int" name="NBLK">    -1</i>
   <i type="logical" name="LPLANE"> T  </i>
   <i type="logical" name="LSCALAPACK"> T  </i>
   <i type="logical" name="LSCAAWARE"> F  </i>
   <i type="logical" name="LSCALU"> F  </i>
   <i type="logical" name="LASYNC"> F  </i>
   <i type="logical" name="LORBITALREAL"> F  </i>
  </separator>
  <separator name="miscellaneous" >
   <i type="int" name="IDIOT">     3</i>
   <i type="int" name="ISPECIAL">     0</i>
   <i type="logical" name="LMUSIC"> F  </i>
   <v name="POMASS">    114.82000000     32.06600000     65.39000000</v>
   <v name="DARWINR">      0.00000000      0.00000000      0.00000000</v>
   <v name="DARWINV">      1.00000000      1.00000000      1.00000000</v>
   <i type="logical" name="LCORR"> T  </i>
  </separator>
  <i type="logical" name="GGA_COMPAT"> T  </i>
  <i type="logical" name="LBERRY"> F  </i>
  <i type="int" name="ICORELEVEL">     0</i>
  <i type="logical" name="LDAU"> F  </i>
  <i type="int" name="I_CONSTRAINED_M">     0</i>
  <separator name="electronic exchange-correlation" >
   <i type="string" name="GGA">PE</i>
   <i type="int" name="VOSKOWN">     0</i>
   <i type="logical" name="LHFCALC"> F  </i>
   <i type="string" name="PRECFOCK"></i>
   <i type="logical" name="LSYMGRAD"> F  </i>
   <i type="logical" name="LHFONE"> F  </i>
   <i type="logical" name="LRHFCALC"> F  </i>
   <i type="logical" name="LTHOMAS"> F  </i>
   <i type="logical" name="LMODELHF"> F  </i>
   <i name="ENCUT4O">     -1.00000000</i>
   <i type="int" name="EXXOEP">     0</i>
   <i type="int" name="FOURORBIT">     0</i>
   <i name="AEXX">      0.00000000</i>
   <i name="HFALPHA">      0.00000000</i>
   <i name="MCALPHA">      0.00000000</i>
   <i name="ALDAX">      1.00000000</i>
   <i name="AGGAX">      1.00000000</i>
   <i name="ALDAC">      1.00000000</i>
   <i name="AGGAC">      1.00000000</i>
   <i type="int" name="NKREDX">     1</i>
   <i type="int" name="NKREDY">     1</i>
   <i type="int" name="NKREDZ">     1</i>
   <i type="logical" name="SHIFTRED"> F  </i>
   <i type="logical" name="ODDONLY"> F  </i>
   <i type="logical" name="EVENONLY"> F  </i>
   <i type="int" name="LMAXFOCK">     0</i>
   <i type="int" name="NMAXFOCKAE">     0</i>
   <i type="logical" name="LFOCKAEDFT"> F  </i>
   <i name="HFSCREEN">      0.00000000</i>
   <i name="HFSCREENC">      0.00000000</i>
   <i type="int" name="NBANDSGWLOW">     0</i>
  </separator>
  <separator name="vdW DFT" >
   <i type="logical" name="LUSE_VDW"> F  </i>
   <i name="Zab_VDW">     -0.84910000</i>
   <i name="PARAM1">      0.12340000</i>
   <i name="PARAM2">      1.00000000</i>
   <i name="PARAM3">      0.00000000</i>
  </separator>
  <separator name="model GW" >
   <i type="int" name="MODEL_GW">     0</i>
   <i name="MODEL_EPS0">     13.57751979</i>
   <i name="MODEL_ALPHA">      1.00000000</i>
  </separator>
  <separator name="linear response parameters" >
   <i type="logical" name="LEPSILON"> F  </i>
   <i type="logical" name="LRPA"> F  </i>
   <i type="logical" name="LNABLA"> F  </i>
   <i type="logical" name="LVEL"> F  </i>
   <i type="int" name="KINTER">     0</i>
   <i name="CSHIFT">      0.10000000</i>
   <i name="OMEGAMAX">     -1.00000000</i>
   <i name="DEG_THRESHOLD">      0.00200000</i>
   <i name="RTIME">     -0.10000000</i>
   <i name="WPLASMAI">      0.00000000</i>
   <v name="DFIELD">      0.00000000      0.00000000      0.00000000</v>
   <v name="WPLASMA">      0.00000000      0.00000000      0.00000000      0.00000000      0.00000000      0.00000000      0.00000000      0.00000000      0.00000000</v>
  </separator>
  <separator name="orbital magnetization" >
   <i type="logical" name="NUCIND"> F  </i>
   <v name="MAGPOS">      0.00000000      0.00000000      0.00000000</v>
   <i type="logical" name="LNICSALL"> T  </i>
   <i type="logical" name="ORBITALMAG"> F  </i>
   <i type="logical" name="LMAGBLOCH"> F  </i>
   <i type="logical" name="LCHIMAG"> F  </i>
   <i type="logical" name="LGAUGE"> T  </i>
   <i type="int" name="MAGATOM">     0</i>
   <v name="MAGDIPOL">      0.00000000      0.00000000      0.00000000</v>
   <v name="AVECCONST">      0.00000000      0.00000000      0.00000000</v>
  </separator>
  <separator name="response functions" >
   <i type="logical" name="LADDER"> F  </i>
   <i type="logical" name="LRPAFORCE"> F  </i>
   <i type="logical" name="LFXC"> F  </i>
   <i type="logical" name="LHARTREE"> T  </i>
   <i type="int" name="IBSE">     0</i>
   <v type="int" name="KPOINT">    -1     0     0     0</v>
   <i type="logical" name="LTCTE"> F  </i>
   <i type="logical" name="LTETE"> F  </i>
   <i type="logical" name="LTRIPLET"> F  </i>
   <i type="logical" name="LFXCEPS"> F  </i>
   <i type="logical" name="LFXHEG"> F  </i>
   <i type="int" name="NATURALO">     2</i>
   <i type="logical" name="L2ORDER"> F  </i>
   <i type="logical" name="LMP2LT"> F  </i>
   <i type="logical" name="LUSEW"> F  </i>
   <i name="ENCUTGW">     -2.00000000</i>
   <i name="ENCUTGWSOFT">     -2.00000000</i>
   <i name="ENCUTLF">     -1.00000000</i>
   <i type="int" name="LMAXMP2">    -1</i>
   <i name="SCISSOR">      0.00000000</i>
   <i type="int" name="NOMEGA">     0</i>
   <i type="int" name="NOMEGAR">     0</i>
   <i type="int" name="NBANDSGW">    -1</i>
   <i type="int" name="NBANDSO">    -1</i>
   <i type="int" name="NBANDSV">    -1</i>
   <i type="int" name="NELM">   120</i>
   <i type="int" name="NELMHF">     1</i>
   <i type="int" name="DIM">     3</i>
   <i type="int" name="ANTIRES">     0</i>
   <i name="OMEGAMAX">    -30.00000000</i>
   <i name="OMEGAMIN">    -30.00000000</i>
   <i name="OMEGATL">   -200.00000000</i>
   <i type="int" name="OMEGAGRID">   140</i>
   <i name="CSHIFT">     -0.10000000</i>
   <i type="logical" name="SELFENERGY"> F  </i>
   <i type="logical" name="LSPECTRAL"> F  </i>
   <i type="logical" name="LSPECTRALGW"> F  </i>
   <i type="logical" name="LSINGLES"> F  </i>
   <i type="logical" name="LFERMIGW"> F  </i>
   <i type="logical" name="ODDONLYGW"> F  </i>
   <i type="logical" name="EVENONLYGW"> F  </i>
   <i type="int" name="NKREDLFX">     1</i>
   <i type="int" name="NKREDLFY">     1</i>
   <i type="int" name="NKREDLFZ">     1</i>
   <i type="int" name="MAXMEM">  2800</i>
   <i type="int" name="TELESCOPE">     0</i>
   <i type="int" name="TAUPAR">     1</i>
   <i type="int" name="OMEGAPAR">    -1</i>
   <i name="LAMBDA">      1.00000000</i>
  </separator>
  <separator name="External order field" >
   <i name="OFIELD_KAPPA">      0.00000000</i>
   <v name="OFIELD_K">      0.00000000      0.00000000      0.00000000</v>
   <i name="OFIELD_Q6_NEAR">      0.00000000</i>
   <i name="OFIELD_Q6_FAR">      0.00000000</i>
   <i name="OFIELD_A">      0.00000000</i>
  </separator>
 </parameters>
 <atominfo>
  <atoms>      14 </atoms>
  <types>       3 </types>
  <array name="atoms" >
   <dimension dim="1">ion</dimension>
   <field type="string">element</field>
   <field type="int">atomtype</field>
   <set>
    <rc><c>In</c><c>   1</c></rc>
    <rc><c>In</c><c>   1</c></rc>
    <rc><c>In</c><c>   1</c></rc>
    <rc><c>In</c><c>   1</c></rc>
    <rc><c>S </c><c>   2</c></rc>
    <rc><c>S </c><c>   2</c></rc>
    <rc><c>S </c><c>   2</c></rc>
    <rc><c>S </c><c>   2</c></rc>
    <rc><c>S </c><c>   2</c></rc>
    <rc><c>S </c><c>   2</c></rc>
    <rc><c>S </c><c>   2</c></rc>
    <rc><c>S </c><c>   2</c></rc>
    <rc><c>Zn</c><c>   3</c></rc>
    <rc><c>Zn</c><c>   3</c></rc>
   </set>
  </array>
  <array name="atomtypes" >
   <dimension dim="1">type</dimension>
   <field type="int">atomspertype</field>
   <field type="string">element</field>
   <field>mass</field>
   <field>valence</field>
   <field type="string">pseudopotential</field>
   <set>
    <rc><c>   4</c><c>In</c><c>    114.82000000</c><c>     13.00000000</c><c>  PAW_PBE In_d 06Sep2000                </c></rc>
    <rc><c>   8</c><c>S </c><c>     32.06600000</c><c>      6.00000000</c><c>  PAW_PBE S 06Sep2000                   </c></rc>
    <rc><c>   2</c><c>Zn</c><c>     65.39000000</c><c>     12.00000000</c><c>  PAW_PBE Zn 06Sep2000                  </c></rc>
   </set>
  </array>
 </atominfo>
 <structure name="initialpos" >
  <crystal>
   <varray name="basis" >
    <v>       3.84999990       0.00000000       0.00000000 </v>
    <v>      -1.92499995       3.33419772       0.00000000 </v>
    <v>       0.00000000       0.00000000      24.68000031 </v>
   </varray>
   <i name="volume">    316.80879522 </i>
   <varray name="rec_basis" >
    <v>       0.25974027       0.14996111       0.00000000 </v>
    <v>       0.00000000       0.29992223       0.00000000 </v>
    <v>       0.00000000       0.00000000       0.04051864 </v>
   </varray>
  </crystal>
  <varray name="positions" >
   <v>       0.00000000       0.00000000       0.25000000 </v>
   <v>       0.00000000       0.00000000       0.75000000 </v>
   <v>       0.33333334       0.66666669       0.09410000 </v>
   <v>       0.66666663       0.33333331       0.90590000 </v>
   <v>       0.33333334       0.66666669       0.19380000 </v>
   <v>       0.66666663       0.33333331       0.80620003 </v>
   <v>       0.33333334       0.66666669       0.93750000 </v>
   <v>       0.66666663       0.33333331       0.06250000 </v>
   <v>       0.33333334       0.66666669       0.69349998 </v>
   <v>       0.66666663       0.33333331       0.30650002 </v>
   <v>       0.33333334       0.66666669       0.43750000 </v>
   <v>       0.66666663       0.33333331       0.56250000 </v>
   <v>       0.33333334       0.66666669       0.59399998 </v>
   <v>       0.66666663       0.33333331       0.40600002 </v>
  </varray>
 </structure>
 <calculation>
  <scstep>
   <time name="dav">   21.70   21.76</time>
   <time name="total">   22.78   22.84</time>
   <energy>
    <i name="alphaZ">    292.56148892 </i>
    <i name="ewald">  -7964.21247333 </i>
    <i name="hartreedc">  -3999.00607399 </i>
    <i name="XCdc">    380.23184661 </i>
    <i name="pawpsdc">  10174.09225173 </i>
    <i name="pawaedc"> -10466.47096065 </i>
    <i name="eentropy">     -0.00277676 </i>
    <i name="bandstr">    907.02123217 </i>
    <i name="atom">  12019.53804467 </i>
    <i name="e_fr_energy">   1343.75257937 </i>
    <i name="e_wo_entrp">   1343.75535613 </i>
    <i name="e_0_energy">   1343.75396775 </i>
   </energy>
  </scstep>
  <scstep>
   <time name="dav">   21.69   21.76</time>
   <time name="total">   21.69   21.76</time>
   <energy>
    <i name="e_fr_energy">    202.73809799 </i>
    <i name="e_wo_entrp">    202.74241673 </i>
    <i name="e_0_energy">    202.74025736 </i>
   </energy>
  </scstep>
  <scstep>
   <time name="dav">   23.71   23.77</time>
   <time name="total">   23.71   23.77</time>
   <energy>
    <i name="e_fr_energy">    -34.37330327 </i>
    <i name="e_wo_entrp">    -34.37330327 </i>
    <i name="e_0_energy">    -34.37330327 </i>
   </energy>
  </scstep>
  <scstep>
   <time name="dav">   25.69   25.75</time>
   <time name="total">   25.69   25.76</time>
   <energy>
    <i name="e_fr_energy">    -55.26055921 </i>
    <i name="e_wo_entrp">    -55.26055921 </i>
    <i name="e_0_energy">    -55.26055921 </i>
   </energy>
  </scstep>
  <scstep>
   <time name="dav">   26.31   26.37</time>
   <time name="total">   28.02   28.08</time>
   <energy>
    <i name="e_fr_energy">    -56.17227394 </i>
    <i name="e_wo_entrp">    -56.17227394 </i>
    <i name="e_0_energy">    -56.17227394 </i>
   </energy>
  </scstep>
  <scstep>
   <time name="dav">   31.08   31.15</time>
   <time name="total">   33.90   33.98</time>
   <energy>
    <i name="e_fr_energy">    -53.04719331 </i>
    <i name="e_wo_entrp">    -53.03861721 </i>
    <i name="e_0_energy">    -53.04290526 </i>
   </energy>
  </scstep>
  <scstep>
   <time name="dav">   29.87   29.94</time>
   <time name="total">   32.65   32.74</time>
   <energy>
    <i name="e_fr_energy">    -51.96741978 </i>
    <i name="e_wo_entrp">    -51.96697063 </i>
    <i name="e_0_energy">    -51.96719521 </i>
   </energy>
  </scstep>
  <scstep>
   <time name="dav">   29.51   29.58</time>
   <time name="total">   32.23   32.31</time>
   <energy>
    <i name="e_fr_energy">    -52.58996086 </i>
    <i name="e_wo_entrp">    -52.58019808 </i>
    <i name="e_0_energy">    -52.58507947 </i>
   </energy>
  </scstep>
  <scstep>
   <time name="dav">   31.15   31.22</time>
   <time name="total">   33.86   34.14</time>
   <energy>
    <i name="e_fr_energy">    -51.75881981 </i>
    <i name="e_wo_entrp">    -51.75782191 </i>
    <i name="e_0_energy">    -51.75832086 </i>
   </energy>
  </scstep>
  <scstep>
   <time name="dav">   27.12   27.19</time>
   <time name="total">   29.83   30.11</time>
   <energy>
    <i name="e_fr_energy">    -51.51975889 </i>
    <i name="e_wo_entrp">    -51.51715723 </i>
    <i name="e_0_energy">    -51.51845806 </i>
   </energy>
  </scstep>
  <scstep>
   <time name="dav">   28.25   28.32</time>
   <time name="total">   30.92   31.82</time>
   <energy>
    <i name="e_fr_energy">    -51.48840366 </i>
    <i name="e_wo_entrp">    -51.48292203 </i>
    <i name="e_0_energy">    -51.48566284 </i>
   </energy>
  </scstep>
  <scstep>
   <time name="dav">   25.17   25.23</time>
   <time name="total">   27.93   28.20</time>
   <energy>
    <i name="e_fr_energy">    -51.49464703 </i>
    <i name="e_wo_entrp">    -51.49025922 </i>
    <i name="e_0_energy">    -51.49245313 </i>
   </energy>
  </scstep>
  <scstep>
   <time name="dav">   31.19   31.27</time>
   <time name="total">   33.95   34.03</time>
   <energy>
    <i name="e_fr_energy">    -51.57977142 </i>
    <i name="e_wo_entrp">    -51.56881845 </i>
    <i name="e_0_energy">    -51.57429494 </i>
   </energy>
  </scstep>
  <scstep>
   <time name="dav">   27.86   27.92</time>
   <time name="total">   30.62   30.70</time>
   <energy>
    <i name="e_fr_energy">    -51.49500189 </i>
    <i name="e_wo_entrp">    -51.48916016 </i>
    <i name="e_0_energy">    -51.49208102 </i>
   </energy>
  </scstep>
  <scstep>
   <time name="dav">   29.72   29.79</time>
   <time name="total">   32.48   32.56</time>
   <energy>
    <i name="e_fr_energy">    -51.48818856 </i>
    <i name="e_wo_entrp">    -51.48196990 </i>
    <i name="e_0_energy">    -51.48507923 </i>
   </energy>
  </scstep>
  <scstep>
   <time name="dav">   25.00   25.06</time>
   <time name="total">   27.76   27.86</time>
   <energy>
    <i name="e_fr_energy">    -51.48866122 </i>
    <i name="e_wo_entrp">    -51.48250237 </i>
    <i name="e_0_energy">    -51.48558179 </i>
   </energy>
  </scstep>
  <scstep>
   <time name="dav">   26.96   27.03</time>
   <time name="total">   29.71   29.78</time>
   <energy>
    <i name="e_fr_energy">    -51.48826475 </i>
    <i name="e_wo_entrp">    -51.48208745 </i>
    <i name="e_0_energy">    -51.48517610 </i>
   </energy>
  </scstep>
  <scstep>
   <time name="dav">   29.08   29.15</time>
   <time name="total">   32.07   32.57</time>
   <energy>
    <i name="e_fr_energy">    -51.48769663 </i>
    <i name="e_wo_entrp">    -51.48152346 </i>
    <i name="e_0_energy">    -51.48461005 </i>
   </energy>
  </scstep>
  <scstep>
   <time name="dav">   30.77   30.85</time>
   <time name="total">   33.59   33.69</time>
   <energy>
    <i name="e_fr_energy">    -51.48750944 </i>
    <i name="e_wo_entrp">    -51.48131899 </i>
    <i name="e_0_energy">    -51.48441421 </i>
   </energy>
  </scstep>
  <scstep>
   <time name="dav">   25.26   25.32</time>
   <time name="total">   27.99   28.06</time>
   <energy>
    <i name="e_fr_energy">    -51.48749472 </i>
    <i name="e_wo_entrp">    -51.48131353 </i>
    <i name="e_0_energy">    -51.48440412 </i>
   </energy>
  </scstep>
  <scstep>
   <time name="dav">   24.59   24.65</time>
   <time name="total">   27.33   27.41</time>
   <energy>
    <i name="e_fr_energy">    -51.48749191 </i>
    <i name="e_wo_entrp">    -51.48131497 </i>
    <i name="e_0_energy">    -51.48440344 </i>
   </energy>
  </scstep>
  <scstep>
   <time name="dav">   22.47   22.52</time>
   <time name="total">   25.19   25.25</time>
   <energy>
    <i name="e_fr_energy">    -51.48749413 </i>
    <i name="e_wo_entrp">    -51.48134569 </i>
    <i name="e_0_energy">    -51.48441991 </i>
   </energy>
  </scstep>
  <scstep>
   <time name="dav">   24.76   24.82</time>
   <time name="total">   27.45   27.52</time>
   <energy>
    <i name="e_fr_energy">    -51.48748928 </i>
    <i name="e_wo_entrp">    -51.48134239 </i>
    <i name="e_0_energy">    -51.48441583 </i>
   </energy>
  </scstep>
  <scstep>
   <time name="dav">   19.91   19.96</time>
   <time name="total">   22.60   22.66</time>
   <energy>
    <i name="e_fr_energy">    -51.48748853 </i>
    <i name="e_wo_entrp">    -51.48133552 </i>
    <i name="e_0_energy">    -51.48441203 </i>
   </energy>
  </scstep>
  <scstep>
   <time name="dav">   21.13   21.18</time>
   <time name="total">   23.85   23.91</time>
   <energy>
    <i name="e_fr_energy">    -51.48748832 </i>
    <i name="e_wo_entrp">    -51.48133993 </i>
    <i name="e_0_energy">    -51.48441413 </i>
   </energy>
  </scstep>
  <scstep>
   <time name="dav">   20.63   20.68</time>
   <time name="total">   23.42   23.48</time>
   <energy>
    <i name="e_fr_energy">    -51.48748715 </i>
    <i name="e_wo_entrp">    -51.48133569 </i>
    <i name="e_0_energy">    -51.48441142 </i>
   </energy>
  </scstep>
  <scstep>
   <time name="dav">   15.81   15.85</time>
   <time name="total">   18.58   18.63</time>
   <energy>
    <i name="e_fr_energy">    -51.48748585 </i>
    <i name="e_wo_entrp">    -51.48133257 </i>
    <i name="e_0_energy">    -51.48440921 </i>
   </energy>
  </scstep>
  <scstep>
   <time name="dav">   17.49   17.53</time>
   <time name="total">   20.25   20.30</time>
   <energy>
    <i name="e_fr_energy">    -51.48748468 </i>
    <i name="e_wo_entrp">    -51.48132869 </i>
    <i name="e_0_energy">    -51.48440668 </i>
   </energy>
  </scstep>
  <scstep>
   <time name="dav">   15.30   15.34</time>
   <time name="total">   16.35   16.39</time>
   <energy>
    <i name="alphaZ">    292.56148892 </i>
    <i name="ewald">  -7964.21247333 </i>
    <i name="hartreedc">  -3968.07611184 </i>
    <i name="XCdc">    382.35249048 </i>
    <i name="pawpsdc">  17443.81401108 </i>
    <i name="pawaedc"> -17737.91265769 </i>
    <i name="eentropy">     -0.00615545 </i>
    <i name="bandstr">   -519.54612176 </i>
    <i name="atom">  12019.53804467 </i>
    <i name="e_fr_energy">    -51.48748491 </i>
    <i name="e_wo_entrp">    -51.48132946 </i>
    <i name="e_0_energy">    -51.48440718 </i>
   </energy>
  </scstep>
  <structure>
   <crystal>
    <varray name="basis" >
     <v>       3.84999990       0.00000000       0.00000000 </v>
     <v>      -1.92499995       3.33419772       0.00000000 </v>
     <v>       0.00000000       0.00000000      24.68000031 </v>
    </varray>
    <i name="volume">    316.80879522 </i>
    <varray name="rec_basis" >
     <v>       0.25974027       0.14996111       0.00000000 </v>
     <v>       0.00000000       0.29992223       0.00000000 </v>
     <v>       0.00000000       0.00000000       0.04051864 </v>
    </varray>
   </crystal>
   <varray name="positions" >
    <v>       0.00000000       0.00000000       0.25000000 </v>
    <v>       0.00000000       0.00000000       0.75000000 </v>
    <v>       0.33333334       0.66666669       0.09410000 </v>
    <v>       0.66666663       0.33333331       0.90590000 </v>
    <v>       0.33333334       0.66666669       0.19380000 </v>
    <v>       0.66666663       0.33333331       0.80620003 </v>
    <v>       0.33333334       0.66666669       0.93750000 </v>
    <v>       0.66666663       0.33333331       0.06250000 </v>
    <v>       0.33333334       0.66666669       0.69349998 </v>
    <v>       0.66666663       0.33333331       0.30650002 </v>
    <v>       0.33333334       0.66666669       0.43750000 </v>
    <v>       0.66666663       0.33333331       0.56250000 </v>
    <v>       0.33333334       0.66666669       0.59399998 </v>
    <v>       0.66666663       0.33333331       0.40600002 </v>
   </varray>
  </structure>
  <varray name="forces" >
   <v>      -0.00000000       0.00000000       1.49589013 </v>
   <v>      -0.00000000       0.00000000      -1.49589013 </v>
   <v>      -0.00000000      -0.00000000       1.82926678 </v>
   <v>      -0.00000000      -0.00000000      -1.82926678 </v>
   <v>       0.00000000      -0.00000000      -0.76887841 </v>
   <v>      -0.00000000       0.00000000       0.76887841 </v>
   <v>      -0.00000000      -0.00000000       1.99959100 </v>
   <v>      -0.00000000      -0.00000000      -1.99959100 </v>
   <v>       0.00000000      -0.00000000       0.56578161 </v>
   <v>      -0.00000000       0.00000000      -0.56578161 </v>
   <v>      -0.00000000      -0.00000000      -0.63633064 </v>
   <v>       0.00000000       0.00000000       0.63633064 </v>
   <v>      -0.00000000      -0.00000000      -0.69526287 </v>
   <v>      -0.00000000       0.00000000       0.69526287 </v>
  </varray>
  <varray name="stress" >
   <v>      46.55436929       0.00000000       0.00000000 </v>
   <v>      -0.00000000      46.55436930      -0.00000000 </v>
   <v>       0.00000000       0.00000000      15.87698134 </v>
  </varray>
  <energy>
   <i name="e_fr_energy">    -55.71411765 </i>
   <i name="e_wo_entrp">    -55.71103993 </i>
   <i name="e_0_energy">     -0.00615545 </i>
  </energy>
  <time name="totalsc">  842.16  846.42</time>
 </calculation>
 <calculation>
  <scstep>
   <time name="dav">   28.45   28.52</time>
   <time name="total">   31.21   31.29</time>
   <energy>
    <i name="alphaZ">    271.90633535 </i>
    <i name="ewald">  -7806.17291194 </i>
    <i name="hartreedc">  -3846.48060470 </i>
    <i name="XCdc">    371.13368722 </i>
    <i name="pawpsdc">  17443.34373673 </i>
    <i name="pawaedc"> -17737.44318063 </i>
    <i name="eentropy">     -0.00558218 </i>
    <i name="bandstr">   -772.85094739 </i>
    <i name="atom">  12019.53804467 </i>
    <i name="e_fr_energy">    -57.03142287 </i>
    <i name="e_wo_entrp">    -57.02584069 </i>
    <i name="e_0_energy">    -57.02863178 </i>
   </energy>
  </scstep>
  <scstep>
   <time name="dav">   26.53   26.60</time>
   <time name="total">   29.31   29.41</time>
   <energy>
    <i name="e_fr_energy">    -53.41353332 </i>
    <i name="e_wo_entrp">    -53.40863193 </i>
    <i name="e_0_energy">    -53.41108262 </i>
   </energy>
  </scstep>
  <scstep>
   <time name="dav">   26.90   26.96</time>
   <time name="total">   29.67   30.35</time>
   <energy>
    <i name="e_fr_energy">    -52.74161591 </i>
    <i name="e_wo_entrp">    -52.73967788 </i>
    <i name="e_0_energy">    -52.74064689 </i>
   </energy>
  </scstep>
  <scstep>
   <time name="dav">   27.86   27.93</time>
   <time name="total">   30.56   30.64</time>
   <energy>
    <i name="e_fr_energy">    -53.11829544 </i>
    <i name="e_wo_entrp">    -53.10217998 </i>
    <i name="e_0_energy">    -53.11023771 </i>
   </energy>
  </scstep>
  <scstep>
   <time name="dav">   29.94   30.01</time>
   <time name="total">   32.65   32.73</time>
   <energy>
    <i name="e_fr_energy">    -52.62689150 </i>
    <i name="e_wo_entrp">    -52.62528090 </i>
    <i name="e_0_energy">    -52.62608620 </i>
   </energy>
  </scstep>
  <scstep>
   <time name="dav">   26.66   26.72</time>
   <time name="total">   29.33   29.40</time>
   <energy>
    <i name="e_fr_energy">    -52.64251315 </i>
    <i name="e_wo_entrp">    -52.64090605 </i>
    <i name="e_0_energy">    -52.64170960 </i>
   </energy>
  </scstep>
  <scstep>
   <time name="dav">   26.24   26.31</time>
   <time name="total">   28.91   28.98</time>
   <energy>
    <i name="e_fr_energy">    -52.60164550 </i>
    <i name="e_wo_entrp">    -52.59968812 </i>
    <i name="e_0_energy">    -52.60066681 </i>
   </energy>
  </scstep>
  <scstep>
   <time name="dav">   30.82   30.90</time>
   <time name="total">   33.52   33.61</time>
   <energy>
    <i name="e_fr_energy">    -52.56130412 </i>
    <i name="e_wo_entrp">    -52.56025686 </i>
    <i name="e_0_energy">    -52.56078049 </i>
   </energy>
  </scstep>
  <scstep>
   <time name="dav">   27.05   27.12</time>
   <time name="total">   29.79   29.86</time>
   <energy>
    <i name="e_fr_energy">    -52.55656109 </i>
    <i name="e_wo_entrp">    -52.55527519 </i>
    <i name="e_0_energy">    -52.55591814 </i>
   </energy>
  </scstep>
  <scstep>
   <time name="dav">   27.36   27.42</time>
   <time name="total">   30.07   30.14</time>
   <energy>
    <i name="e_fr_energy">    -52.55479533 </i>
    <i name="e_wo_entrp">    -52.55335658 </i>
    <i name="e_0_energy">    -52.55407595 </i>
   </energy>
  </scstep>
  <scstep>
   <time name="dav">   27.01   27.08</time>
   <time name="total">   29.72   29.81</time>
   <energy>
    <i name="e_fr_energy">    -52.55376269 </i>
    <i name="e_wo_entrp">    -52.55222346 </i>
    <i name="e_0_energy">    -52.55299308 </i>
   </energy>
  </scstep>
  <scstep>
   <time name="dav">   30.26   30.33</time>
   <time name="total">   33.00   33.08</time>
   <energy>
    <i name="e_fr_energy">    -52.55004706 </i>
    <i name="e_wo_entrp">    -52.54753249 </i>
    <i name="e_0_energy">    -52.54878977 </i>
   </energy>
  </scstep>
  <scstep>
   <time name="dav">   23.93   23.99</time>
   <time name="total">   26.66   26.74</time>
   <energy>
    <i name="e_fr_energy">    -52.55000513 </i>
    <i name="e_wo_entrp">    -52.54731905 </i>
    <i name="e_0_energy">    -52.54866209 </i>
   </energy>
  </scstep>
  <scstep>
   <time name="dav">   26.04   26.10</time>
   <time name="total">   28.74   28.81</time>
   <energy>
    <i name="e_fr_energy">    -52.54999392 </i>
    <i name="e_wo_entrp">    -52.54729783 </i>
    <i name="e_0_energy">    -52.54864587 </i>
   </energy>
  </scstep>
  <scstep>
   <time name="dav">   27.36   27.42</time>
   <time name="total">   30.06   30.14</time>
   <energy>
    <i name="e_fr_energy">    -52.55012123 </i>
    <i name="e_wo_entrp">    -52.54702092 </i>
    <i name="e_0_energy">    -52.54857108 </i>
   </energy>
  </scstep>
  <scstep>
   <time name="dav">   24.04   24.10</time>
   <time name="total">   26.71   26.78</time>
   <energy>
    <i name="e_fr_energy">    -52.55011462 </i>
    <i name="e_wo_entrp">    -52.54703279 </i>
    <i name="e_0_energy">    -52.54857371 </i>
   </energy>
  </scstep>
  <scstep>
   <time name="dav">   21.16   21.21</time>
   <time name="total">   23.85   23.91</time>
   <energy>
    <i name="e_fr_energy">    -52.55002148 </i>
    <i name="e_wo_entrp">    -52.54706204 </i>
    <i name="e_0_energy">    -52.54854176 </i>
   </energy>
  </scstep>
  <scstep>
   <time name="dav">   20.77   20.82</time>
   <time name="total">   23.50   23.56</time>
   <energy>
    <i name="e_fr_energy">    -52.55003329 </i>
    <i name="e_wo_entrp">    -52.54704910 </i>
    <i name="e_0_energy">    -52.54854120 </i>
   </energy>
  </scstep>
  <scstep>
   <time name="dav">   23.35   23.41</time>
   <time name="total">   26.08   26.15</time>
   <energy>
    <i name="e_fr_energy">    -52.54998091 </i>
    <i name="e_wo_entrp">    -52.54711145 </i>
    <i name="e_0_energy">    -52.54854618 </i>
   </energy>
  </scstep>
  <scstep>
   <time name="dav">   25.41   25.47</time>
   <time name="total">   28.13   28.20</time>
   <energy>
    <i name="e_fr_energy">    -52.54996790 </i>
    <i name="e_wo_entrp">    -52.54717755 </i>
    <i name="e_0_energy">    -52.54857273 </i>
   </energy>
  </scstep>
  <scstep>
   <time name="dav">   20.85   20.90</time>
   <time name="total">   21.88   21.94</time>
   <energy>
    <i name="alphaZ">    271.90633535 </i>
    <i name="ewald">  -7806.17291194 </i>
    <i name="hartreedc">  -4040.55004792 </i>
    <i name="XCdc">    380.06857194 </i>
    <i name="pawpsdc">  15958.28587027 </i>
    <i name="pawaedc"> -16247.93616079 </i>
    <i name="eentropy">     -0.00278870 </i>
    <i name="bandstr">   -587.68688124 </i>
    <i name="atom">  12019.53804467 </i>
    <i name="e_fr_energy">    -52.54996836 </i>
    <i name="e_wo_entrp">    -52.54717966 </i>
    <i name="e_0_energy">    -52.54857401 </i>
   </energy>
  </scstep>
  <structure>
   <crystal>
    <varray name="basis" >
     <v>       3.97212670       0.00000000       0.00000000 </v>
     <v>      -1.98606335       3.43996263      -0.00000000 </v>
     <v>       0.00000000       0.00000000      24.94699516 </v>
    </varray>
    <i name="volume">    340.87492928 </i>
    <varray name="rec_basis" >
     <v>       0.25175431       0.14535042       0.00000000 </v>
     <v>      -0.00000000       0.29070083       0.00000000 </v>
     <v>      -0.00000000       0.00000000       0.04008499 </v>
    </varray>
   </crystal>
   <varray name="positions" >
    <v>       0.00000000       0.00000000       0.25292406 </v>
    <v>       0.00000000       0.00000000       0.74707594 </v>
    <v>       0.33333334       0.66666669       0.09767571 </v>
    <v>       0.66666663       0.33333331       0.90232429 </v>
    <v>       0.33333334       0.66666669       0.19229705 </v>
    <v>       0.66666663       0.33333331       0.80770297 </v>
    <v>       0.33333334       0.66666669       0.94140865 </v>
    <v>       0.66666663       0.33333331       0.05859135 </v>
    <v>       0.33333334       0.66666669       0.69460593 </v>
    <v>       0.66666663       0.33333331       0.30539407 </v>
    <v>       0.33333334       0.66666669       0.43625615 </v>
    <v>       0.66666663       0.33333331       0.56374385 </v>
    <v>       0.33333334       0.66666669       0.59264093 </v>
    <v>       0.66666663       0.33333331       0.40735907 </v>
   </varray>
  </structure>
  <varray name="forces" >
   <v>      -0.00000000       0.00000000       0.69576546 </v>
   <v>       0.00000000      -0.00000000      -0.69576546 </v>
   <v>      -0.00000000      -0.00000000      -0.27799929 </v>
   <v>       0.00000000       0.00000000       0.27799929 </v>
   <v>      -0.00000000      -0.00000000       0.71769459 </v>
   <v>       0.00000000       0.00000000      -0.71769459 </v>
   <v>      -0.00000000      -0.00000000       0.49944940 </v>
   <v>       0.00000000       0.00000000      -0.49944940 </v>
   <v>      -0.00000000       0.00000000       0.41725592 </v>
   <v>       0.00000000      -0.00000000      -0.41725592 </v>
   <v>      -0.00000000      -0.00000000      -0.85799090 </v>
   <v>      -0.00000000       0.00000000       0.85799090 </v>
   <v>       0.00000000       0.00000000      -0.78562230 </v>
   <v>       0.00000000       0.00000000       0.78562230 </v>
  </varray>
  <varray name="stress" >
   <v>     -31.42739262       0.00000000      -0.00000000 </v>
   <v>      -0.00000000     -31.42739262       0.00000000 </v>
   <v>      -0.00000000       0.00000000       3.02416758 </v>
  </varray>
  <energy>
   <i name="e_fr_energy">    -56.45125710 </i>
   <i name="e_wo_entrp">    -56.44986275 </i>
   <i name="e_0_energy">     -0.00278870 </i>
  </energy>
  <time name="totalsc">  648.90  651.22</time>
 </calculation>
 <calculation>
  <scstep>
   <time name="dav">   27.91   27.98</time>
   <time name="total">   30.66   30.76</time>
   <energy>
    <i name="alphaZ">    274.05896024 </i>
    <i name="ewald">  -7823.85290684 </i>
    <i name="hartreedc">  -4053.47405382 </i>
    <i name="XCdc">    381.28999336 </i>
    <i name="pawpsdc">  15958.35349040 </i>
    <i name="pawaedc"> -16248.00381091 </i>
    <i name="eentropy">     -0.00342982 </i>
    <i name="bandstr">   -560.49003479 </i>
    <i name="atom">  12019.53804467 </i>
    <i name="e_fr_energy">    -52.58374750 </i>
    <i name="e_wo_entrp">    -52.58031768 </i>
    <i name="e_0_energy">    -52.58203259 </i>
   </energy>
  </scstep>
  <scstep>
   <time name="dav">   27.57   27.65</time>
   <time name="total">   30.28   30.38</time>
   <energy>
    <i name="e_fr_energy">    -52.53579818 </i>
    <i name="e_wo_entrp">    -52.53362376 </i>
    <i name="e_0_energy">    -52.53471097 </i>
   </energy>
  </scstep>
  <scstep>
   <time name="dav">   28.23   28.31</time>
   <time name="total">   30.92   31.02</time>
   <energy>
    <i name="e_fr_energy">    -52.53831374 </i>
    <i name="e_wo_entrp">    -52.53343078 </i>
    <i name="e_0_energy">    -52.53587226 </i>
   </energy>
  </scstep>
  <scstep>
   <time name="dav">   28.32   28.41</time>
   <time name="total">   31.00   31.10</time>
   <energy>
    <i name="e_fr_energy">    -52.53129871 </i>
    <i name="e_wo_entrp">    -52.52965282 </i>
    <i name="e_0_energy">    -52.53047576 </i>
   </energy>
  </scstep>
  <scstep>
   <time name="dav">   27.38   27.47</time>
   <time name="total">   30.10   30.19</time>
   <energy>
    <i name="e_fr_energy">    -52.52571024 </i>
    <i name="e_wo_entrp">    -52.52218134 </i>
    <i name="e_0_energy">    -52.52394579 </i>
   </energy>
  </scstep>
  <scstep>
   <time name="dav">   23.83   23.90</time>
   <time name="total">   26.55   26.63</time>
   <energy>
    <i name="e_fr_energy">    -52.52599352 </i>
    <i name="e_wo_entrp">    -52.52247714 </i>
    <i name="e_0_energy">    -52.52423533 </i>
   </energy>
  </scstep>
  <scstep>
   <time name="dav">   26.13   26.21</time>
   <time name="total">   28.84   28.93</time>
   <energy>
    <i name="e_fr_energy">    -52.52598284 </i>
    <i name="e_wo_entrp">    -52.52248922 </i>
    <i name="e_0_energy">    -52.52423603 </i>
   </energy>
  </scstep>
  <scstep>
   <time name="dav">   31.00   31.09</time>
   <time name="total">   33.73   33.83</time>
   <energy>
    <i name="e_fr_energy">    -52.52594937 </i>
    <i name="e_wo_entrp">    -52.52261619 </i>
    <i name="e_0_energy">    -52.52428278 </i>
   </energy>
  </scstep>
  <scstep>
   <time name="dav">   27.16   27.24</time>
   <time name="total">   29.91   30.02</time>
   <energy>
    <i name="e_fr_energy">    -52.52595069 </i>
    <i name="e_wo_entrp">    -52.52257271 </i>
    <i name="e_0_energy">    -52.52426170 </i>
   </energy>
  </scstep>
  <scstep>
   <time name="dav">   21.83   21.90</time>
   <time name="total">   24.60   24.69</time>
   <energy>
    <i name="e_fr_energy">    -52.52594894 </i>
    <i name="e_wo_entrp">    -52.52258507 </i>
    <i name="e_0_energy">    -52.52426701 </i>
   </energy>
  </scstep>
  <scstep>
   <time name="dav">   19.32   19.38</time>
   <time name="total">   22.05   22.12</time>
   <energy>
    <i name="e_fr_energy">    -52.52594730 </i>
    <i name="e_wo_entrp">    -52.52257494 </i>
    <i name="e_0_energy">    -52.52426112 </i>
   </energy>
  </scstep>
  <scstep>
   <time name="dav">   15.85   15.89</time>
   <time name="total">   16.86   16.99</time>
   <energy>
    <i name="alphaZ">    274.05896024 </i>
    <i name="ewald">  -7823.85290684 </i>
    <i name="hartreedc">  -4032.17596407 </i>
    <i name="XCdc">    380.30557448 </i>
    <i name="pawpsdc">  16092.01730451 </i>
    <i name="pawaedc"> -16382.05483087 </i>
    <i name="eentropy">     -0.00336029 </i>
    <i name="bandstr">   -580.35876908 </i>
    <i name="atom">  12019.53804467 </i>
    <i name="e_fr_energy">    -52.52594723 </i>
    <i name="e_wo_entrp">    -52.52258694 </i>
    <i name="e_0_energy">    -52.52426709 </i>
   </energy>
  </scstep>
  <structure>
   <crystal>
    <varray name="basis" >
     <v>       3.95880731       0.00000000       0.00000000 </v>
     <v>      -1.97940365       3.42842770      -0.00000000 </v>
     <v>       0.00000000       0.00000000      24.91787617 </v>
    </varray>
    <i name="volume">    338.19749134 </i>
    <varray name="rec_basis" >
     <v>       0.25260133       0.14583945       0.00000000 </v>
     <v>      -0.00000000       0.29167889       0.00000000 </v>
     <v>      -0.00000000       0.00000000       0.04013183 </v>
    </varray>
   </crystal>
   <varray name="positions" >
    <v>       0.00000000       0.00000000       0.25260857 </v>
    <v>       0.00000000       0.00000000       0.74739143 </v>
    <v>       0.33333334       0.66666669       0.09728991 </v>
    <v>       0.66666663       0.33333331       0.90271009 </v>
    <v>       0.33333334       0.66666669       0.19245922 </v>
    <v>       0.66666663       0.33333331       0.80754081 </v>
    <v>       0.33333334       0.66666669       0.94098693 </v>
    <v>       0.66666663       0.33333331       0.05901307 </v>
    <v>       0.33333334       0.66666669       0.69448660 </v>
    <v>       0.66666663       0.33333331       0.30551340 </v>
    <v>       0.33333334       0.66666669       0.43639035 </v>
    <v>       0.66666663       0.33333331       0.56360965 </v>
    <v>       0.33333334       0.66666669       0.59278757 </v>
    <v>       0.66666663       0.33333331       0.40721243 </v>
   </varray>
  </structure>
  <varray name="forces" >
   <v>      -0.00000000      -0.00000000       0.76620000 </v>
   <v>      -0.00000000       0.00000000      -0.76620000 </v>
   <v>       0.00000000      -0.00000000      -0.04174861 </v>
   <v>      -0.00000000       0.00000000       0.04174861 </v>
   <v>       0.00000000       0.00000000       0.55542650 </v>
   <v>      -0.00000000       0.00000000      -0.55542650 </v>
   <v>       0.00000000       0.00000000       0.64310982 </v>
   <v>      -0.00000000       0.00000000      -0.64310982 </v>
   <v>      -0.00000000      -0.00000000       0.43426060 </v>
   <v>       0.00000000       0.00000000      -0.43426060 </v>
   <v>       0.00000000      -0.00000000      -0.83902421 </v>
   <v>      -0.00000000       0.00000000       0.83902421 </v>
   <v>       0.00000000      -0.00000000      -0.77870927 </v>
   <v>      -0.00000000       0.00000000       0.77870927 </v>
  </varray>
  <varray name="stress" >
   <v>     -24.73120019      -0.00000000      -0.00000000 </v>
   <v>       0.00000000     -24.73120020      -0.00000000 </v>
   <v>      -0.00000000       0.00000000       3.95781810 </v>
  </varray>
  <energy>
   <i name="e_fr_energy">    -56.46112300 </i>
   <i name="e_wo_entrp">    -56.45944286 </i>
   <i name="e_0_energy">     -0.00336029 </i>
  </energy>
  <time name="totalsc">  380.28  381.79</time>
 </calculation>
 <calculation>
  <scstep>
   <time name="dav">   22.74   22.81</time>
   <time name="total">   25.42   25.70</time>
   <energy>
    <i name="alphaZ">    277.52986930 </i>
    <i name="ewald">  -7853.52377532 </i>
    <i name="hartreedc">  -4050.11721410 </i>
    <i name="XCdc">    382.25332224 </i>
    <i name="pawpsdc">  16092.31864400 </i>
    <i name="pawaedc"> -16382.35704551 </i>
    <i name="eentropy">     -0.00189830 </i>
    <i name="bandstr">   -538.38705513 </i>
    <i name="atom">  12019.53804467 </i>
    <i name="e_fr_energy">    -52.74710816 </i>
    <i name="e_wo_entrp">    -52.74520986 </i>
    <i name="e_0_energy">    -52.74615901 </i>
   </energy>
  </scstep>
  <scstep>
   <time name="dav">   27.25   27.33</time>
   <time name="total">   29.94   30.03</time>
   <energy>
    <i name="e_fr_energy">    -52.88474691 </i>
    <i name="e_wo_entrp">    -52.88305110 </i>
    <i name="e_0_energy">    -52.88389900 </i>
   </energy>
  </scstep>
  <scstep>
   <time name="dav">   27.13   27.21</time>
   <time name="total">   29.82   30.14</time>
   <energy>
    <i name="e_fr_energy">    -52.85434380 </i>
    <i name="e_wo_entrp">    -52.85251589 </i>
    <i name="e_0_energy">    -52.85342984 </i>
   </energy>
  </scstep>
  <scstep>
   <time name="dav">   27.14   27.22</time>
   <time name="total">   29.83   29.92</time>
   <energy>
    <i name="e_fr_energy">    -52.84914738 </i>
    <i name="e_wo_entrp">    -52.84746654 </i>
    <i name="e_0_energy">    -52.84830696 </i>
   </energy>
  </scstep>
  <scstep>
   <time name="dav">   27.48   27.56</time>
   <time name="total">   30.17   30.26</time>
   <energy>
    <i name="e_fr_energy">    -52.82826157 </i>
    <i name="e_wo_entrp">    -52.82643958 </i>
    <i name="e_0_energy">    -52.82735057 </i>
   </energy>
  </scstep>
  <scstep>
   <time name="dav">   24.41   24.48</time>
   <time name="total">   27.07   27.16</time>
   <energy>
    <i name="e_fr_energy">    -52.82819250 </i>
    <i name="e_wo_entrp">    -52.82666773 </i>
    <i name="e_0_energy">    -52.82743012 </i>
   </energy>
  </scstep>
  <scstep>
   <time name="dav">   23.04   23.11</time>
   <time name="total">   25.69   25.77</time>
   <energy>
    <i name="e_fr_energy">    -52.82833709 </i>
    <i name="e_wo_entrp">    -52.82675701 </i>
    <i name="e_0_energy">    -52.82754705 </i>
   </energy>
  </scstep>
  <scstep>
   <time name="dav">   26.82   26.90</time>
   <time name="total">   29.46   29.56</time>
   <energy>
    <i name="e_fr_energy">    -52.82840234 </i>
    <i name="e_wo_entrp">    -52.82682371 </i>
    <i name="e_0_energy">    -52.82761302 </i>
   </energy>
  </scstep>
  <scstep>
   <time name="dav">   26.38   26.46</time>
   <time name="total">   29.04   29.34</time>
   <energy>
    <i name="e_fr_energy">    -52.82848835 </i>
    <i name="e_wo_entrp">    -52.82691822 </i>
    <i name="e_0_energy">    -52.82770328 </i>
   </energy>
  </scstep>
  <scstep>
   <time name="dav">   25.24   25.31</time>
   <time name="total">   27.87   27.95</time>
   <energy>
    <i name="e_fr_energy">    -52.82825662 </i>
    <i name="e_wo_entrp">    -52.82663587 </i>
    <i name="e_0_energy">    -52.82744625 </i>
   </energy>
  </scstep>
  <scstep>
   <time name="dav">   23.24   23.31</time>
   <time name="total">   25.85   25.93</time>
   <energy>
    <i name="e_fr_energy">    -52.82820447 </i>
    <i name="e_wo_entrp">    -52.82657751 </i>
    <i name="e_0_energy">    -52.82739099 </i>
   </energy>
  </scstep>
  <scstep>
   <time name="dav">   24.85   24.93</time>
   <time name="total">   27.49   27.58</time>
   <energy>
    <i name="e_fr_energy">    -52.82816589 </i>
    <i name="e_wo_entrp">    -52.82653925 </i>
    <i name="e_0_energy">    -52.82735257 </i>
   </energy>
  </scstep>
  <scstep>
   <time name="dav">   23.50   23.57</time>
   <time name="total">   26.13   26.21</time>
   <energy>
    <i name="e_fr_energy">    -52.82813471 </i>
    <i name="e_wo_entrp">    -52.82650468 </i>
    <i name="e_0_energy">    -52.82731970 </i>
   </energy>
  </scstep>
  <scstep>
   <time name="dav">   23.12   23.18</time>
   <time name="total">   25.72   26.02</time>
   <energy>
    <i name="e_fr_energy">    -52.82810635 </i>
    <i name="e_wo_entrp">    -52.82647901 </i>
    <i name="e_0_energy">    -52.82729268 </i>
   </energy>
  </scstep>
  <scstep>
   <time name="dav">   22.64   22.71</time>
   <time name="total">   25.28   25.35</time>
   <energy>
    <i name="e_fr_energy">    -52.82811360 </i>
    <i name="e_wo_entrp">    -52.82648409 </i>
    <i name="e_0_energy">    -52.82729885 </i>
   </energy>
  </scstep>
  <scstep>
   <time name="dav">   20.18   20.24</time>
   <time name="total">   21.18   21.24</time>
   <energy>
    <i name="alphaZ">    277.52986930 </i>
    <i name="ewald">  -7853.52377532 </i>
    <i name="hartreedc">  -4018.07789253 </i>
    <i name="XCdc">    380.72718149 </i>
    <i name="pawpsdc">  16248.01233402 </i>
    <i name="pawaedc"> -16538.57854764 </i>
    <i name="eentropy">     -0.00162961 </i>
    <i name="bandstr">   -568.45369743 </i>
    <i name="atom">  12019.53804467 </i>
    <i name="e_fr_energy">    -52.82811305 </i>
    <i name="e_wo_entrp">    -52.82648344 </i>
    <i name="e_0_energy">    -52.82729824 </i>
   </energy>
  </scstep>
  <structure>
   <crystal>
    <varray name="basis" >
     <v>       3.92278302       0.00000000      -0.00000000 </v>
     <v>      -1.96139151       3.39722975      -0.00000000 </v>
     <v>      -0.00000000       0.00000000      25.06025302 </v>
    </varray>
    <i name="volume">    333.96784666 </i>
    <varray name="rec_basis" >
     <v>       0.25492106       0.14717874       0.00000000 </v>
     <v>      -0.00000000       0.29435748      -0.00000000 </v>
     <v>       0.00000000       0.00000000       0.03990383 </v>
    </varray>
   </crystal>
   <varray name="positions" >
    <v>      -0.00000000       0.00000000       0.25483539 </v>
    <v>       0.00000000       0.00000000       0.74516461 </v>
    <v>       0.33333334       0.66666669       0.09815950 </v>
    <v>       0.66666663       0.33333331       0.90184050 </v>
    <v>       0.33333334       0.66666669       0.19311236 </v>
    <v>       0.66666663       0.33333331       0.80688766 </v>
    <v>       0.33333334       0.66666669       0.94324186 </v>
    <v>       0.66666663       0.33333331       0.05675814 </v>
    <v>       0.33333334       0.66666669       0.69560243 </v>
    <v>       0.66666663       0.33333331       0.30439757 </v>
    <v>       0.33333334       0.66666669       0.43447138 </v>
    <v>       0.66666663       0.33333331       0.56552862 </v>
    <v>       0.33333334       0.66666669       0.59095226 </v>
    <v>       0.66666663       0.33333331       0.40904774 </v>
   </varray>
  </structure>
  <varray name="forces" >
   <v>      -0.00000000       0.00000000       0.25683760 </v>
   <v>       0.00000000      -0.00000000      -0.25683760 </v>
   <v>       0.00000000      -0.00000000      -0.00154555 </v>
   <v>       0.00000000       0.00000000       0.00154555 </v>
   <v>      -0.00000000       0.00000000       0.33154295 </v>
   <v>       0.00000000      -0.00000000      -0.33154295 </v>
   <v>      -0.00000000       0.00000000       0.38085062 </v>
   <v>       0.00000000      -0.00000000      -0.38085062 </v>
   <v>       0.00000000       0.00000000      -0.03952294 </v>
   <v>      -0.00000000      -0.00000000       0.03952294 </v>
   <v>       0.00000000       0.00000000      -0.62994824 </v>
   <v>      -0.00000000      -0.00000000       0.62994824 </v>
   <v>       0.00000000       0.00000000      -0.57585193 </v>
   <v>      -0.00000000      -0.00000000       0.57585193 </v>
  </varray>
  <varray name="stress" >
   <v>     -13.48133550       0.00000000      -0.00000000 </v>
   <v>       0.00000000     -13.48133550       0.00000000 </v>
   <v>       0.00000000      -0.00000000       5.43824769 </v>
  </varray>
  <energy>
   <i name="e_fr_energy">    -56.81752665 </i>
   <i name="e_wo_entrp">    -56.81671185 </i>
   <i name="e_0_energy">     -0.00162961 </i>
  </energy>
  <time name="totalsc">  480.28  483.45</time>
 </calculation>
 <calculation>
  <scstep>
   <time name="dav">   22.32   22.38</time>
   <time name="total">   24.96   25.03</time>
   <energy>
    <i name="alphaZ">    280.76792572 </i>
    <i name="ewald">  -7875.90413087 </i>
    <i name="hartreedc">  -4038.83715480 </i>
    <i name="XCdc">    382.53997575 </i>
    <i name="pawpsdc">  16242.60935989 </i>
    <i name="pawaedc"> -16533.20220701 </i>
    <i name="eentropy">     -0.00216394 </i>
    <i name="bandstr">   -530.36579730 </i>
    <i name="atom">  12019.53804467 </i>
    <i name="e_fr_energy">    -52.85614790 </i>
    <i name="e_wo_entrp">    -52.85398396 </i>
    <i name="e_0_energy">    -52.85506593 </i>
   </energy>
  </scstep>
  <scstep>
   <time name="dav">   27.00   27.09</time>
   <time name="total">   29.66   29.75</time>
   <energy>
    <i name="e_fr_energy">    -52.95733710 </i>
    <i name="e_wo_entrp">    -52.95529942 </i>
    <i name="e_0_energy">    -52.95631826 </i>
   </energy>
  </scstep>
  <scstep>
   <time name="dav">   26.28   26.36</time>
   <time name="total">   28.95   29.04</time>
   <energy>
    <i name="e_fr_energy">    -52.93437694 </i>
    <i name="e_wo_entrp">    -52.93281970 </i>
    <i name="e_0_energy">    -52.93359832 </i>
   </energy>
  </scstep>
  <scstep>
   <time name="dav">   26.16   26.24</time>
   <time name="total">   28.84   28.93</time>
   <energy>
    <i name="e_fr_energy">    -52.92110794 </i>
    <i name="e_wo_entrp">    -52.91930983 </i>
    <i name="e_0_energy">    -52.92020889 </i>
   </energy>
  </scstep>
  <scstep>
   <time name="dav">   25.01   25.09</time>
   <time name="total">   27.63   28.12</time>
   <energy>
    <i name="e_fr_energy">    -52.91403481 </i>
    <i name="e_wo_entrp">    -52.91247676 </i>
    <i name="e_0_energy">    -52.91325579 </i>
   </energy>
  </scstep>
  <scstep>
   <time name="dav">   23.55   23.62</time>
   <time name="total">   26.16   26.24</time>
   <energy>
    <i name="e_fr_energy">    -52.91412821 </i>
    <i name="e_wo_entrp">    -52.91257439 </i>
    <i name="e_0_energy">    -52.91335130 </i>
   </energy>
  </scstep>
  <scstep>
   <time name="dav">   24.96   25.03</time>
   <time name="total">   27.57   27.65</time>
   <energy>
    <i name="e_fr_energy">    -52.91408774 </i>
    <i name="e_wo_entrp">    -52.91253284 </i>
    <i name="e_0_energy">    -52.91331029 </i>
   </energy>
  </scstep>
  <scstep>
   <time name="dav">   26.96   27.04</time>
   <time name="total">   29.56   29.65</time>
   <energy>
    <i name="e_fr_energy">    -52.91404791 </i>
    <i name="e_wo_entrp">    -52.91249528 </i>
    <i name="e_0_energy">    -52.91327160 </i>
   </energy>
  </scstep>
  <scstep>
   <time name="dav">   23.80   23.87</time>
   <time name="total">   26.42   26.50</time>
   <energy>
    <i name="e_fr_energy">    -52.91403493 </i>
    <i name="e_wo_entrp">    -52.91248254 </i>
    <i name="e_0_energy">    -52.91325874 </i>
   </energy>
  </scstep>
  <scstep>
   <time name="dav">   23.39   23.46</time>
   <time name="total">   26.03   26.12</time>
   <energy>
    <i name="e_fr_energy">    -52.91403548 </i>
    <i name="e_wo_entrp">    -52.91248309 </i>
    <i name="e_0_energy">    -52.91325929 </i>
   </energy>
  </scstep>
  <scstep>
   <time name="dav">   21.04   21.11</time>
   <time name="total">   23.69   23.76</time>
   <energy>
    <i name="e_fr_energy">    -52.91403187 </i>
    <i name="e_wo_entrp">    -52.91247943 </i>
    <i name="e_0_energy">    -52.91325565 </i>
   </energy>
  </scstep>
  <scstep>
   <time name="dav">   21.42   21.48</time>
   <time name="total">   24.06   24.14</time>
   <energy>
    <i name="e_fr_energy">    -52.91402971 </i>
    <i name="e_wo_entrp">    -52.91247728 </i>
    <i name="e_0_energy">    -52.91325350 </i>
   </energy>
  </scstep>
  <scstep>
   <time name="dav">   16.43   16.48</time>
   <time name="total">   17.41   17.47</time>
   <energy>
    <i name="alphaZ">    280.76792572 </i>
    <i name="ewald">  -7875.90413087 </i>
    <i name="hartreedc">  -4009.36914169 </i>
    <i name="XCdc">    381.13944374 </i>
    <i name="pawpsdc">  16390.61320299 </i>
    <i name="pawaedc"> -16681.90536569 </i>
    <i name="eentropy">     -0.00155243 </i>
    <i name="bandstr">   -557.79245598 </i>
    <i name="atom">  12019.53804467 </i>
    <i name="e_fr_energy">    -52.91402954 </i>
    <i name="e_wo_entrp">    -52.91247711 </i>
    <i name="e_0_energy">    -52.91325332 </i>
   </energy>
  </scstep>
  <structure>
   <crystal>
    <varray name="basis" >
     <v>       3.89007737       0.00000000      -0.00000000 </v>
     <v>      -1.94503868       3.36890582      -0.00000000 </v>
     <v>      -0.00000000       0.00000000      25.18951379 </v>
    </varray>
    <i name="volume">    330.11624314 </i>
    <varray name="rec_basis" >
     <v>       0.25706430       0.14841614       0.00000000 </v>
     <v>      -0.00000000       0.29683228      -0.00000000 </v>
     <v>       0.00000000       0.00000000       0.03969906 </v>
    </varray>
   </crystal>
   <varray name="positions" >
    <v>       0.00000000       0.00000000       0.25684558 </v>
    <v>      -0.00000000       0.00000000       0.74315442 </v>
    <v>       0.33333334       0.66666669       0.09894449 </v>
    <v>       0.66666663       0.33333331       0.90105551 </v>
    <v>       0.33333334       0.66666669       0.19370197 </v>
    <v>       0.66666663       0.33333331       0.80629805 </v>
    <v>       0.33333334       0.66666669       0.94527742 </v>
    <v>       0.66666663       0.33333331       0.05472258 </v>
    <v>       0.33333334       0.66666669       0.69660972 </v>
    <v>       0.66666663       0.33333331       0.30339028 </v>
    <v>       0.33333334       0.66666669       0.43273909 </v>
    <v>       0.66666663       0.33333331       0.56726091 </v>
    <v>       0.33333334       0.66666669       0.58929549 </v>
    <v>       0.66666663       0.33333331       0.41070451 </v>
   </varray>
  </structure>
  <varray name="forces" >
   <v>       0.00000000       0.00000000      -0.29921076 </v>
   <v>      -0.00000000       0.00000000       0.29921076 </v>
   <v>       0.00000000      -0.00000000      -0.07837849 </v>
   <v>      -0.00000000       0.00000000       0.07837849 </v>
   <v>      -0.00000000      -0.00000000       0.18483615 </v>
   <v>       0.00000000       0.00000000      -0.18483615 </v>
   <v>      -0.00000000      -0.00000000       0.04839716 </v>
   <v>       0.00000000      -0.00000000      -0.04839716 </v>
   <v>       0.00000000       0.00000000      -0.51841519 </v>
   <v>      -0.00000000      -0.00000000       0.51841519 </v>
   <v>       0.00000000       0.00000000      -0.42371841 </v>
   <v>      -0.00000000      -0.00000000       0.42371841 </v>
   <v>       0.00000000       0.00000000      -0.39619542 </v>
   <v>      -0.00000000      -0.00000000       0.39619542 </v>
  </varray>
  <varray name="stress" >
   <v>      -2.87753142      -0.00000000      -0.00000000 </v>
   <v>      -0.00000000      -2.87753142       0.00000000 </v>
   <v>       0.00000000       0.00000000       4.50772927 </v>
  </varray>
  <energy>
   <i name="e_fr_energy">    -56.95454713 </i>
   <i name="e_wo_entrp">    -56.95377092 </i>
   <i name="e_0_energy">     -0.00155243 </i>
  </energy>
  <time name="totalsc">  385.32  386.93</time>
 </calculation>
 <calculation>
  <scstep>
   <time name="dav">   22.56   22.63</time>
   <time name="total">   25.22   25.30</time>
   <energy>
    <i name="alphaZ">    281.37247796 </i>
    <i name="ewald">  -7879.56276533 </i>
    <i name="hartreedc">  -4013.62767153 </i>
    <i name="XCdc">    381.47632075 </i>
    <i name="pawpsdc">  16390.81056637 </i>
    <i name="pawaedc"> -16682.10289054 </i>
    <i name="eentropy">     -0.00155126 </i>
    <i name="bandstr">   -550.80801473 </i>
    <i name="atom">  12019.53804467 </i>
    <i name="e_fr_energy">    -52.90548363 </i>
    <i name="e_wo_entrp">    -52.90393237 </i>
    <i name="e_0_energy">    -52.90470800 </i>
   </energy>
  </scstep>
  <scstep>
   <time name="dav">   26.11   26.19</time>
   <time name="total">   28.73   28.81</time>
   <energy>
    <i name="e_fr_energy">    -52.90838287 </i>
    <i name="e_wo_entrp">    -52.90677073 </i>
    <i name="e_0_energy">    -52.90757680 </i>
   </energy>
  </scstep>
  <scstep>
   <time name="dav">   25.03   25.11</time>
   <time name="total">   27.64   27.73</time>
   <energy>
    <i name="e_fr_energy">    -52.90769575 </i>
    <i name="e_wo_entrp">    -52.90611007 </i>
    <i name="e_0_energy">    -52.90690291 </i>
   </energy>
  </scstep>
  <scstep>
   <time name="dav">   26.02   26.09</time>
   <time name="total">   28.62   28.71</time>
   <energy>
    <i name="e_fr_energy">    -52.90729151 </i>
    <i name="e_wo_entrp">    -52.90570300 </i>
    <i name="e_0_energy">    -52.90649725 </i>
   </energy>
  </scstep>
  <scstep>
   <time name="dav">   25.21   25.29</time>
   <time name="total">   27.80   27.88</time>
   <energy>
    <i name="e_fr_energy">    -52.90711337 </i>
    <i name="e_wo_entrp">    -52.90553293 </i>
    <i name="e_0_energy">    -52.90632315 </i>
   </energy>
  </scstep>
  <scstep>
   <time name="dav">   25.30   25.38</time>
   <time name="total">   27.94   28.03</time>
   <energy>
    <i name="e_fr_energy">    -52.90710880 </i>
    <i name="e_wo_entrp">    -52.90552930 </i>
    <i name="e_0_energy">    -52.90631905 </i>
   </energy>
  </scstep>
  <scstep>
   <time name="dav">   23.11   23.18</time>
   <time name="total">   25.76   25.83</time>
   <energy>
    <i name="e_fr_energy">    -52.90711039 </i>
    <i name="e_wo_entrp">    -52.90553224 </i>
    <i name="e_0_energy">    -52.90632131 </i>
   </energy>
  </scstep>
  <scstep>
   <time name="dav">   22.32   22.38</time>
   <time name="total">   24.95   25.03</time>
   <energy>
    <i name="e_fr_energy">    -52.90711205 </i>
    <i name="e_wo_entrp">    -52.90553432 </i>
    <i name="e_0_energy">    -52.90632319 </i>
   </energy>
  </scstep>
  <scstep>
   <time name="dav">   16.02   16.07</time>
   <time name="total">   17.01   17.07</time>
   <energy>
    <i name="alphaZ">    281.37247796 </i>
    <i name="ewald">  -7879.56276533 </i>
    <i name="hartreedc">  -4008.11734094 </i>
    <i name="XCdc">    381.21536991 </i>
    <i name="pawpsdc">  16423.32767136 </i>
    <i name="pawaedc"> -16714.75111688 </i>
    <i name="eentropy">     -0.00157761 </i>
    <i name="bandstr">   -555.92787537 </i>
    <i name="atom">  12019.53804467 </i>
    <i name="e_fr_energy">    -52.90711222 </i>
    <i name="e_wo_entrp">    -52.90553462 </i>
    <i name="e_0_energy">    -52.90632342 </i>
   </energy>
  </scstep>
  <structure>
   <crystal>
    <varray name="basis" >
     <v>       3.88406424       0.00000000      -0.00000000 </v>
     <v>      -1.94203212       3.36369830      -0.00000000 </v>
     <v>      -0.00000000       0.00000000      25.21327915 </v>
    </varray>
    <i name="volume">    329.40696085 </i>
    <varray name="rec_basis" >
     <v>       0.25746227       0.14864591       0.00000000 </v>
     <v>      -0.00000000       0.29729182      -0.00000000 </v>
     <v>       0.00000000       0.00000000       0.03966164 </v>
    </varray>
   </crystal>
   <varray name="positions" >
    <v>       0.00000000       0.00000000       0.25721327 </v>
    <v>      -0.00000000       0.00000000       0.74278673 </v>
    <v>       0.33333334       0.66666669       0.09908808 </v>
    <v>       0.66666663       0.33333331       0.90091192 </v>
    <v>       0.33333334       0.66666669       0.19380982 </v>
    <v>       0.66666663       0.33333331       0.80619021 </v>
    <v>       0.33333334       0.66666669       0.94564975 </v>
    <v>       0.66666663       0.33333331       0.05435025 </v>
    <v>       0.33333334       0.66666669       0.69679396 </v>
    <v>       0.66666663       0.33333331       0.30320604 </v>
    <v>       0.33333334       0.66666669       0.43242223 </v>
    <v>       0.66666663       0.33333331       0.56757777 </v>
    <v>       0.33333334       0.66666669       0.58899245 </v>
    <v>       0.66666663       0.33333331       0.41100755 </v>
   </varray>
  </structure>
  <varray name="forces" >
   <v>       0.00000000       0.00000000      -0.41504992 </v>
   <v>      -0.00000000      -0.00000000       0.41504992 </v>
   <v>       0.00000000       0.00000000      -0.10943472 </v>
   <v>      -0.00000000      -0.00000000       0.10943472 </v>
   <v>      -0.00000000      -0.00000000       0.16928066 </v>
   <v>       0.00000000       0.00000000      -0.16928066 </v>
   <v>       0.00000000      -0.00000000      -0.02407035 </v>
   <v>      -0.00000000       0.00000000       0.02407035 </v>
   <v>       0.00000000       0.00000000      -0.61436837 </v>
   <v>      -0.00000000       0.00000000       0.61436837 </v>
   <v>       0.00000000      -0.00000000      -0.38136974 </v>
   <v>      -0.00000000       0.00000000       0.38136974 </v>
   <v>       0.00000000      -0.00000000      -0.35895530 </v>
   <v>      -0.00000000       0.00000000       0.35895530 </v>
  </varray>
  <varray name="stress" >
   <v>      -0.16798154       0.00000000      -0.00000000 </v>
   <v>      -0.00000000      -0.16798154       0.00000000 </v>
   <v>      -0.00000000       0.00000000       4.63793309 </v>
  </varray>
  <energy>
   <i name="e_fr_energy">    -56.95722162 </i>
   <i name="e_wo_entrp">    -56.95643282 </i>
   <i name="e_0_energy">     -0.00157761 </i>
  </energy>
  <time name="totalsc">  277.98  279.08</time>
 </calculation>
 <calculation>
  <scstep>
   <time name="dav">   21.03   21.09</time>
   <time name="total">   23.67   23.75</time>
   <energy>
    <i name="alphaZ">    281.03524799 </i>
    <i name="ewald">  -7878.26149181 </i>
    <i name="hartreedc">  -4003.34206574 </i>
    <i name="XCdc">    380.99515077 </i>
    <i name="pawpsdc">  16423.36766231 </i>
    <i name="pawaedc"> -16714.79144692 </i>
    <i name="eentropy">     -0.00166262 </i>
    <i name="bandstr">   -561.50649774 </i>
    <i name="atom">  12019.53804467 </i>
    <i name="e_fr_energy">    -52.96705909 </i>
    <i name="e_wo_entrp">    -52.96539647 </i>
    <i name="e_0_energy">    -52.96622778 </i>
   </energy>
  </scstep>
  <scstep>
   <time name="dav">   26.15   26.23</time>
   <time name="total">   28.80   28.90</time>
   <energy>
    <i name="e_fr_energy">    -52.99226438 </i>
    <i name="e_wo_entrp">    -52.99070121 </i>
    <i name="e_0_energy">    -52.99148279 </i>
   </energy>
  </scstep>
  <scstep>
   <time name="dav">   25.04   25.11</time>
   <time name="total">   27.65   27.73</time>
   <energy>
    <i name="e_fr_energy">    -52.98720704 </i>
    <i name="e_wo_entrp">    -52.98561812 </i>
    <i name="e_0_energy">    -52.98641258 </i>
   </energy>
  </scstep>
  <scstep>
   <time name="dav">   24.99   25.07</time>
   <time name="total">   27.59   27.68</time>
   <energy>
    <i name="e_fr_energy">    -52.98411127 </i>
    <i name="e_wo_entrp">    -52.98252181 </i>
    <i name="e_0_energy">    -52.98331654 </i>
   </energy>
  </scstep>
  <scstep>
   <time name="dav">   26.80   26.88</time>
   <time name="total">   29.40   29.50</time>
   <energy>
    <i name="e_fr_energy">    -52.98256308 </i>
    <i name="e_wo_entrp">    -52.98098005 </i>
    <i name="e_0_energy">    -52.98177157 </i>
   </energy>
  </scstep>
  <scstep>
   <time name="dav">   24.11   24.18</time>
   <time name="total">   26.72   26.80</time>
   <energy>
    <i name="e_fr_energy">    -52.98262163 </i>
    <i name="e_wo_entrp">    -52.98103143 </i>
    <i name="e_0_energy">    -52.98182653 </i>
   </energy>
  </scstep>
  <scstep>
   <time name="dav">   24.39   24.46</time>
   <time name="total">   27.04   27.12</time>
   <energy>
    <i name="e_fr_energy">    -52.98261508 </i>
    <i name="e_wo_entrp">    -52.98102300 </i>
    <i name="e_0_energy">    -52.98181904 </i>
   </energy>
  </scstep>
  <scstep>
   <time name="dav">   24.72   24.79</time>
   <time name="total">   27.35   27.44</time>
   <energy>
    <i name="e_fr_energy">    -52.98261292 </i>
    <i name="e_wo_entrp">    -52.98102162 </i>
    <i name="e_0_energy">    -52.98181727 </i>
   </energy>
  </scstep>
  <scstep>
   <time name="dav">   21.61   21.68</time>
   <time name="total">   24.25   24.33</time>
   <energy>
    <i name="e_fr_energy">    -52.98261406 </i>
    <i name="e_wo_entrp">    -52.98102108 </i>
    <i name="e_0_energy">    -52.98181757 </i>
   </energy>
  </scstep>
  <scstep>
   <time name="dav">   16.26   16.31</time>
   <time name="total">   17.26   17.31</time>
   <energy>
    <i name="alphaZ">    281.03524799 </i>
    <i name="ewald">  -7878.26149181 </i>
    <i name="hartreedc">  -4008.26438564 </i>
    <i name="XCdc">    381.15190662 </i>
    <i name="pawpsdc">  16329.24335660 </i>
    <i name="pawaedc"> -16620.49840250 </i>
    <i name="eentropy">     -0.00159249 </i>
    <i name="bandstr">   -556.92529762 </i>
    <i name="atom">  12019.53804467 </i>
    <i name="e_fr_energy">    -52.98261419 </i>
    <i name="e_wo_entrp">    -52.98102170 </i>
    <i name="e_0_energy">    -52.98181794 </i>
   </energy>
  </scstep>
  <structure>
   <crystal>
    <varray name="basis" >
     <v>       3.87670149       0.00000000      -0.00000000 </v>
     <v>      -1.93835074       3.35732197      -0.00000000 </v>
     <v>      -0.00000000      -0.00000000      25.33951165 </v>
    </varray>
    <i name="volume">    329.80223476 </i>
    <varray name="rec_basis" >
     <v>       0.25795125       0.14892822       0.00000000 </v>
     <v>      -0.00000000       0.29785645      -0.00000000 </v>
     <v>       0.00000000       0.00000000       0.03946406 </v>
    </varray>
   </crystal>
   <varray name="positions" >
    <v>       0.00000000       0.00000000       0.25669370 </v>
    <v>      -0.00000000       0.00000000       0.74330630 </v>
    <v>       0.33333334       0.66666669       0.09900489 </v>
    <v>       0.66666663       0.33333331       0.90099511 </v>
    <v>       0.33333334       0.66666669       0.19431920 </v>
    <v>       0.66666663       0.33333331       0.80568083 </v>
    <v>       0.33333334       0.66666669       0.94602461 </v>
    <v>       0.66666663       0.33333331       0.05397539 </v>
    <v>       0.33333334       0.66666669       0.69560948 </v>
    <v>       0.66666663       0.33333331       0.30439052 </v>
    <v>       0.33333334       0.66666669       0.43118941 </v>
    <v>       0.66666663       0.33333331       0.56881059 </v>
    <v>       0.33333334       0.66666669       0.58782654 </v>
    <v>       0.66666663       0.33333331       0.41217346 </v>
   </varray>
  </structure>
  <varray name="forces" >
   <v>       0.00000000      -0.00000000      -0.07966497 </v>
   <v>      -0.00000000      -0.00000000       0.07966497 </v>
   <v>      -0.00000000      -0.00000000       0.09794348 </v>
   <v>       0.00000000       0.00000000      -0.09794348 </v>
   <v>       0.00000000       0.00000000      -0.13584931 </v>
   <v>      -0.00000000      -0.00000000       0.13584931 </v>
   <v>       0.00000000       0.00000000      -0.08255176 </v>
   <v>      -0.00000000       0.00000000       0.08255176 </v>
   <v>       0.00000000       0.00000000      -0.30412939 </v>
   <v>      -0.00000000      -0.00000000       0.30412939 </v>
   <v>       0.00000000      -0.00000000      -0.21152291 </v>
   <v>      -0.00000000      -0.00000000       0.21152291 </v>
   <v>       0.00000000       0.00000000      -0.21806893 </v>
   <v>      -0.00000000       0.00000000       0.21806893 </v>
  </varray>
  <varray name="stress" >
   <v>       0.86366322       0.00000000      -0.00000000 </v>
   <v>      -0.00000000       0.86366322      -0.00000000 </v>
   <v>      -0.00000000       0.00000000      -3.33787571 </v>
  </varray>
  <energy>
   <i name="e_fr_energy">    -57.02631100 </i>
   <i name="e_wo_entrp">    -57.02551475 </i>
   <i name="e_0_energy">     -0.00159249 </i>
  </energy>
  <time name="totalsc">  304.08  305.26</time>
 </calculation>
 <calculation>
  <scstep>
   <time name="dav">   20.92   20.99</time>
   <time name="total">   23.57   23.65</time>
   <energy>
    <i name="alphaZ">    280.84923357 </i>
    <i name="ewald">  -7877.48944883 </i>
    <i name="hartreedc">  -4005.60170250 </i>
    <i name="XCdc">    381.02765636 </i>
    <i name="pawpsdc">  16329.54514496 </i>
    <i name="pawaedc"> -16620.79913307 </i>
    <i name="eentropy">     -0.00164568 </i>
    <i name="bandstr">   -560.06001157 </i>
    <i name="atom">  12019.53804467 </i>
    <i name="e_fr_energy">    -52.99186208 </i>
    <i name="e_wo_entrp">    -52.99021640 </i>
    <i name="e_0_energy">    -52.99103924 </i>
   </energy>
  </scstep>
  <scstep>
   <time name="dav">   26.03   26.10</time>
   <time name="total">   28.66   28.75</time>
   <energy>
    <i name="e_fr_energy">    -52.99985622 </i>
    <i name="e_wo_entrp">    -52.99827906 </i>
    <i name="e_0_energy">    -52.99906764 </i>
   </energy>
  </scstep>
  <scstep>
   <time name="dav">   25.00   25.07</time>
   <time name="total">   27.60   27.68</time>
   <energy>
    <i name="e_fr_energy">    -52.99816798 </i>
    <i name="e_wo_entrp">    -52.99656396 </i>
    <i name="e_0_energy">    -52.99736597 </i>
   </energy>
  </scstep>
  <scstep>
   <time name="dav">   25.12   25.20</time>
   <time name="total">   27.72   27.81</time>
   <energy>
    <i name="e_fr_energy">    -52.99716843 </i>
    <i name="e_wo_entrp">    -52.99556677 </i>
    <i name="e_0_energy">    -52.99636760 </i>
   </energy>
  </scstep>
  <scstep>
   <time name="dav">   26.56   26.64</time>
   <time name="total">   29.16   29.27</time>
   <energy>
    <i name="e_fr_energy">    -52.99669442 </i>
    <i name="e_wo_entrp">    -52.99509356 </i>
    <i name="e_0_energy">    -52.99589399 </i>
   </energy>
  </scstep>
  <scstep>
   <time name="dav">   23.93   24.00</time>
   <time name="total">   26.57   26.65</time>
   <energy>
    <i name="e_fr_energy">    -52.99671613 </i>
    <i name="e_wo_entrp">    -52.99511143 </i>
    <i name="e_0_energy">    -52.99591378 </i>
   </energy>
  </scstep>
  <scstep>
   <time name="dav">   24.95   25.03</time>
   <time name="total">   27.59   27.68</time>
   <energy>
    <i name="e_fr_energy">    -52.99671344 </i>
    <i name="e_wo_entrp">    -52.99510684 </i>
    <i name="e_0_energy">    -52.99591014 </i>
   </energy>
  </scstep>
  <scstep>
   <time name="dav">   21.96   22.03</time>
   <time name="total">   24.59   24.67</time>
   <energy>
    <i name="e_fr_energy">    -52.99671286 </i>
    <i name="e_wo_entrp">    -52.99510812 </i>
    <i name="e_0_energy">    -52.99591049 </i>
   </energy>
  </scstep>
  <scstep>
   <time name="dav">   20.03   20.09</time>
   <time name="total">   21.02   21.08</time>
   <energy>
    <i name="alphaZ">    280.84923357 </i>
    <i name="ewald">  -7877.48944883 </i>
    <i name="hartreedc">  -4008.33809975 </i>
    <i name="XCdc">    381.11423425 </i>
    <i name="pawpsdc">  16278.67919011 </i>
    <i name="pawaedc"> -16569.84964928 </i>
    <i name="eentropy">     -0.00160656 </i>
    <i name="bandstr">   -557.49861108 </i>
    <i name="atom">  12019.53804467 </i>
    <i name="e_fr_energy">    -52.99671290 </i>
    <i name="e_wo_entrp">    -52.99510634 </i>
    <i name="e_0_energy">    -52.99590962 </i>
   </energy>
  </scstep>
  <structure>
   <crystal>
    <varray name="basis" >
     <v>       3.87254965       0.00000000      -0.00000000 </v>
     <v>      -1.93627482       3.35372637      -0.00000000 </v>
     <v>      -0.00000000      -0.00000000      25.41069388 </v>
    </varray>
    <i name="volume">    330.02067214 </i>
    <varray name="rec_basis" >
     <v>       0.25822781       0.14908789       0.00000000 </v>
     <v>      -0.00000000       0.29817579      -0.00000000 </v>
     <v>       0.00000000       0.00000000       0.03935351 </v>
    </varray>
   </crystal>
   <varray name="positions" >
    <v>       0.00000000       0.00000000       0.25640217 </v>
    <v>      -0.00000000      -0.00000000       0.74359783 </v>
    <v>       0.33333334       0.66666669       0.09895822 </v>
    <v>       0.66666663       0.33333331       0.90104178 </v>
    <v>       0.33333334       0.66666669       0.19460500 </v>
    <v>       0.66666663       0.33333331       0.80539503 </v>
    <v>       0.33333334       0.66666669       0.94623494 </v>
    <v>       0.66666663       0.33333331       0.05376506 </v>
    <v>       0.33333334       0.66666669       0.69494489 </v>
    <v>       0.66666663       0.33333331       0.30505511 </v>
    <v>       0.33333334       0.66666669       0.43049769 </v>
    <v>       0.66666663       0.33333331       0.56950231 </v>
    <v>       0.33333334       0.66666669       0.58717236 </v>
    <v>       0.66666663       0.33333331       0.41282764 </v>
   </varray>
  </structure>
  <varray name="forces" >
   <v>      -0.00000000       0.00000000       0.11323544 </v>
   <v>       0.00000000      -0.00000000      -0.11323544 </v>
   <v>      -0.00000000       0.00000000       0.20100404 </v>
   <v>       0.00000000       0.00000000      -0.20100404 </v>
   <v>       0.00000000      -0.00000000      -0.29465061 </v>
   <v>      -0.00000000       0.00000000       0.29465061 </v>
   <v>       0.00000000       0.00000000      -0.11449968 </v>
   <v>      -0.00000000      -0.00000000       0.11449968 </v>
   <v>       0.00000000      -0.00000000      -0.12564205 </v>
   <v>      -0.00000000       0.00000000       0.12564205 </v>
   <v>       0.00000000      -0.00000000      -0.12421707 </v>
   <v>      -0.00000000       0.00000000       0.12421707 </v>
   <v>       0.00000000       0.00000000      -0.14744664 </v>
   <v>      -0.00000000       0.00000000       0.14744664 </v>
  </varray>
  <varray name="stress" >
   <v>       1.61929104       0.00000000       0.00000000 </v>
   <v>      -0.00000000       1.61929104      -0.00000000 </v>
   <v>      -0.00000000       0.00000000      -7.79894870 </v>
  </varray>
  <energy>
   <i name="e_fr_energy">    -57.03691932 </i>
   <i name="e_wo_entrp">    -57.03611604 </i>
   <i name="e_0_energy">     -0.00160656 </i>
  </energy>
  <time name="totalsc">  280.89  281.99</time>
 </calculation>
 <calculation>
  <scstep>
   <time name="dav">   22.79   22.86</time>
   <time name="total">   25.45   25.53</time>
   <energy>
    <i name="alphaZ">    281.93087612 </i>
    <i name="ewald">  -7896.04265943 </i>
    <i name="hartreedc">  -4006.67252745 </i>
    <i name="XCdc">    381.71155991 </i>
    <i name="pawpsdc">  16278.75719243 </i>
    <i name="pawaedc"> -16569.92692439 </i>
    <i name="eentropy">     -0.00167486 </i>
    <i name="bandstr">   -542.30179396 </i>
    <i name="atom">  12019.53804467 </i>
    <i name="e_fr_energy">    -53.00790694 </i>
    <i name="e_wo_entrp">    -53.00623208 </i>
    <i name="e_0_energy">    -53.00706951 </i>
   </energy>
  </scstep>
  <scstep>
   <time name="dav">   25.47   25.55</time>
   <time name="total">   28.09   28.17</time>
   <energy>
    <i name="e_fr_energy">    -53.00811278 </i>
    <i name="e_wo_entrp">    -53.00611659 </i>
    <i name="e_0_energy">    -53.00711469 </i>
   </energy>
  </scstep>
  <scstep>
   <time name="dav">   25.75   25.83</time>
   <time name="total">   28.35   28.44</time>
   <energy>
    <i name="e_fr_energy">    -53.00281530 </i>
    <i name="e_wo_entrp">    -53.00108194 </i>
    <i name="e_0_energy">    -53.00194862 </i>
   </energy>
  </scstep>
  <scstep>
   <time name="dav">   26.43   26.51</time>
   <time name="total">   29.03   29.13</time>
   <energy>
    <i name="e_fr_energy">    -53.00064327 </i>
    <i name="e_wo_entrp">    -52.99863510 </i>
    <i name="e_0_energy">    -52.99963919 </i>
   </energy>
  </scstep>
  <scstep>
   <time name="dav">   26.21   26.29</time>
   <time name="total">   28.83   28.93</time>
   <energy>
    <i name="e_fr_energy">    -52.99843847 </i>
    <i name="e_wo_entrp">    -52.99631759 </i>
    <i name="e_0_energy">    -52.99737803 </i>
   </energy>
  </scstep>
  <scstep>
   <time name="dav">   22.56   22.62</time>
   <time name="total">   25.20   25.27</time>
   <energy>
    <i name="e_fr_energy">    -52.99859752 </i>
    <i name="e_wo_entrp">    -52.99645333 </i>
    <i name="e_0_energy">    -52.99752543 </i>
   </energy>
  </scstep>
  <scstep>
   <time name="dav">   24.39   24.47</time>
   <time name="total">   27.04   27.12</time>
   <energy>
    <i name="e_fr_energy">    -52.99859556 </i>
    <i name="e_wo_entrp">    -52.99645017 </i>
    <i name="e_0_energy">    -52.99752286 </i>
   </energy>
  </scstep>
  <scstep>
   <time name="dav">   28.71   28.80</time>
   <time name="total">   31.35   31.45</time>
   <energy>
    <i name="e_fr_energy">    -52.99857205 </i>
    <i name="e_wo_entrp">    -52.99643048 </i>
    <i name="e_0_energy">    -52.99750126 </i>
   </energy>
  </scstep>
  <scstep>
   <time name="dav">   23.37   23.44</time>
   <time name="total">   25.99   26.07</time>
   <energy>
    <i name="e_fr_energy">    -52.99857608 </i>
    <i name="e_wo_entrp">    -52.99643228 </i>
    <i name="e_0_energy">    -52.99750418 </i>
   </energy>
  </scstep>
  <scstep>
   <time name="dav">   21.07   21.13</time>
   <time name="total">   23.67   23.75</time>
   <energy>
    <i name="e_fr_energy">    -52.99857454 </i>
    <i name="e_wo_entrp">    -52.99643135 </i>
    <i name="e_0_energy">    -52.99750294 </i>
   </energy>
  </scstep>
  <scstep>
   <time name="dav">   19.85   19.91</time>
   <time name="total">   20.83   20.90</time>
   <energy>
    <i name="alphaZ">    281.93087612 </i>
    <i name="ewald">  -7896.04265943 </i>
    <i name="hartreedc">  -3994.51271160 </i>
    <i name="XCdc">    381.21428089 </i>
    <i name="pawpsdc">  16329.74546036 </i>
    <i name="pawaedc"> -16621.15738895 </i>
    <i name="eentropy">     -0.00214236 </i>
    <i name="bandstr">   -553.71233382 </i>
    <i name="atom">  12019.53804467 </i>
    <i name="e_fr_energy">    -52.99857411 </i>
    <i name="e_wo_entrp">    -52.99643175 </i>
    <i name="e_0_energy">    -52.99750293 </i>
   </energy>
  </scstep>
  <structure>
   <crystal>
    <varray name="basis" >
     <v>       3.87570286       0.00000000      -0.00000000 </v>
     <v>      -1.93785143       3.35645713      -0.00000000 </v>
     <v>      -0.00000000      -0.00000000      25.27203231 </v>
    </varray>
    <i name="volume">    328.75453056 </i>
    <varray name="rec_basis" >
     <v>       0.25801772       0.14896660       0.00000000 </v>
     <v>      -0.00000000       0.29793320      -0.00000000 </v>
     <v>       0.00000000       0.00000000       0.03956943 </v>
    </varray>
   </crystal>
   <varray name="positions" >
    <v>       0.00000000       0.00000000       0.25649454 </v>
    <v>      -0.00000000      -0.00000000       0.74350546 </v>
    <v>       0.33333334       0.66666669       0.09943217 </v>
    <v>       0.66666663       0.33333331       0.90056783 </v>
    <v>       0.33333334       0.66666669       0.19405338 </v>
    <v>       0.66666663       0.33333331       0.80594665 </v>
    <v>       0.33333334       0.66666669       0.94608594 </v>
    <v>       0.66666663       0.33333331       0.05391406 </v>
    <v>       0.33333334       0.66666669       0.69419185 </v>
    <v>       0.66666663       0.33333331       0.30580815 </v>
    <v>       0.33333334       0.66666669       0.42973037 </v>
    <v>       0.66666663       0.33333331       0.57026963 </v>
    <v>       0.33333334       0.66666669       0.58637144 </v>
    <v>       0.66666663       0.33333331       0.41362856 </v>
   </varray>
  </structure>
  <varray name="forces" >
   <v>      -0.00000000       0.00000000       0.20114612 </v>
   <v>       0.00000000      -0.00000000      -0.20114612 </v>
   <v>       0.00000000      -0.00000000      -0.17515727 </v>
   <v>      -0.00000000      -0.00000000       0.17515727 </v>
   <v>      -0.00000000      -0.00000000       0.09078245 </v>
   <v>       0.00000000       0.00000000      -0.09078245 </v>
   <v>       0.00000000       0.00000000      -0.12955026 </v>
   <v>      -0.00000000       0.00000000       0.12955026 </v>
   <v>      -0.00000000      -0.00000000       0.02000867 </v>
   <v>       0.00000000      -0.00000000      -0.02000867 </v>
   <v>       0.00000000       0.00000000      -0.04608207 </v>
   <v>      -0.00000000      -0.00000000       0.04608207 </v>
   <v>       0.00000000      -0.00000000      -0.11651314 </v>
   <v>      -0.00000000       0.00000000       0.11651314 </v>
  </varray>
  <varray name="stress" >
   <v>       0.64545610      -0.00000000       0.00000000 </v>
   <v>       0.00000000       0.64545610      -0.00000000 </v>
   <v>       0.00000000       0.00000000       0.49189306 </v>
  </varray>
  <energy>
   <i name="e_fr_energy">    -57.05693105 </i>
   <i name="e_wo_entrp">    -57.05585987 </i>
   <i name="e_0_energy">     -0.00214236 </i>
  </energy>
  <time name="totalsc">  337.85  338.99</time>
 </calculation>
 <calculation>
  <scstep>
   <time name="dav">   23.04   23.11</time>
   <time name="total">   25.67   25.78</time>
   <energy>
    <i name="alphaZ">    281.94767657 </i>
    <i name="ewald">  -7896.32406731 </i>
    <i name="hartreedc">  -3994.48831746 </i>
    <i name="XCdc">    381.22335341 </i>
    <i name="pawpsdc">  16329.51110050 </i>
    <i name="pawaedc"> -16620.92659507 </i>
    <i name="eentropy">     -0.00214353 </i>
    <i name="bandstr">   -553.47734989 </i>
    <i name="atom">  12019.53804467 </i>
    <i name="e_fr_energy">    -52.99829811 </i>
    <i name="e_wo_entrp">    -52.99615458 </i>
    <i name="e_0_energy">    -52.99722634 </i>
   </energy>
  </scstep>
  <scstep>
   <time name="dav">   25.79   25.87</time>
   <time name="total">   28.42   28.50</time>
   <energy>
    <i name="e_fr_energy">    -52.99829753 </i>
    <i name="e_wo_entrp">    -52.99615278 </i>
    <i name="e_0_energy">    -52.99722516 </i>
   </energy>
  </scstep>
  <scstep>
   <time name="dav">   23.12   23.19</time>
   <time name="total">   25.77   25.85</time>
   <energy>
    <i name="e_fr_energy">    -52.99829643 </i>
    <i name="e_wo_entrp">    -52.99615357 </i>
    <i name="e_0_energy">    -52.99722500 </i>
   </energy>
  </scstep>
  <scstep>
   <time name="dav">   18.09   18.14</time>
   <time name="total">   19.09   19.15</time>
   <energy>
    <i name="alphaZ">    281.94767657 </i>
    <i name="ewald">  -7896.32406731 </i>
    <i name="hartreedc">  -3994.31950517 </i>
    <i name="XCdc">    381.21630666 </i>
    <i name="pawpsdc">  16330.41644134 </i>
    <i name="pawaedc"> -16621.82958707 </i>
    <i name="eentropy">     -0.00214454 </i>
    <i name="bandstr">   -553.64146121 </i>
    <i name="atom">  12019.53804467 </i>
    <i name="e_fr_energy">    -52.99829607 </i>
    <i name="e_wo_entrp">    -52.99615152 </i>
    <i name="e_0_energy">    -52.99722380 </i>
   </energy>
  </scstep>
  <structure>
   <crystal>
    <varray name="basis" >
     <v>       3.87575154       0.00000000      -0.00000000 </v>
     <v>      -1.93787577       3.35649929      -0.00000000 </v>
     <v>      -0.00000000      -0.00000000      25.26989163 </v>
    </varray>
    <i name="volume">    328.73494103 </i>
    <varray name="rec_basis" >
     <v>       0.25801448       0.14896473       0.00000000 </v>
     <v>      -0.00000000       0.29792945      -0.00000000 </v>
     <v>       0.00000000       0.00000000       0.03957279 </v>
    </varray>
   </crystal>
   <varray name="positions" >
    <v>       0.00000000       0.00000000       0.25649597 </v>
    <v>      -0.00000000      -0.00000000       0.74350403 </v>
    <v>       0.33333334       0.66666669       0.09943952 </v>
    <v>       0.66666663       0.33333331       0.90056048 </v>
    <v>       0.33333334       0.66666669       0.19404481 </v>
    <v>       0.66666663       0.33333331       0.80595522 </v>
    <v>       0.33333334       0.66666669       0.94608363 </v>
    <v>       0.66666663       0.33333331       0.05391637 </v>
    <v>       0.33333334       0.66666669       0.69418016 </v>
    <v>       0.66666663       0.33333331       0.30581984 </v>
    <v>       0.33333334       0.66666669       0.42971846 </v>
    <v>       0.66666663       0.33333331       0.57028154 </v>
    <v>       0.33333334       0.66666669       0.58635900 </v>
    <v>       0.66666663       0.33333331       0.41364100 </v>
   </varray>
  </structure>
  <varray name="forces" >
   <v>      -0.00000000      -0.00000000       0.20121952 </v>
   <v>       0.00000000       0.00000000      -0.20121952 </v>
   <v>       0.00000000       0.00000000      -0.18281463 </v>
   <v>      -0.00000000      -0.00000000       0.18281463 </v>
   <v>      -0.00000000      -0.00000000       0.09643691 </v>
   <v>       0.00000000       0.00000000      -0.09643691 </v>
   <v>       0.00000000       0.00000000      -0.12931702 </v>
   <v>      -0.00000000      -0.00000000       0.12931702 </v>
   <v>      -0.00000000      -0.00000000       0.02121713 </v>
   <v>       0.00000000       0.00000000      -0.02121713 </v>
   <v>       0.00000000       0.00000000      -0.04573424 </v>
   <v>      -0.00000000      -0.00000000       0.04573424 </v>
   <v>       0.00000000       0.00000000      -0.11523747 </v>
   <v>      -0.00000000      -0.00000000       0.11523747 </v>
  </varray>
  <varray name="stress" >
   <v>       0.72224146       0.00000000       0.00000000 </v>
   <v>       0.00000000       0.72224146      -0.00000000 </v>
   <v>       0.00000000      -0.00000000       0.49471674 </v>
  </varray>
  <energy>
   <i name="e_fr_energy">    -57.05693538 </i>
   <i name="e_wo_entrp">    -57.05586310 </i>
   <i name="e_0_energy">     -0.00214454 </i>
  </energy>
  <time name="totalsc">  142.81  144.71</time>
 </calculation>
 <calculation>
  <scstep>
   <time name="dav">   20.89   20.95</time>
   <time name="total">   23.52   23.60</time>
   <energy>
    <i name="alphaZ">    281.88659698 </i>
    <i name="ewald">  -7899.75656452 </i>
    <i name="hartreedc">  -3990.51514393 </i>
    <i name="XCdc">    381.22217603 </i>
    <i name="pawpsdc">  16330.25192680 </i>
    <i name="pawaedc"> -16621.67104990 </i>
    <i name="eentropy">     -0.00215454 </i>
    <i name="bandstr">   -553.95633354 </i>
    <i name="atom">  12019.53804467 </i>
    <i name="e_fr_energy">    -53.00250195 </i>
    <i name="e_wo_entrp">    -53.00034741 </i>
    <i name="e_0_energy">    -53.00142468 </i>
   </energy>
  </scstep>
  <scstep>
   <time name="dav">   26.82   26.90</time>
   <time name="total">   29.44   29.53</time>
   <energy>
    <i name="e_fr_energy">    -53.01231230 </i>
    <i name="e_wo_entrp">    -53.01021534 </i>
    <i name="e_0_energy">    -53.01126382 </i>
   </energy>
  </scstep>
  <scstep>
   <time name="dav">   25.94   26.02</time>
   <time name="total">   28.57   28.66</time>
   <energy>
    <i name="e_fr_energy">    -53.01133203 </i>
    <i name="e_wo_entrp">    -53.00920051 </i>
    <i name="e_0_energy">    -53.01026627 </i>
   </energy>
  </scstep>
  <scstep>
   <time name="dav">   27.08   27.16</time>
   <time name="total">   29.73   29.82</time>
   <energy>
    <i name="e_fr_energy">    -53.01094079 </i>
    <i name="e_wo_entrp">    -53.00891585 </i>
    <i name="e_0_energy">    -53.00992832 </i>
   </energy>
  </scstep>
  <scstep>
   <time name="dav">   27.42   27.51</time>
   <time name="total">   30.04   30.13</time>
   <energy>
    <i name="e_fr_energy">    -53.01066245 </i>
    <i name="e_wo_entrp">    -53.00853331 </i>
    <i name="e_0_energy">    -53.00959788 </i>
   </energy>
  </scstep>
  <scstep>
   <time name="dav">   25.36   25.44</time>
   <time name="total">   27.97   28.05</time>
   <energy>
    <i name="e_fr_energy">    -53.01053276 </i>
    <i name="e_wo_entrp">    -53.00846055 </i>
    <i name="e_0_energy">    -53.00949665 </i>
   </energy>
  </scstep>
  <scstep>
   <time name="dav">   23.38   23.46</time>
   <time name="total">   25.99   26.07</time>
   <energy>
    <i name="e_fr_energy">    -53.01053859 </i>
    <i name="e_wo_entrp">    -53.00844610 </i>
    <i name="e_0_energy">    -53.00949234 </i>
   </energy>
  </scstep>
  <scstep>
   <time name="dav">   25.14   25.22</time>
   <time name="total">   27.74   27.83</time>
   <energy>
    <i name="e_fr_energy">    -53.01053947 </i>
    <i name="e_wo_entrp">    -53.00844409 </i>
    <i name="e_0_energy">    -53.00949178 </i>
   </energy>
  </scstep>
  <scstep>
   <time name="dav">   20.96   21.03</time>
   <time name="total">   21.95   22.02</time>
   <energy>
    <i name="alphaZ">    281.88659698 </i>
    <i name="ewald">  -7899.75656452 </i>
    <i name="hartreedc">  -3990.44357959 </i>
    <i name="XCdc">    381.24696040 </i>
    <i name="pawpsdc">  16346.00611630 </i>
    <i name="pawaedc"> -16637.48633205 </i>
    <i name="eentropy">     -0.00209511 </i>
    <i name="bandstr">   -553.99968565 </i>
    <i name="atom">  12019.53804467 </i>
    <i name="e_fr_energy">    -53.01053857 </i>
    <i name="e_wo_entrp">    -53.00844345 </i>
    <i name="e_0_energy">    -53.00949101 </i>
   </energy>
  </scstep>
  <structure>
   <crystal>
    <varray name="basis" >
     <v>       3.87969553       0.00000000      -0.00000000 </v>
     <v>      -1.93984777       3.35991489      -0.00000000 </v>
     <v>      -0.00000000      -0.00000000      25.22400475 </v>
    </varray>
    <i name="volume">    328.80617179 </i>
    <varray name="rec_basis" >
     <v>       0.25775218       0.14881329       0.00000000 </v>
     <v>      -0.00000000       0.29762659       0.00000000 </v>
     <v>       0.00000000       0.00000000       0.03964478 </v>
    </varray>
   </crystal>
   <varray name="positions" >
    <v>       0.00000000       0.00000000       0.25704438 </v>
    <v>      -0.00000000       0.00000000       0.74295562 </v>
    <v>       0.33333334       0.66666669       0.09917565 </v>
    <v>       0.66666663       0.33333331       0.90082435 </v>
    <v>       0.33333334       0.66666669       0.19405729 </v>
    <v>       0.66666663       0.33333331       0.80594274 </v>
    <v>       0.33333334       0.66666669       0.94569353 </v>
    <v>       0.66666663       0.33333331       0.05430647 </v>
    <v>       0.33333334       0.66666669       0.69391752 </v>
    <v>       0.66666663       0.33333331       0.30608248 </v>
    <v>       0.33333334       0.66666669       0.42928026 </v>
    <v>       0.66666663       0.33333331       0.57071974 </v>
    <v>       0.33333334       0.66666669       0.58573067 </v>
    <v>       0.66666663       0.33333331       0.41426933 </v>
   </varray>
  </structure>
  <varray name="forces" >
   <v>      -0.00000000      -0.00000000       0.11504506 </v>
   <v>       0.00000000       0.00000000      -0.11504506 </v>
   <v>       0.00000000       0.00000000      -0.03298064 </v>
   <v>      -0.00000000      -0.00000000       0.03298064 </v>
   <v>      -0.00000000      -0.00000000       0.10874086 </v>
   <v>       0.00000000       0.00000000      -0.10874086 </v>
   <v>       0.00000000       0.00000000      -0.01617921 </v>
   <v>      -0.00000000      -0.00000000       0.01617921 </v>
   <v>      -0.00000000       0.00000000       0.00327654 </v>
   <v>       0.00000000      -0.00000000      -0.00327654 </v>
   <v>       0.00000000      -0.00000000      -0.00692408 </v>
   <v>      -0.00000000      -0.00000000       0.00692408 </v>
   <v>       0.00000000       0.00000000      -0.09628241 </v>
   <v>      -0.00000000      -0.00000000       0.09628241 </v>
  </varray>
  <varray name="stress" >
   <v>       1.24133645      -0.00000000       0.00000000 </v>
   <v>       0.00000000       1.24133645      -0.00000000 </v>
   <v>      -0.00000000      -0.00000000       0.43566673 </v>
  </varray>
  <energy>
   <i name="e_fr_energy">    -57.06819494 </i>
   <i name="e_wo_entrp">    -57.06714738 </i>
   <i name="e_0_energy">     -0.00209511 </i>
  </energy>
  <time name="totalsc">  288.94  289.84</time>
 </calculation>
 <calculation>
  <scstep>
   <time name="dav">   21.07   21.14</time>
   <time name="total">   23.68   23.76</time>
   <energy>
    <i name="alphaZ">    281.81874901 </i>
    <i name="ewald">  -7903.36849728 </i>
    <i name="hartreedc">  -3986.46554951 </i>
    <i name="XCdc">    381.25276690 </i>
    <i name="pawpsdc">  16347.04035603 </i>
    <i name="pawaedc"> -16638.51817486 </i>
    <i name="eentropy">     -0.00208972 </i>
    <i name="bandstr">   -554.30041335 </i>
    <i name="atom">  12019.53804467 </i>
    <i name="e_fr_energy">    -53.00480811 </i>
    <i name="e_wo_entrp">    -53.00271839 </i>
    <i name="e_0_energy">    -53.00376325 </i>
   </energy>
  </scstep>
  <scstep>
   <time name="dav">   26.71   26.79</time>
   <time name="total">   29.31   29.41</time>
   <energy>
    <i name="e_fr_energy">    -53.01769627 </i>
    <i name="e_wo_entrp">    -53.01576539 </i>
    <i name="e_0_energy">    -53.01673083 </i>
   </energy>
  </scstep>
  <scstep>
   <time name="dav">   25.54   25.61</time>
   <time name="total">   28.14   28.42</time>
   <energy>
    <i name="e_fr_energy">    -53.01641488 </i>
    <i name="e_wo_entrp">    -53.01438996 </i>
    <i name="e_0_energy">    -53.01540242 </i>
   </energy>
  </scstep>
  <scstep>
   <time name="dav">   26.80   26.88</time>
   <time name="total">   29.40   29.48</time>
   <energy>
    <i name="e_fr_energy">    -53.01588975 </i>
    <i name="e_wo_entrp">    -53.01406988 </i>
    <i name="e_0_energy">    -53.01497982 </i>
   </energy>
  </scstep>
  <scstep>
   <time name="dav">   27.17   27.25</time>
   <time name="total">   29.77   29.87</time>
   <energy>
    <i name="e_fr_energy">    -53.01551474 </i>
    <i name="e_wo_entrp">    -53.01348775 </i>
    <i name="e_0_energy">    -53.01450124 </i>
   </energy>
  </scstep>
  <scstep>
   <time name="dav">   25.37   25.44</time>
   <time name="total">   27.96   28.04</time>
   <energy>
    <i name="e_fr_energy">    -53.01534924 </i>
    <i name="e_wo_entrp">    -53.01344927 </i>
    <i name="e_0_energy">    -53.01439925 </i>
   </energy>
  </scstep>
  <scstep>
   <time name="dav">   23.43   23.50</time>
   <time name="total">   26.03   26.10</time>
   <energy>
    <i name="e_fr_energy">    -53.01535779 </i>
    <i name="e_wo_entrp">    -53.01342216 </i>
    <i name="e_0_energy">    -53.01438997 </i>
   </energy>
  </scstep>
  <scstep>
   <time name="dav">   25.76   25.84</time>
   <time name="total">   28.36   28.45</time>
   <energy>
    <i name="e_fr_energy">    -53.01535861 </i>
    <i name="e_wo_entrp">    -53.01341563 </i>
    <i name="e_0_energy">    -53.01438712 </i>
   </energy>
  </scstep>
  <scstep>
   <time name="dav">   21.22   21.28</time>
   <time name="total">   23.83   23.90</time>
   <energy>
    <i name="e_fr_energy">    -53.01535758 </i>
    <i name="e_wo_entrp">    -53.01341636 </i>
    <i name="e_0_energy">    -53.01438697 </i>
   </energy>
  </scstep>
  <scstep>
   <time name="dav">   20.19   20.25</time>
   <time name="total">   21.18   21.24</time>
   <energy>
    <i name="alphaZ">    281.81874901 </i>
    <i name="ewald">  -7903.36849728 </i>
    <i name="hartreedc">  -3986.33818445 </i>
    <i name="XCdc">    381.27947276 </i>
    <i name="pawpsdc">  16366.32035456 </i>
    <i name="pawaedc"> -16657.85882649 </i>
    <i name="eentropy">     -0.00193841 </i>
    <i name="bandstr">   -554.40453202 </i>
    <i name="atom">  12019.53804467 </i>
    <i name="e_fr_energy">    -53.01535765 </i>
    <i name="e_wo_entrp">    -53.01341924 </i>
    <i name="e_0_energy">    -53.01438845 </i>
   </energy>
  </scstep>
  <structure>
   <crystal>
    <varray name="basis" >
     <v>       3.88419718       0.00000000      -0.00000000 </v>
     <v>      -1.94209859       3.36381343      -0.00000000 </v>
     <v>      -0.00000000      -0.00000000      25.17162975 </v>
    </varray>
    <i name="volume">    328.88533200 </i>
    <varray name="rec_basis" >
     <v>       0.25745346       0.14864082       0.00000000 </v>
     <v>      -0.00000000       0.29728165       0.00000000 </v>
     <v>       0.00000000       0.00000000       0.03972726 </v>
    </varray>
   </crystal>
   <varray name="positions" >
    <v>       0.00000000       0.00000000       0.25767146 </v>
    <v>      -0.00000000      -0.00000000       0.74232854 </v>
    <v>       0.33333334       0.66666669       0.09887393 </v>
    <v>       0.66666663       0.33333331       0.90112607 </v>
    <v>       0.33333334       0.66666669       0.19407156 </v>
    <v>       0.66666663       0.33333331       0.80592847 </v>
    <v>       0.33333334       0.66666669       0.94524745 </v>
    <v>       0.66666663       0.33333331       0.05475255 </v>
    <v>       0.33333334       0.66666669       0.69361720 </v>
    <v>       0.66666663       0.33333331       0.30638280 </v>
    <v>       0.33333334       0.66666669       0.42877919 </v>
    <v>       0.66666663       0.33333331       0.57122081 </v>
    <v>       0.33333334       0.66666669       0.58501218 </v>
    <v>       0.66666663       0.33333331       0.41498782 </v>
   </varray>
  </structure>
  <varray name="forces" >
   <v>      -0.00000000      -0.00000000       0.01601042 </v>
   <v>       0.00000000       0.00000000      -0.01601042 </v>
   <v>      -0.00000000      -0.00000000       0.13506598 </v>
   <v>       0.00000000       0.00000000      -0.13506598 </v>
   <v>      -0.00000000      -0.00000000       0.12233772 </v>
   <v>       0.00000000       0.00000000      -0.12233772 </v>
   <v>      -0.00000000      -0.00000000       0.11233722 </v>
   <v>       0.00000000       0.00000000      -0.11233722 </v>
   <v>       0.00000000       0.00000000      -0.01749873 </v>
   <v>      -0.00000000      -0.00000000       0.01749873 </v>
   <v>      -0.00000000      -0.00000000       0.03320607 </v>
   <v>       0.00000000       0.00000000      -0.03320607 </v>
   <v>       0.00000000       0.00000000      -0.07869116 </v>
   <v>      -0.00000000      -0.00000000       0.07869116 </v>
  </varray>
  <varray name="stress" >
   <v>       2.20094158       0.00000000      -0.00000000 </v>
   <v>      -0.00000000       2.20094158      -0.00000000 </v>
   <v>       0.00000000       0.00000000       0.57166543 </v>
  </varray>
  <energy>
   <i name="e_fr_energy">    -57.07199204 </i>
   <i name="e_wo_entrp">    -57.07102284 </i>
   <i name="e_0_energy">     -0.00193841 </i>
  </energy>
  <time name="totalsc">  311.93  313.35</time>
 </calculation>
 <calculation>
  <scstep>
   <time name="dav">   25.47   25.55</time>
   <time name="total">   28.12   28.21</time>
   <energy>
    <i name="alphaZ">    280.15953325 </i>
    <i name="ewald">  -7893.75333089 </i>
    <i name="hartreedc">  -3974.00868328 </i>
    <i name="XCdc">    380.36341606 </i>
    <i name="pawpsdc">  16366.47230993 </i>
    <i name="pawaedc"> -16658.01130901 </i>
    <i name="eentropy">     -0.00179391 </i>
    <i name="bandstr">   -573.84033754 </i>
    <i name="atom">  12019.53804467 </i>
    <i name="e_fr_energy">    -53.08215071 </i>
    <i name="e_wo_entrp">    -53.08035680 </i>
    <i name="e_0_energy">    -53.08125375 </i>
   </energy>
  </scstep>
  <scstep>
   <time name="dav">   26.14   26.21</time>
   <time name="total">   28.78   28.87</time>
   <energy>
    <i name="e_fr_energy">    -53.05508560 </i>
    <i name="e_wo_entrp">    -53.05308243 </i>
    <i name="e_0_energy">    -53.05408402 </i>
   </energy>
  </scstep>
  <scstep>
   <time name="dav">   25.68   25.75</time>
   <time name="total">   28.29   28.37</time>
   <energy>
    <i name="e_fr_energy">    -53.04955181 </i>
    <i name="e_wo_entrp">    -53.04798202 </i>
    <i name="e_0_energy">    -53.04876691 </i>
   </energy>
  </scstep>
  <scstep>
   <time name="dav">   25.93   26.01</time>
   <time name="total">   28.53   28.61</time>
   <energy>
    <i name="e_fr_energy">    -53.04885354 </i>
    <i name="e_wo_entrp">    -53.04677283 </i>
    <i name="e_0_energy">    -53.04781319 </i>
   </energy>
  </scstep>
  <scstep>
   <time name="dav">   26.70   26.78</time>
   <time name="total">   29.30   29.39</time>
   <energy>
    <i name="e_fr_energy">    -53.04735195 </i>
    <i name="e_wo_entrp">    -53.04574981 </i>
    <i name="e_0_energy">    -53.04655088 </i>
   </energy>
  </scstep>
  <scstep>
   <time name="dav">   22.70   22.77</time>
   <time name="total">   25.31   25.39</time>
   <energy>
    <i name="e_fr_energy">    -53.04728372 </i>
    <i name="e_wo_entrp">    -53.04559302 </i>
    <i name="e_0_energy">    -53.04643837 </i>
   </energy>
  </scstep>
  <scstep>
   <time name="dav">   25.99   26.07</time>
   <time name="total">   28.62   28.71</time>
   <energy>
    <i name="e_fr_energy">    -53.04729079 </i>
    <i name="e_wo_entrp">    -53.04555611 </i>
    <i name="e_0_energy">    -53.04642345 </i>
   </energy>
  </scstep>
  <scstep>
   <time name="dav">   25.16   25.24</time>
   <time name="total">   27.79   28.13</time>
   <energy>
    <i name="e_fr_energy">    -53.04728776 </i>
    <i name="e_wo_entrp">    -53.04558775 </i>
    <i name="e_0_energy">    -53.04643776 </i>
   </energy>
  </scstep>
  <scstep>
   <time name="dav">   25.63   25.70</time>
   <time name="total">   28.26   28.35</time>
   <energy>
    <i name="e_fr_energy">    -53.04728130 </i>
    <i name="e_wo_entrp">    -53.04556916 </i>
    <i name="e_0_energy">    -53.04642523 </i>
   </energy>
  </scstep>
  <scstep>
   <time name="dav">   19.96   20.02</time>
   <time name="total">   20.94   21.01</time>
   <energy>
    <i name="alphaZ">    280.15953325 </i>
    <i name="ewald">  -7893.75333089 </i>
    <i name="hartreedc">  -3989.27142185 </i>
    <i name="XCdc">    381.09520171 </i>
    <i name="pawpsdc">  16253.87446563 </i>
    <i name="pawaedc"> -16545.03422817 </i>
    <i name="eentropy">     -0.00171349 </i>
    <i name="bandstr">   -559.65383268 </i>
    <i name="atom">  12019.53804467 </i>
    <i name="e_fr_energy">    -53.04728182 </i>
    <i name="e_wo_entrp">    -53.04556833 </i>
    <i name="e_0_energy">    -53.04642507 </i>
   </energy>
  </scstep>
  <structure>
   <crystal>
    <varray name="basis" >
     <v>       3.89737402       0.00000000      -0.00000000 </v>
     <v>      -1.94868701       3.37522491      -0.00000000 </v>
     <v>      -0.00000000      -0.00000000      25.14977938 </v>
    </varray>
    <i name="volume">    330.83312124 </i>
    <varray name="rec_basis" >
     <v>       0.25658302       0.14813828       0.00000000 </v>
     <v>      -0.00000000       0.29627655       0.00000000 </v>
     <v>       0.00000000       0.00000000       0.03976178 </v>
    </varray>
   </crystal>
   <varray name="positions" >
    <v>       0.00000000       0.00000000       0.25818440 </v>
    <v>      -0.00000000      -0.00000000       0.74181560 </v>
    <v>       0.33333334       0.66666669       0.09907297 </v>
    <v>       0.66666663       0.33333331       0.90092703 </v>
    <v>       0.33333334       0.66666669       0.19446413 </v>
    <v>       0.66666663       0.33333331       0.80553590 </v>
    <v>       0.33333334       0.66666669       0.94526895 </v>
    <v>       0.66666663       0.33333331       0.05473105 </v>
    <v>       0.33333334       0.66666669       0.69334084 </v>
    <v>       0.66666663       0.33333331       0.30665916 </v>
    <v>       0.33333334       0.66666669       0.42851298 </v>
    <v>       0.66666663       0.33333331       0.57148702 </v>
    <v>       0.33333334       0.66666669       0.58423602 </v>
    <v>       0.66666663       0.33333331       0.41576398 </v>
   </varray>
  </structure>
  <varray name="forces" >
   <v>      -0.00000000      -0.00000000       0.00052858 </v>
   <v>       0.00000000       0.00000000      -0.00052858 </v>
   <v>      -0.00000000      -0.00000000       0.09000481 </v>
   <v>       0.00000000       0.00000000      -0.09000481 </v>
   <v>      -0.00000000      -0.00000000       0.10861163 </v>
   <v>       0.00000000       0.00000000      -0.10861163 </v>
   <v>      -0.00000000      -0.00000000       0.03116919 </v>
   <v>       0.00000000       0.00000000      -0.03116919 </v>
   <v>       0.00000000       0.00000000      -0.00930545 </v>
   <v>      -0.00000000      -0.00000000       0.00930545 </v>
   <v>      -0.00000000      -0.00000000       0.04455001 </v>
   <v>       0.00000000       0.00000000      -0.04455001 </v>
   <v>       0.00000000       0.00000000      -0.07305797 </v>
   <v>      -0.00000000      -0.00000000       0.07305797 </v>
  </varray>
  <varray name="stress" >
   <v>      -3.14731720       0.00000000      -0.00000000 </v>
   <v>       0.00000000      -3.14731720       0.00000000 </v>
   <v>      -0.00000000      -0.00000000      -1.87276001 </v>
  </varray>
  <energy>
   <i name="e_fr_energy">    -57.07774363 </i>
   <i name="e_wo_entrp">    -57.07688689 </i>
   <i name="e_0_energy">     -0.00171349 </i>
  </energy>
  <time name="totalsc">  317.78  319.27</time>
 </calculation>
 <calculation>
  <scstep>
   <time name="dav">   25.19   25.26</time>
   <time name="total">   27.85   27.93</time>
   <energy>
    <i name="alphaZ">    279.88804272 </i>
    <i name="ewald">  -7892.12050175 </i>
    <i name="hartreedc">  -3987.29804788 </i>
    <i name="XCdc">    380.94428508 </i>
    <i name="pawpsdc">  16254.38257921 </i>
    <i name="pawaedc"> -16545.54760059 </i>
    <i name="eentropy">     -0.00169281 </i>
    <i name="bandstr">   -562.83773117 </i>
    <i name="atom">  12019.53804467 </i>
    <i name="e_fr_energy">    -53.05262253 </i>
    <i name="e_wo_entrp">    -53.05092972 </i>
    <i name="e_0_energy">    -53.05177612 </i>
   </energy>
  </scstep>
  <scstep>
   <time name="dav">   26.24   26.32</time>
   <time name="total">   28.88   29.01</time>
   <energy>
    <i name="e_fr_energy">    -53.05189639 </i>
    <i name="e_wo_entrp">    -53.05016574 </i>
    <i name="e_0_energy">    -53.05103107 </i>
   </energy>
  </scstep>
  <scstep>
   <time name="dav">   25.73   25.80</time>
   <time name="total">   28.36   28.44</time>
   <energy>
    <i name="e_fr_energy">    -53.05174452 </i>
    <i name="e_wo_entrp">    -53.05008416 </i>
    <i name="e_0_energy">    -53.05091434 </i>
   </energy>
  </scstep>
  <scstep>
   <time name="dav">   26.39   26.47</time>
   <time name="total">   29.04   29.13</time>
   <energy>
    <i name="e_fr_energy">    -53.05171765 </i>
    <i name="e_wo_entrp">    -53.04996639 </i>
    <i name="e_0_energy">    -53.05084202 </i>
   </energy>
  </scstep>
  <scstep>
   <time name="dav">   27.27   27.36</time>
   <time name="total">   29.89   30.00</time>
   <energy>
    <i name="e_fr_energy">    -53.05167586 </i>
    <i name="e_wo_entrp">    -53.05001556 </i>
    <i name="e_0_energy">    -53.05084571 </i>
   </energy>
  </scstep>
  <scstep>
   <time name="dav">   22.65   22.72</time>
   <time name="total">   25.26   25.35</time>
   <energy>
    <i name="e_fr_energy">    -53.05167096 </i>
    <i name="e_wo_entrp">    -53.04999448 </i>
    <i name="e_0_energy">    -53.05083272 </i>
   </energy>
  </scstep>
  <scstep>
   <time name="dav">   22.82   22.89</time>
   <time name="total">   23.80   23.87</time>
   <energy>
    <i name="alphaZ">    279.88804272 </i>
    <i name="ewald">  -7892.12050175 </i>
    <i name="hartreedc">  -3989.78268618 </i>
    <i name="XCdc">    381.06370969 </i>
    <i name="pawpsdc">  16234.74081822 </i>
    <i name="pawaedc"> -16525.84699192 </i>
    <i name="eentropy">     -0.00168391 </i>
    <i name="bandstr">   -560.53042207 </i>
    <i name="atom">  12019.53804467 </i>
    <i name="e_fr_energy">    -53.05167053 </i>
    <i name="e_wo_entrp">    -53.04998663 </i>
    <i name="e_0_energy">    -53.05082858 </i>
   </energy>
  </scstep>
  <structure>
   <crystal>
    <varray name="basis" >
     <v>       3.89954257       0.00000000      -0.00000000 </v>
     <v>      -1.94977129       3.37710293      -0.00000000 </v>
     <v>      -0.00000000      -0.00000000      25.14618339 </v>
    </varray>
    <i name="volume">    331.15402835 </i>
    <varray name="rec_basis" >
     <v>       0.25644033       0.14805590       0.00000000 </v>
     <v>      -0.00000000       0.29611179       0.00000000 </v>
     <v>       0.00000000       0.00000000       0.03976747 </v>
    </varray>
   </crystal>
   <varray name="positions" >
    <v>       0.00000000       0.00000000       0.25826890 </v>
    <v>      -0.00000000      -0.00000000       0.74173110 </v>
    <v>       0.33333334       0.66666669       0.09910575 </v>
    <v>       0.66666663       0.33333331       0.90089425 </v>
    <v>       0.33333334       0.66666669       0.19452879 </v>
    <v>       0.66666663       0.33333331       0.80547124 </v>
    <v>       0.33333334       0.66666669       0.94527249 </v>
    <v>       0.66666663       0.33333331       0.05472751 </v>
    <v>       0.33333334       0.66666669       0.69329532 </v>
    <v>       0.66666663       0.33333331       0.30670468 </v>
    <v>       0.33333334       0.66666669       0.42846913 </v>
    <v>       0.66666663       0.33333331       0.57153087 </v>
    <v>       0.33333334       0.66666669       0.58410817 </v>
    <v>       0.66666663       0.33333331       0.41589183 </v>
   </varray>
  </structure>
  <varray name="forces" >
   <v>       0.00000000       0.00000000      -0.00150362 </v>
   <v>      -0.00000000      -0.00000000       0.00150362 </v>
   <v>      -0.00000000      -0.00000000       0.08274616 </v>
   <v>       0.00000000       0.00000000      -0.08274616 </v>
   <v>      -0.00000000      -0.00000000       0.10589353 </v>
   <v>       0.00000000       0.00000000      -0.10589353 </v>
   <v>      -0.00000000      -0.00000000       0.01859680 </v>
   <v>       0.00000000       0.00000000      -0.01859680 </v>
   <v>       0.00000000       0.00000000      -0.00781109 </v>
   <v>      -0.00000000      -0.00000000       0.00781109 </v>
   <v>      -0.00000000      -0.00000000       0.04634897 </v>
   <v>       0.00000000       0.00000000      -0.04634897 </v>
   <v>       0.00000000       0.00000000      -0.07203678 </v>
   <v>      -0.00000000      -0.00000000       0.07203678 </v>
  </varray>
  <varray name="stress" >
   <v>      -3.98150800       0.00000000       0.00000000 </v>
   <v>       0.00000000      -3.98150800       0.00000000 </v>
   <v>      -0.00000000      -0.00000000      -2.35489574 </v>
  </varray>
  <energy>
   <i name="e_fr_energy">    -57.07785485 </i>
   <i name="e_wo_entrp">    -57.07701290 </i>
   <i name="e_0_energy">     -0.00168391 </i>
  </energy>
  <time name="totalsc">  237.10  238.81</time>
 </calculation>
 <calculation>
  <scstep>
   <time name="dav">   24.66   24.73</time>
   <time name="total">   27.29   27.37</time>
   <energy>
    <i name="alphaZ">    280.72554612 </i>
    <i name="ewald">  -7902.20273029 </i>
    <i name="hartreedc">  -3992.29771807 </i>
    <i name="XCdc">    381.50775616 </i>
    <i name="pawpsdc">  16235.53014674 </i>
    <i name="pawaedc"> -16526.63457167 </i>
    <i name="eentropy">     -0.00178478 </i>
    <i name="bandstr">   -549.21467509 </i>
    <i name="atom">  12019.53804467 </i>
    <i name="e_fr_energy">    -53.04998621 </i>
    <i name="e_wo_entrp">    -53.04820143 </i>
    <i name="e_0_energy">    -53.04909382 </i>
   </energy>
  </scstep>
  <scstep>
   <time name="dav">   27.07   27.15</time>
   <time name="total">   29.70   30.71</time>
   <energy>
    <i name="e_fr_energy">    -53.04611274 </i>
    <i name="e_wo_entrp">    -53.04477174 </i>
    <i name="e_0_energy">    -53.04544224 </i>
   </energy>
  </scstep>
  <scstep>
   <time name="dav">   26.42   26.50</time>
   <time name="total">   29.07   29.16</time>
   <energy>
    <i name="e_fr_energy">    -53.04515609 </i>
    <i name="e_wo_entrp">    -53.04339378 </i>
    <i name="e_0_energy">    -53.04427494 </i>
   </energy>
  </scstep>
  <scstep>
   <time name="dav">   26.29   26.36</time>
   <time name="total">   28.90   28.99</time>
   <energy>
    <i name="e_fr_energy">    -53.04492475 </i>
    <i name="e_wo_entrp">    -53.04363199 </i>
    <i name="e_0_energy">    -53.04427837 </i>
   </energy>
  </scstep>
  <scstep>
   <time name="dav">   25.55   25.62</time>
   <time name="total">   28.14   28.23</time>
   <energy>
    <i name="e_fr_energy">    -53.04451681 </i>
    <i name="e_wo_entrp">    -53.04297193 </i>
    <i name="e_0_energy">    -53.04374437 </i>
   </energy>
  </scstep>
  <scstep>
   <time name="dav">   22.88   22.94</time>
   <time name="total">   25.49   25.57</time>
   <energy>
    <i name="e_fr_energy">    -53.04456150 </i>
    <i name="e_wo_entrp">    -53.04301607 </i>
    <i name="e_0_energy">    -53.04378879 </i>
   </energy>
  </scstep>
  <scstep>
   <time name="dav">   25.49   25.56</time>
   <time name="total">   28.11   28.19</time>
   <energy>
    <i name="e_fr_energy">    -53.04456247 </i>
    <i name="e_wo_entrp">    -53.04302693 </i>
    <i name="e_0_energy">    -53.04379470 </i>
   </energy>
  </scstep>
  <scstep>
   <time name="dav">   19.08   19.13</time>
   <time name="total">   20.06   20.12</time>
   <energy>
    <i name="alphaZ">    280.72554612 </i>
    <i name="ewald">  -7902.20273029 </i>
    <i name="hartreedc">  -3983.90686487 </i>
    <i name="XCdc">    381.14318978 </i>
    <i name="pawpsdc">  16275.81774654 </i>
    <i name="pawaedc"> -16567.01871740 </i>
    <i name="eentropy">     -0.00153535 </i>
    <i name="bandstr">   -557.13924201 </i>
    <i name="atom">  12019.53804467 </i>
    <i name="e_fr_energy">    -53.04456280 </i>
    <i name="e_wo_entrp">    -53.04302746 </i>
    <i name="e_0_energy">    -53.04379513 </i>
   </energy>
  </scstep>
  <structure>
   <crystal>
    <varray name="basis" >
     <v>       3.89780973       0.00000000      -0.00000000 </v>
     <v>      -1.94890486       3.37560224      -0.00000000 </v>
     <v>      -0.00000000      -0.00000000      25.09346013 </v>
    </varray>
    <i name="volume">    330.16607898 </i>
    <varray name="rec_basis" >
     <v>       0.25655434       0.14812172       0.00000000 </v>
     <v>      -0.00000000       0.29624343       0.00000000 </v>
     <v>       0.00000000       0.00000000       0.03985102 </v>
    </varray>
   </crystal>
   <varray name="positions" >
    <v>       0.00000000       0.00000000       0.25859381 </v>
    <v>      -0.00000000      -0.00000000       0.74140619 </v>
    <v>       0.33333334       0.66666669       0.09937889 </v>
    <v>       0.66666663       0.33333331       0.90062111 </v>
    <v>       0.33333334       0.66666669       0.19496638 </v>
    <v>       0.66666663       0.33333331       0.80503365 </v>
    <v>       0.33333334       0.66666669       0.94531904 </v>
    <v>       0.66666663       0.33333331       0.05468096 </v>
    <v>       0.33333334       0.66666669       0.69310505 </v>
    <v>       0.66666663       0.33333331       0.30689495 </v>
    <v>       0.33333334       0.66666669       0.42838092 </v>
    <v>       0.66666663       0.33333331       0.57161908 </v>
    <v>       0.33333334       0.66666669       0.58348537 </v>
    <v>       0.66666663       0.33333331       0.41651463 </v>
   </varray>
  </structure>
  <varray name="forces" >
   <v>       0.00000000       0.00000000      -0.00212691 </v>
   <v>      -0.00000000      -0.00000000       0.00212691 </v>
   <v>      -0.00000000      -0.00000000       0.05173829 </v>
   <v>       0.00000000       0.00000000      -0.05173829 </v>
   <v>      -0.00000000      -0.00000000       0.06280502 </v>
   <v>       0.00000000       0.00000000      -0.06280502 </v>
   <v>       0.00000000       0.00000000      -0.01265853 </v>
   <v>      -0.00000000      -0.00000000       0.01265853 </v>
   <v>       0.00000000       0.00000000      -0.04716725 </v>
   <v>      -0.00000000      -0.00000000       0.04716725 </v>
   <v>      -0.00000000      -0.00000000       0.06979008 </v>
   <v>       0.00000000       0.00000000      -0.06979008 </v>
   <v>       0.00000000       0.00000000      -0.06192763 </v>
   <v>      -0.00000000      -0.00000000       0.06192763 </v>
  </varray>
  <varray name="stress" >
   <v>      -2.51383282       0.00000000       0.00000000 </v>
   <v>       0.00000000      -2.51383282       0.00000000 </v>
   <v>      -0.00000000       0.00000000      -0.82806045 </v>
  </varray>
  <energy>
   <i name="e_fr_energy">    -57.08401148 </i>
   <i name="e_wo_entrp">    -57.08324380 </i>
   <i name="e_0_energy">     -0.00153535 </i>
  </energy>
  <time name="totalsc">  261.08  263.22</time>
 </calculation>
 <calculation>
  <scstep>
   <time name="dav">   24.45   24.52</time>
   <time name="total">   27.05   27.13</time>
   <energy>
    <i name="alphaZ">    282.43215490 </i>
    <i name="ewald">  -7921.33701339 </i>
    <i name="hartreedc">  -3990.27199768 </i>
    <i name="XCdc">    382.03903301 </i>
    <i name="pawpsdc">  16274.57193889 </i>
    <i name="pawaedc"> -16565.77605843 </i>
    <i name="eentropy">     -0.00176432 </i>
    <i name="bandstr">   -534.23871837 </i>
    <i name="atom">  12019.53804467 </i>
    <i name="e_fr_energy">    -53.04438073 </i>
    <i name="e_wo_entrp">    -53.04261641 </i>
    <i name="e_0_energy">    -53.04349857 </i>
   </energy>
  </scstep>
  <scstep>
   <time name="dav">   27.00   27.08</time>
   <time name="total">   29.60   29.69</time>
   <energy>
    <i name="e_fr_energy">    -53.02875885 </i>
    <i name="e_wo_entrp">    -53.02787598 </i>
    <i name="e_0_energy">    -53.02831742 </i>
   </energy>
  </scstep>
  <scstep>
   <time name="dav">   26.27   26.35</time>
   <time name="total">   28.89   28.98</time>
   <energy>
    <i name="e_fr_energy">    -53.02471882 </i>
    <i name="e_wo_entrp">    -53.02311184 </i>
    <i name="e_0_energy">    -53.02391533 </i>
   </energy>
  </scstep>
  <scstep>
   <time name="dav">   26.52   26.60</time>
   <time name="total">   29.16   29.28</time>
   <energy>
    <i name="e_fr_energy">    -53.02382289 </i>
    <i name="e_wo_entrp">    -53.02301347 </i>
    <i name="e_0_energy">    -53.02341818 </i>
   </energy>
  </scstep>
  <scstep>
   <time name="dav">   26.13   26.21</time>
   <time name="total">   28.75   28.84</time>
   <energy>
    <i name="e_fr_energy">    -53.02247547 </i>
    <i name="e_wo_entrp">    -53.02125554 </i>
    <i name="e_0_energy">    -53.02186550 </i>
   </energy>
  </scstep>
  <scstep>
   <time name="dav">   22.87   22.94</time>
   <time name="total">   25.47   25.55</time>
   <energy>
    <i name="e_fr_energy">    -53.02260915 </i>
    <i name="e_wo_entrp">    -53.02138241 </i>
    <i name="e_0_energy">    -53.02199578 </i>
   </energy>
  </scstep>
  <scstep>
   <time name="dav">   25.96   26.03</time>
   <time name="total">   28.55   28.65</time>
   <energy>
    <i name="e_fr_energy">    -53.02261102 </i>
    <i name="e_wo_entrp">    -53.02140873 </i>
    <i name="e_0_energy">    -53.02200987 </i>
   </energy>
  </scstep>
  <scstep>
   <time name="dav">   24.38   24.45</time>
   <time name="total">   26.99   27.07</time>
   <energy>
    <i name="e_fr_energy">    -53.02261140 </i>
    <i name="e_wo_entrp">    -53.02140011 </i>
    <i name="e_0_energy">    -53.02200576 </i>
   </energy>
  </scstep>
  <scstep>
   <time name="dav">   21.66   21.73</time>
   <time name="total">   24.29   24.37</time>
   <energy>
    <i name="e_fr_energy">    -53.02261657 </i>
    <i name="e_wo_entrp">    -53.02136823 </i>
    <i name="e_0_energy">    -53.02199240 </i>
   </energy>
  </scstep>
  <scstep>
   <time name="dav">   22.85   22.92</time>
   <time name="total">   25.47   25.55</time>
   <energy>
    <i name="e_fr_energy">    -53.02261433 </i>
    <i name="e_wo_entrp">    -53.02139384 </i>
    <i name="e_0_energy">    -53.02200409 </i>
   </energy>
  </scstep>
  <scstep>
   <time name="dav">   18.67   18.72</time>
   <time name="total">   19.65   19.71</time>
   <energy>
    <i name="alphaZ">    282.43215490 </i>
    <i name="ewald">  -7921.33701339 </i>
    <i name="hartreedc">  -3973.06672085 </i>
    <i name="XCdc">    381.29532900 </i>
    <i name="pawpsdc">  16332.37252224 </i>
    <i name="pawaedc"> -16623.82395577 </i>
    <i name="eentropy">     -0.00122227 </i>
    <i name="bandstr">   -550.43175311 </i>
    <i name="atom">  12019.53804467 </i>
    <i name="e_fr_energy">    -53.02261457 </i>
    <i name="e_wo_entrp">    -53.02139230 </i>
    <i name="e_0_energy">    -53.02200343 </i>
   </energy>
  </scstep>
  <structure>
   <crystal>
    <varray name="basis" >
     <v>       3.89430314       0.00000000      -0.00000000 </v>
     <v>      -1.94715157       3.37256545      -0.00000000 </v>
     <v>      -0.00000000      -0.00000000      24.98676929 </v>
    </varray>
    <i name="volume">    328.17103586 </i>
    <varray name="rec_basis" >
     <v>       0.25678535       0.14825509       0.00000000 </v>
     <v>      -0.00000000       0.29651018       0.00000000 </v>
     <v>       0.00000000       0.00000000       0.04002118 </v>
    </varray>
   </crystal>
   <varray name="positions" >
    <v>       0.00000000       0.00000000       0.25925269 </v>
    <v>      -0.00000000      -0.00000000       0.74074731 </v>
    <v>       0.33333334       0.66666669       0.09993277 </v>
    <v>       0.66666663       0.33333331       0.90006723 </v>
    <v>       0.33333334       0.66666669       0.19585373 </v>
    <v>       0.66666663       0.33333331       0.80414630 </v>
    <v>       0.33333334       0.66666669       0.94541344 </v>
    <v>       0.66666663       0.33333331       0.05458656 </v>
    <v>       0.33333334       0.66666669       0.69271921 </v>
    <v>       0.66666663       0.33333331       0.30728079 </v>
    <v>       0.33333334       0.66666669       0.42820204 </v>
    <v>       0.66666663       0.33333331       0.57179796 </v>
    <v>       0.33333334       0.66666669       0.58222244 </v>
    <v>       0.66666663       0.33333331       0.41777756 </v>
   </varray>
  </structure>
  <varray name="forces" >
   <v>       0.00000000       0.00000000      -0.00175520 </v>
   <v>      -0.00000000      -0.00000000       0.00175520 </v>
   <v>       0.00000000       0.00000000      -0.01138088 </v>
   <v>      -0.00000000      -0.00000000       0.01138088 </v>
   <v>       0.00000000       0.00000000      -0.02553394 </v>
   <v>      -0.00000000      -0.00000000       0.02553394 </v>
   <v>       0.00000000       0.00000000      -0.07465296 </v>
   <v>      -0.00000000      -0.00000000       0.07465296 </v>
   <v>       0.00000000       0.00000000      -0.12804226 </v>
   <v>      -0.00000000      -0.00000000       0.12804226 </v>
   <v>      -0.00000000      -0.00000000       0.11251720 </v>
   <v>       0.00000000       0.00000000      -0.11251720 </v>
   <v>       0.00000000       0.00000000      -0.04712059 </v>
   <v>      -0.00000000      -0.00000000       0.04712059 </v>
  </varray>
  <varray name="stress" >
   <v>       0.53778571      -0.00000000       0.00000000 </v>
   <v>       0.00000000       0.53778571       0.00000000 </v>
   <v>      -0.00000000       0.00000000       2.39827639 </v>
  </varray>
  <energy>
   <i name="e_fr_energy">    -57.08918126 </i>
   <i name="e_wo_entrp">    -57.08857012 </i>
   <i name="e_0_energy">     -0.00122227 </i>
  </energy>
  <time name="totalsc">  338.02  339.57</time>
 </calculation>
 <calculation>
  <scstep>
   <time name="dav">   20.11   20.17</time>
   <time name="total">   22.74   22.81</time>
   <energy>
    <i name="alphaZ">    282.36219399 </i>
    <i name="ewald">  -7921.97036600 </i>
    <i name="hartreedc">  -3971.82008362 </i>
    <i name="XCdc">    381.22576676 </i>
    <i name="pawpsdc">  16332.40078044 </i>
    <i name="pawaedc"> -16623.85227588 </i>
    <i name="eentropy">     -0.00120763 </i>
    <i name="bandstr">   -550.90356757 </i>
    <i name="atom">  12019.53804467 </i>
    <i name="e_fr_energy">    -53.02071482 </i>
    <i name="e_wo_entrp">    -53.01950720 </i>
    <i name="e_0_energy">    -53.02011101 </i>
   </energy>
  </scstep>
  <scstep>
   <time name="dav">   25.87   25.95</time>
   <time name="total">   28.49   28.57</time>
   <energy>
    <i name="e_fr_energy">    -53.02998919 </i>
    <i name="e_wo_entrp">    -53.02882154 </i>
    <i name="e_0_energy">    -53.02940537 </i>
   </energy>
  </scstep>
  <scstep>
   <time name="dav">   25.14   25.21</time>
   <time name="total">   27.73   27.81</time>
   <energy>
    <i name="e_fr_energy">    -53.02974291 </i>
    <i name="e_wo_entrp">    -53.02853161 </i>
    <i name="e_0_energy">    -53.02913726 </i>
   </energy>
  </scstep>
  <scstep>
   <time name="dav">   26.62   26.70</time>
   <time name="total">   29.22   29.31</time>
   <energy>
    <i name="e_fr_energy">    -53.02969622 </i>
    <i name="e_wo_entrp">    -53.02856206 </i>
    <i name="e_0_energy">    -53.02912914 </i>
   </energy>
  </scstep>
  <scstep>
   <time name="dav">   25.97   26.04</time>
   <time name="total">   28.57   28.66</time>
   <energy>
    <i name="e_fr_energy">    -53.02966563 </i>
    <i name="e_wo_entrp">    -53.02848761 </i>
    <i name="e_0_energy">    -53.02907662 </i>
   </energy>
  </scstep>
  <scstep>
   <time name="dav">   26.70   26.78</time>
   <time name="total">   29.30   29.38</time>
   <energy>
    <i name="e_fr_energy">    -53.02966377 </i>
    <i name="e_wo_entrp">    -53.02853970 </i>
    <i name="e_0_energy">    -53.02910174 </i>
   </energy>
  </scstep>
  <scstep>
   <time name="dav">   26.03   26.11</time>
   <time name="total">   28.63   28.93</time>
   <energy>
    <i name="e_fr_energy">    -53.02966219 </i>
    <i name="e_wo_entrp">    -53.02850774 </i>
    <i name="e_0_energy">    -53.02908496 </i>
   </energy>
  </scstep>
  <scstep>
   <time name="dav">   20.48   20.54</time>
   <time name="total">   23.08   23.15</time>
   <energy>
    <i name="e_fr_energy">    -53.02966293 </i>
    <i name="e_wo_entrp">    -53.02851627 </i>
    <i name="e_0_energy">    -53.02908960 </i>
   </energy>
  </scstep>
  <scstep>
   <time name="dav">   15.89   15.94</time>
   <time name="total">   16.87   16.92</time>
   <energy>
    <i name="alphaZ">    282.36219399 </i>
    <i name="ewald">  -7921.97036600 </i>
    <i name="hartreedc">  -3972.56379595 </i>
    <i name="XCdc">    381.26447269 </i>
    <i name="pawpsdc">  16306.73447290 </i>
    <i name="pawaedc"> -16598.12159260 </i>
    <i name="eentropy">     -0.00114928 </i>
    <i name="bandstr">   -550.27194332 </i>
    <i name="atom">  12019.53804467 </i>
    <i name="e_fr_energy">    -53.02966289 </i>
    <i name="e_wo_entrp">    -53.02851362 </i>
    <i name="e_0_energy">    -53.02908826 </i>
   </energy>
  </scstep>
  <structure>
   <crystal>
    <varray name="basis" >
     <v>       3.89452031       0.00000000      -0.00000000 </v>
     <v>      -1.94726016       3.37275353      -0.00000000 </v>
     <v>      -0.00000000      -0.00000000      24.99017291 </v>
    </varray>
    <i name="volume">    328.25234683 </i>
    <varray name="rec_basis" >
     <v>       0.25677103       0.14824682       0.00000000 </v>
     <v>      -0.00000000       0.29649365       0.00000000 </v>
     <v>       0.00000000       0.00000000       0.04001573 </v>
    </varray>
   </crystal>
   <varray name="positions" >
    <v>       0.00000000       0.00000000       0.25956820 </v>
    <v>      -0.00000000      -0.00000000       0.74043180 </v>
    <v>       0.33333334       0.66666669       0.10017329 </v>
    <v>       0.66666663       0.33333331       0.89982671 </v>
    <v>       0.33333334       0.66666669       0.19622084 </v>
    <v>       0.66666663       0.33333331       0.80377919 </v>
    <v>       0.33333334       0.66666669       0.94527302 </v>
    <v>       0.66666663       0.33333331       0.05472698 </v>
    <v>       0.33333334       0.66666669       0.69221243 </v>
    <v>       0.66666663       0.33333331       0.30778757 </v>
    <v>       0.33333334       0.66666669       0.42839591 </v>
    <v>       0.66666663       0.33333331       0.57160409 </v>
    <v>       0.33333334       0.66666669       0.58149172 </v>
    <v>       0.66666663       0.33333331       0.41850828 </v>
   </varray>
  </structure>
  <varray name="forces" >
   <v>      -0.00000000      -0.00000000       0.03184734 </v>
   <v>       0.00000000       0.00000000      -0.03184734 </v>
   <v>      -0.00000000      -0.00000000       0.00714895 </v>
   <v>       0.00000000       0.00000000      -0.00714895 </v>
   <v>       0.00000000       0.00000000      -0.06082515 </v>
   <v>      -0.00000000      -0.00000000       0.06082515 </v>
   <v>       0.00000000       0.00000000      -0.08603662 </v>
   <v>      -0.00000000      -0.00000000       0.08603662 </v>
   <v>       0.00000000       0.00000000      -0.09068481 </v>
   <v>      -0.00000000      -0.00000000       0.09068481 </v>
   <v>      -0.00000000      -0.00000000       0.12460956 </v>
   <v>       0.00000000       0.00000000      -0.12460956 </v>
   <v>       0.00000000       0.00000000      -0.04077872 </v>
   <v>      -0.00000000      -0.00000000       0.04077872 </v>
  </varray>
  <varray name="stress" >
   <v>       0.17960820       0.00000000       0.00000000 </v>
   <v>       0.00000000       0.17960820       0.00000000 </v>
   <v>      -0.00000000       0.00000000       0.83840296 </v>
  </varray>
  <energy>
   <i name="e_fr_energy">    -57.09474620 </i>
   <i name="e_wo_entrp">    -57.09417156 </i>
   <i name="e_0_energy">     -0.00114928 </i>
  </energy>
  <time name="totalsc">  278.50  280.23</time>
 </calculation>
 <calculation>
  <scstep>
   <time name="dav">   19.89   19.95</time>
   <time name="total">   22.49   22.56</time>
   <energy>
    <i name="alphaZ">    282.15245715 </i>
    <i name="ewald">  -7919.05908235 </i>
    <i name="hartreedc">  -3973.63489236 </i>
    <i name="XCdc">    381.05264222 </i>
    <i name="pawpsdc">  16306.87555040 </i>
    <i name="pawaedc"> -16598.26213630 </i>
    <i name="eentropy">     -0.00116875 </i>
    <i name="bandstr">   -551.61640972 </i>
    <i name="atom">  12019.53804467 </i>
    <i name="e_fr_energy">    -52.95499502 </i>
    <i name="e_wo_entrp">    -52.95382628 </i>
    <i name="e_0_energy">    -52.95441065 </i>
   </energy>
  </scstep>
  <scstep>
   <time name="dav">   25.54   25.61</time>
   <time name="total">   28.14   28.23</time>
   <energy>
    <i name="e_fr_energy">    -53.04771389 </i>
    <i name="e_wo_entrp">    -53.04672272 </i>
    <i name="e_0_energy">    -53.04721830 </i>
   </energy>
  </scstep>
  <scstep>
   <time name="dav">   24.36   24.43</time>
   <time name="total">   26.96   27.04</time>
   <energy>
    <i name="e_fr_energy">    -53.04575751 </i>
    <i name="e_wo_entrp">    -53.04458274 </i>
    <i name="e_0_energy">    -53.04517013 </i>
   </energy>
  </scstep>
  <scstep>
   <time name="dav">   26.38   26.46</time>
   <time name="total">   28.99   29.08</time>
   <energy>
    <i name="e_fr_energy">    -53.04538253 </i>
    <i name="e_wo_entrp">    -53.04445123 </i>
    <i name="e_0_energy">    -53.04491688 </i>
   </energy>
  </scstep>
  <scstep>
   <time name="dav">   25.86   25.94</time>
   <time name="total">   28.50   28.60</time>
   <energy>
    <i name="e_fr_energy">    -53.04510004 </i>
    <i name="e_wo_entrp">    -53.04405798 </i>
    <i name="e_0_energy">    -53.04457901 </i>
   </energy>
  </scstep>
  <scstep>
   <time name="dav">   27.18   27.26</time>
   <time name="total">   29.82   29.91</time>
   <energy>
    <i name="e_fr_energy">    -53.04508294 </i>
    <i name="e_wo_entrp">    -53.04418000 </i>
    <i name="e_0_energy">    -53.04463147 </i>
   </energy>
  </scstep>
  <scstep>
   <time name="dav">   26.11   26.18</time>
   <time name="total">   28.73   28.82</time>
   <energy>
    <i name="e_fr_energy">    -53.04507822 </i>
    <i name="e_wo_entrp">    -53.04409111 </i>
    <i name="e_0_energy">    -53.04458466 </i>
   </energy>
  </scstep>
  <scstep>
   <time name="dav">   21.70   21.77</time>
   <time name="total">   24.31   24.38</time>
   <energy>
    <i name="e_fr_energy">    -53.04508449 </i>
    <i name="e_wo_entrp">    -53.04412645 </i>
    <i name="e_0_energy">    -53.04460547 </i>
   </energy>
  </scstep>
  <scstep>
   <time name="dav">   22.22   22.28</time>
   <time name="total">   24.82   24.90</time>
   <energy>
    <i name="e_fr_energy">    -53.04508431 </i>
    <i name="e_wo_entrp">    -53.04411969 </i>
    <i name="e_0_energy">    -53.04460200 </i>
   </energy>
  </scstep>
  <scstep>
   <time name="dav">   18.91   18.97</time>
   <time name="total">   19.89   19.95</time>
   <energy>
    <i name="alphaZ">    282.15245715 </i>
    <i name="ewald">  -7919.05908235 </i>
    <i name="hartreedc">  -3975.85459097 </i>
    <i name="XCdc">    381.17155897 </i>
    <i name="pawpsdc">  16233.46350406 </i>
    <i name="pawaedc"> -16524.65906306 </i>
    <i name="eentropy">     -0.00097302 </i>
    <i name="bandstr">   -549.79693917 </i>
    <i name="atom">  12019.53804467 </i>
    <i name="e_fr_energy">    -53.04508372 </i>
    <i name="e_wo_entrp">    -53.04411070 </i>
    <i name="e_0_energy">    -53.04459721 </i>
   </energy>
  </scstep>
  <structure>
   <crystal>
    <varray name="basis" >
     <v>       3.89517184       0.00000000       0.00000000 </v>
     <v>      -1.94758592       3.37331777      -0.00000000 </v>
     <v>      -0.00000000      -0.00000000      25.00038374 </v>
    </varray>
    <i name="volume">    328.49635182 </i>
    <varray name="rec_basis" >
     <v>       0.25672808       0.14822203       0.00000000 </v>
     <v>      -0.00000000       0.29644406       0.00000000 </v>
     <v>      -0.00000000       0.00000000       0.03999939 </v>
    </varray>
   </crystal>
   <varray name="positions" >
    <v>       0.00000000       0.00000000       0.26051461 </v>
    <v>      -0.00000000      -0.00000000       0.73948539 </v>
    <v>       0.33333334       0.66666669       0.10089475 </v>
    <v>       0.66666663       0.33333331       0.89910525 </v>
    <v>       0.33333334       0.66666669       0.19732201 </v>
    <v>       0.66666663       0.33333331       0.80267802 </v>
    <v>       0.33333334       0.66666669       0.94485181 </v>
    <v>       0.66666663       0.33333331       0.05514819 </v>
    <v>       0.33333334       0.66666669       0.69069231 </v>
    <v>       0.66666663       0.33333331       0.30930769 </v>
    <v>       0.33333334       0.66666669       0.42897744 </v>
    <v>       0.66666663       0.33333331       0.57102256 </v>
    <v>       0.33333334       0.66666669       0.57929986 </v>
    <v>       0.66666663       0.33333331       0.42070014 </v>
   </varray>
  </structure>
  <varray name="forces" >
   <v>      -0.00000000      -0.00000000       0.13196293 </v>
   <v>       0.00000000       0.00000000      -0.13196293 </v>
   <v>      -0.00000000      -0.00000000       0.05899720 </v>
   <v>       0.00000000       0.00000000      -0.05899720 </v>
   <v>       0.00000000       0.00000000      -0.16285697 </v>
   <v>      -0.00000000      -0.00000000       0.16285697 </v>
   <v>       0.00000000       0.00000000      -0.12174399 </v>
   <v>      -0.00000000      -0.00000000       0.12174399 </v>
   <v>      -0.00000000      -0.00000000       0.02164578 </v>
   <v>       0.00000000       0.00000000      -0.02164578 </v>
   <v>      -0.00000000      -0.00000000       0.15670693 </v>
   <v>       0.00000000       0.00000000      -0.15670693 </v>
   <v>       0.00000000       0.00000000      -0.02599666 </v>
   <v>      -0.00000000      -0.00000000       0.02599666 </v>
  </varray>
  <varray name="stress" >
   <v>      -0.91928935       0.00000000       0.00000000 </v>
   <v>       0.00000000      -0.91928935       0.00000000 </v>
   <v>       0.00000000      -0.00000000      -3.80046676 </v>
  </varray>
  <energy>
   <i name="e_fr_energy">    -57.10601343 </i>
   <i name="e_wo_entrp">    -57.10552692 </i>
   <i name="e_0_energy">     -0.00097302 </i>
  </energy>
  <time name="totalsc">  306.85  307.82</time>
 </calculation>
 <calculation>
  <scstep>
   <time name="dav">   20.06   20.12</time>
   <time name="total">   22.66   22.73</time>
   <energy>
    <i name="alphaZ">    281.73363898 </i>
    <i name="ewald">  -7891.65070946 </i>
    <i name="hartreedc">  -3999.59689771 </i>
    <i name="XCdc">    380.74034438 </i>
    <i name="pawpsdc">  16234.34533880 </i>
    <i name="pawaedc"> -16525.53904602 </i>
    <i name="eentropy">     -0.00161438 </i>
    <i name="bandstr">   -552.18318902 </i>
    <i name="atom">  12019.53804467 </i>
    <i name="e_fr_energy">    -52.61408977 </i>
    <i name="e_wo_entrp">    -52.61247539 </i>
    <i name="e_0_energy">    -52.61328258 </i>
   </energy>
  </scstep>
  <scstep>
   <time name="dav">   25.62   25.69</time>
   <time name="total">   28.21   28.30</time>
   <energy>
    <i name="e_fr_energy">    -53.06155942 </i>
    <i name="e_wo_entrp">    -53.06084454 </i>
    <i name="e_0_energy">    -53.06120198 </i>
   </energy>
  </scstep>
  <scstep>
   <time name="dav">   23.36   23.43</time>
   <time name="total">   25.99   26.07</time>
   <energy>
    <i name="e_fr_energy">    -53.05574064 </i>
    <i name="e_wo_entrp">    -53.05407609 </i>
    <i name="e_0_energy">    -53.05490837 </i>
   </energy>
  </scstep>
  <scstep>
   <time name="dav">   27.24   27.32</time>
   <time name="total">   29.87   29.96</time>
   <energy>
    <i name="e_fr_energy">    -53.05436633 </i>
    <i name="e_wo_entrp">    -53.05368655 </i>
    <i name="e_0_energy">    -53.05402644 </i>
   </energy>
  </scstep>
  <scstep>
   <time name="dav">   25.28   25.35</time>
   <time name="total">   27.90   27.98</time>
   <energy>
    <i name="e_fr_energy">    -53.05281332 </i>
    <i name="e_wo_entrp">    -53.05183507 </i>
    <i name="e_0_energy">    -53.05232419 </i>
   </energy>
  </scstep>
  <scstep>
   <time name="dav">   25.73   25.80</time>
   <time name="total">   28.33   28.41</time>
   <energy>
    <i name="e_fr_energy">    -53.05293331 </i>
    <i name="e_wo_entrp">    -53.05216527 </i>
    <i name="e_0_energy">    -53.05254929 </i>
   </energy>
  </scstep>
  <scstep>
   <time name="dav">   24.53   24.61</time>
   <time name="total">   27.13   27.21</time>
   <energy>
    <i name="e_fr_energy">    -53.05294688 </i>
    <i name="e_wo_entrp">    -53.05210076 </i>
    <i name="e_0_energy">    -53.05252382 </i>
   </energy>
  </scstep>
  <scstep>
   <time name="dav">   25.82   25.89</time>
   <time name="total">   28.43   28.94</time>
   <energy>
    <i name="e_fr_energy">    -53.05294982 </i>
    <i name="e_wo_entrp">    -53.05205389 </i>
    <i name="e_0_energy">    -53.05250185 </i>
   </energy>
  </scstep>
  <scstep>
   <time name="dav">   22.91   22.98</time>
   <time name="total">   25.55   25.63</time>
   <energy>
    <i name="e_fr_energy">    -53.05294972 </i>
    <i name="e_wo_entrp">    -53.05204175 </i>
    <i name="e_0_energy">    -53.05249574 </i>
   </energy>
  </scstep>
  <scstep>
   <time name="dav">   22.05   22.12</time>
   <time name="total">   24.65   24.74</time>
   <energy>
    <i name="e_fr_energy">    -53.05294883 </i>
    <i name="e_wo_entrp">    -53.05202964 </i>
    <i name="e_0_energy">    -53.05248924 </i>
   </energy>
  </scstep>
  <scstep>
   <time name="dav">   17.70   17.76</time>
   <time name="total">   18.68   18.75</time>
   <energy>
    <i name="alphaZ">    281.73363898 </i>
    <i name="ewald">  -7891.65070946 </i>
    <i name="hartreedc">  -4003.95472669 </i>
    <i name="XCdc">    380.98313702 </i>
    <i name="pawpsdc">  16089.69465936 </i>
    <i name="pawaedc"> -16380.49851626 </i>
    <i name="eentropy">     -0.00092021 </i>
    <i name="bandstr">   -548.89755629 </i>
    <i name="atom">  12019.53804467 </i>
    <i name="e_fr_energy">    -53.05294887 </i>
    <i name="e_wo_entrp">    -53.05202867 </i>
    <i name="e_0_energy">    -53.05248877 </i>
   </energy>
  </scstep>
  <structure>
   <crystal>
    <varray name="basis" >
     <v>       3.89647490       0.00000000       0.00000000 </v>
     <v>      -1.94823745       3.37444625      -0.00000000 </v>
     <v>      -0.00000000      -0.00000000      25.02080541 </v>
    </varray>
    <i name="volume">    328.98468628 </i>
    <varray name="rec_basis" >
     <v>       0.25664223       0.14817246       0.00000000 </v>
     <v>      -0.00000000       0.29634492       0.00000000 </v>
     <v>      -0.00000000       0.00000000       0.03996674 </v>
    </varray>
   </crystal>
   <varray name="positions" >
    <v>       0.00000000       0.00000000       0.26240664 </v>
    <v>      -0.00000000      -0.00000000       0.73759336 </v>
    <v>       0.33333334       0.66666669       0.10233708 </v>
    <v>       0.66666663       0.33333331       0.89766292 </v>
    <v>       0.33333334       0.66666669       0.19952346 </v>
    <v>       0.66666663       0.33333331       0.80047657 </v>
    <v>       0.33333334       0.66666669       0.94400974 </v>
    <v>       0.66666663       0.33333331       0.05599026 </v>
    <v>       0.33333334       0.66666669       0.68765331 </v>
    <v>       0.66666663       0.33333331       0.31234669 </v>
    <v>       0.33333334       0.66666669       0.43014004 </v>
    <v>       0.66666663       0.33333331       0.56985996 </v>
    <v>       0.33333334       0.66666669       0.57491793 </v>
    <v>       0.66666663       0.33333331       0.42508207 </v>
   </varray>
  </structure>
  <varray name="forces" >
   <v>      -0.00000000      -0.00000000       0.32547930 </v>
   <v>       0.00000000       0.00000000      -0.32547930 </v>
   <v>      -0.00000000      -0.00000000       0.14436459 </v>
   <v>       0.00000000       0.00000000      -0.14436459 </v>
   <v>       0.00000000       0.00000000      -0.34543998 </v>
   <v>      -0.00000000      -0.00000000       0.34543998 </v>
   <v>       0.00000000       0.00000000      -0.19813232 </v>
   <v>      -0.00000000      -0.00000000       0.19813232 </v>
   <v>      -0.00000000      -0.00000000       0.24377890 </v>
   <v>       0.00000000       0.00000000      -0.24377890 </v>
   <v>      -0.00000000      -0.00000000       0.20483080 </v>
   <v>       0.00000000       0.00000000      -0.20483080 </v>
   <v>       0.00000000       0.00000000      -0.01879499 </v>
   <v>      -0.00000000      -0.00000000       0.01879499 </v>
  </varray>
  <varray name="stress" >
   <v>      -3.24088829       0.00000000       0.00000000 </v>
   <v>       0.00000000      -3.24088829      -0.00000000 </v>
   <v>       0.00000000      -0.00000000     -12.90527042 </v>
  </varray>
  <energy>
   <i name="e_fr_energy">    -57.10680962 </i>
   <i name="e_wo_entrp">    -57.10634952 </i>
   <i name="e_0_energy">     -0.00092021 </i>
  </energy>
  <time name="totalsc">  331.65  333.35</time>
 </calculation>
 <calculation>
  <scstep>
   <time name="dav">   20.08   20.14</time>
   <time name="total">   22.69   22.76</time>
   <energy>
    <i name="alphaZ">    281.92275442 </i>
    <i name="ewald">  -7907.58420685 </i>
    <i name="hartreedc">  -3989.74463707 </i>
    <i name="XCdc">    381.16752234 </i>
    <i name="pawpsdc">  16090.93425111 </i>
    <i name="pawaedc"> -16381.73752882 </i>
    <i name="eentropy">     -0.00070111 </i>
    <i name="bandstr">   -547.48538483 </i>
    <i name="atom">  12019.53804467 </i>
    <i name="e_fr_energy">    -52.98988613 </i>
    <i name="e_wo_entrp">    -52.98918502 </i>
    <i name="e_0_energy">    -52.98953558 </i>
   </energy>
  </scstep>
  <scstep>
   <time name="dav">   25.50   25.57</time>
   <time name="total">   28.12   28.21</time>
   <energy>
    <i name="e_fr_energy">    -53.05430770 </i>
    <i name="e_wo_entrp">    -53.05339874 </i>
    <i name="e_0_energy">    -53.05385322 </i>
   </energy>
  </scstep>
  <scstep>
   <time name="dav">   24.68   24.75</time>
   <time name="total">   27.28   27.36</time>
   <energy>
    <i name="e_fr_energy">    -53.05324804 </i>
    <i name="e_wo_entrp">    -53.05256072 </i>
    <i name="e_0_energy">    -53.05290438 </i>
   </energy>
  </scstep>
  <scstep>
   <time name="dav">   26.92   27.00</time>
   <time name="total">   29.52   29.84</time>
   <energy>
    <i name="e_fr_energy">    -53.05305953 </i>
    <i name="e_wo_entrp">    -53.05211242 </i>
    <i name="e_0_energy">    -53.05258598 </i>
   </energy>
  </scstep>
  <scstep>
   <time name="dav">   22.93   23.00</time>
   <time name="total">   25.54   25.62</time>
   <energy>
    <i name="e_fr_energy">    -53.05287739 </i>
    <i name="e_wo_entrp">    -53.05200681 </i>
    <i name="e_0_energy">    -53.05244210 </i>
   </energy>
  </scstep>
  <scstep>
   <time name="dav">   24.81   24.88</time>
   <time name="total">   27.41   27.49</time>
   <energy>
    <i name="e_fr_energy">    -53.05289281 </i>
    <i name="e_wo_entrp">    -53.05196231 </i>
    <i name="e_0_energy">    -53.05242756 </i>
   </energy>
  </scstep>
  <scstep>
   <time name="dav">   26.48   26.56</time>
   <time name="total">   29.08   29.20</time>
   <energy>
    <i name="e_fr_energy">    -53.05290440 </i>
    <i name="e_wo_entrp">    -53.05200633 </i>
    <i name="e_0_energy">    -53.05245537 </i>
   </energy>
  </scstep>
  <scstep>
   <time name="dav">   21.69   21.75</time>
   <time name="total">   24.29   24.36</time>
   <energy>
    <i name="e_fr_energy">    -53.05290647 </i>
    <i name="e_wo_entrp">    -53.05199942 </i>
    <i name="e_0_energy">    -53.05245294 </i>
   </energy>
  </scstep>
  <scstep>
   <time name="dav">   21.40   21.47</time>
   <time name="total">   22.38   22.46</time>
   <energy>
    <i name="alphaZ">    281.92275442 </i>
    <i name="ewald">  -7907.58420685 </i>
    <i name="hartreedc">  -3987.74009680 </i>
    <i name="XCdc">    381.06948193 </i>
    <i name="pawpsdc">  16156.55139354 </i>
    <i name="pawaedc"> -16447.53408401 </i>
    <i name="eentropy">     -0.00089297 </i>
    <i name="bandstr">   -549.27529976 </i>
    <i name="atom">  12019.53804467 </i>
    <i name="e_fr_energy">    -53.05290581 </i>
    <i name="e_wo_entrp">    -53.05201285 </i>
    <i name="e_0_energy">    -53.05245933 </i>
   </energy>
  </scstep>
  <structure>
   <crystal>
    <varray name="basis" >
     <v>       3.89588617       0.00000000       0.00000000 </v>
     <v>      -1.94794309       3.37393640      -0.00000000 </v>
     <v>      -0.00000000      -0.00000000      25.01157883 </v>
    </varray>
    <i name="volume">    328.76400141 </i>
    <varray name="rec_basis" >
     <v>       0.25668101       0.14819485       0.00000000 </v>
     <v>      -0.00000000       0.29638970       0.00000000 </v>
     <v>      -0.00000000       0.00000000       0.03998148 </v>
    </varray>
   </crystal>
   <varray name="positions" >
    <v>       0.00000000       0.00000000       0.26155251 </v>
    <v>      -0.00000000      -0.00000000       0.73844749 </v>
    <v>       0.33333334       0.66666669       0.10168597 </v>
    <v>       0.66666663       0.33333331       0.89831403 </v>
    <v>       0.33333334       0.66666669       0.19852965 </v>
    <v>       0.66666663       0.33333331       0.80147038 </v>
    <v>       0.33333334       0.66666669       0.94438988 </v>
    <v>       0.66666663       0.33333331       0.05561012 </v>
    <v>       0.33333334       0.66666669       0.68902522 </v>
    <v>       0.66666663       0.33333331       0.31097478 </v>
    <v>       0.33333334       0.66666669       0.42961520 </v>
    <v>       0.66666663       0.33333331       0.57038480 </v>
    <v>       0.33333334       0.66666669       0.57689608 </v>
    <v>       0.66666663       0.33333331       0.42310392 </v>
   </varray>
  </structure>
  <varray name="forces" >
   <v>      -0.00000000      -0.00000000       0.23935272 </v>
   <v>       0.00000000       0.00000000      -0.23935272 </v>
   <v>      -0.00000000      -0.00000000       0.10865004 </v>
   <v>       0.00000000       0.00000000      -0.10865004 </v>
   <v>       0.00000000       0.00000000      -0.26580269 </v>
   <v>      -0.00000000      -0.00000000       0.26580269 </v>
   <v>       0.00000000       0.00000000      -0.16392600 </v>
   <v>      -0.00000000      -0.00000000       0.16392600 </v>
   <v>      -0.00000000      -0.00000000       0.14347843 </v>
   <v>       0.00000000       0.00000000      -0.14347843 </v>
   <v>      -0.00000000      -0.00000000       0.18610331 </v>
   <v>       0.00000000       0.00000000      -0.18610331 </v>
   <v>       0.00000000       0.00000000      -0.01851447 </v>
   <v>      -0.00000000      -0.00000000       0.01851447 </v>
  </varray>
  <varray name="stress" >
   <v>      -2.25262997      -0.00000000       0.00000000 </v>
   <v>       0.00000000      -2.25262997       0.00000000 </v>
   <v>       0.00000000       0.00000000      -8.90702950 </v>
  </varray>
  <energy>
   <i name="e_fr_energy">    -57.10976544 </i>
   <i name="e_wo_entrp">    -57.10931895 </i>
   <i name="e_0_energy">     -0.00089297 </i>
  </energy>
  <time name="totalsc">  280.40  281.76</time>
 </calculation>
 <calculation>
  <scstep>
   <time name="dav">   20.94   21.01</time>
   <time name="total">   23.55   23.63</time>
   <energy>
    <i name="alphaZ">    282.02509034 </i>
    <i name="ewald">  -7907.34041551 </i>
    <i name="hartreedc">  -3989.56778920 </i>
    <i name="XCdc">    381.11843926 </i>
    <i name="pawpsdc">  16156.27679249 </i>
    <i name="pawaedc"> -16447.25875166 </i>
    <i name="eentropy">     -0.00089403 </i>
    <i name="bandstr">   -547.84252201 </i>
    <i name="atom">  12019.53804467 </i>
    <i name="e_fr_energy">    -53.05200566 </i>
    <i name="e_wo_entrp">    -53.05111163 </i>
    <i name="e_0_energy">    -53.05155864 </i>
   </energy>
  </scstep>
  <scstep>
   <time name="dav">   25.65   25.73</time>
   <time name="total">   28.46   28.56</time>
   <energy>
    <i name="e_fr_energy">    -53.05283021 </i>
    <i name="e_wo_entrp">    -53.05199650 </i>
    <i name="e_0_energy">    -53.05241336 </i>
   </energy>
  </scstep>
  <scstep>
   <time name="dav">   24.84   24.91</time>
   <time name="total">   27.43   27.51</time>
   <energy>
    <i name="e_fr_energy">    -53.05280557 </i>
    <i name="e_wo_entrp">    -53.05190573 </i>
    <i name="e_0_energy">    -53.05235565 </i>
   </energy>
  </scstep>
  <scstep>
   <time name="dav">   25.75   25.83</time>
   <time name="total">   28.34   28.43</time>
   <energy>
    <i name="e_fr_energy">    -53.05279783 </i>
    <i name="e_wo_entrp">    -53.05194746 </i>
    <i name="e_0_energy">    -53.05237264 </i>
   </energy>
  </scstep>
  <scstep>
   <time name="dav">   25.22   25.29</time>
   <time name="total">   27.81   27.92</time>
   <energy>
    <i name="e_fr_energy">    -53.05279048 </i>
    <i name="e_wo_entrp">    -53.05191603 </i>
    <i name="e_0_energy">    -53.05235326 </i>
   </energy>
  </scstep>
  <scstep>
   <time name="dav">   21.65   21.72</time>
   <time name="total">   24.25   24.32</time>
   <energy>
    <i name="e_fr_energy">    -53.05279201 </i>
    <i name="e_wo_entrp">    -53.05192716 </i>
    <i name="e_0_energy">    -53.05235959 </i>
   </energy>
  </scstep>
  <scstep>
   <time name="dav">   15.00   15.05</time>
   <time name="total">   15.98   16.04</time>
   <energy>
    <i name="alphaZ">    282.02509034 </i>
    <i name="ewald">  -7907.34041551 </i>
    <i name="hartreedc">  -3988.54016979 </i>
    <i name="XCdc">    381.07489993 </i>
    <i name="pawpsdc">  16159.00653141 </i>
    <i name="pawaedc"> -16449.99180178 </i>
    <i name="eentropy">     -0.00086748 </i>
    <i name="bandstr">   -548.82410430 </i>
    <i name="atom">  12019.53804467 </i>
    <i name="e_fr_energy">    -53.05279250 </i>
    <i name="e_wo_entrp">    -53.05192502 </i>
    <i name="e_0_energy">    -53.05235876 </i>
   </energy>
  </scstep>
  <structure>
   <crystal>
    <varray name="basis" >
     <v>       3.89566405       0.00000000       0.00000000 </v>
     <v>      -1.94783202       3.37374403      -0.00000000 </v>
     <v>      -0.00000000      -0.00000000      25.00535438 </v>
    </varray>
    <i name="volume">    328.64470576 </i>
    <varray name="rec_basis" >
     <v>       0.25669565       0.14820330       0.00000000 </v>
     <v>      -0.00000000       0.29640660       0.00000000 </v>
     <v>      -0.00000000       0.00000000       0.03999143 </v>
    </varray>
   </crystal>
   <varray name="positions" >
    <v>       0.00000000       0.00000000       0.26166111 </v>
    <v>      -0.00000000      -0.00000000       0.73833889 </v>
    <v>       0.33333334       0.66666669       0.10176227 </v>
    <v>       0.66666663       0.33333331       0.89823773 </v>
    <v>       0.33333334       0.66666669       0.19860822 </v>
    <v>       0.66666663       0.33333331       0.80139181 </v>
    <v>       0.33333334       0.66666669       0.94433651 </v>
    <v>       0.66666663       0.33333331       0.05566349 </v>
    <v>       0.33333334       0.66666669       0.68889714 </v>
    <v>       0.66666663       0.33333331       0.31110286 </v>
    <v>       0.33333334       0.66666669       0.42968536 </v>
    <v>       0.66666663       0.33333331       0.57031464 </v>
    <v>       0.33333334       0.66666669       0.57669161 </v>
    <v>       0.66666663       0.33333331       0.42330839 </v>
   </varray>
  </structure>
  <varray name="forces" >
   <v>      -0.00000000      -0.00000000       0.23999168 </v>
   <v>       0.00000000       0.00000000      -0.23999168 </v>
   <v>      -0.00000000      -0.00000000       0.10367735 </v>
   <v>       0.00000000       0.00000000      -0.10367735 </v>
   <v>       0.00000000       0.00000000      -0.26144150 </v>
   <v>      -0.00000000      -0.00000000       0.26144150 </v>
   <v>       0.00000000       0.00000000      -0.16252256 </v>
   <v>      -0.00000000      -0.00000000       0.16252256 </v>
   <v>      -0.00000000      -0.00000000       0.14650118 </v>
   <v>       0.00000000       0.00000000      -0.14650118 </v>
   <v>      -0.00000000      -0.00000000       0.18729214 </v>
   <v>       0.00000000       0.00000000      -0.18729214 </v>
   <v>       0.00000000       0.00000000      -0.01928988 </v>
   <v>      -0.00000000      -0.00000000       0.01928988 </v>
  </varray>
  <varray name="stress" >
   <v>      -2.08446173       0.00000000       0.00000000 </v>
   <v>      -0.00000000      -2.08446173      -0.00000000 </v>
   <v>       0.00000000       0.00000000      -8.82630517 </v>
  </varray>
  <energy>
   <i name="e_fr_energy">    -57.11129110 </i>
   <i name="e_wo_entrp">    -57.11085736 </i>
   <i name="e_0_energy">     -0.00086748 </i>
  </energy>
  <time name="totalsc">  219.64  220.40</time>
 </calculation>
 <calculation>
  <scstep>
   <time name="dav">   21.06   21.11</time>
   <time name="total">   23.67   23.74</time>
   <energy>
    <i name="alphaZ">    282.33243707 </i>
    <i name="ewald">  -7906.19842868 </i>
    <i name="hartreedc">  -3994.42545927 </i>
    <i name="XCdc">    381.22147031 </i>
    <i name="pawpsdc">  16157.74394789 </i>
    <i name="pawaedc"> -16448.73205984 </i>
    <i name="eentropy">     -0.00085941 </i>
    <i name="bandstr">   -544.52436632 </i>
    <i name="atom">  12019.53804467 </i>
    <i name="e_fr_energy">    -53.04527359 </i>
    <i name="e_wo_entrp">    -53.04441417 </i>
    <i name="e_0_energy">    -53.04484388 </i>
   </energy>
  </scstep>
  <scstep>
   <time name="dav">   25.84   25.90</time>
   <time name="total">   28.45   28.52</time>
   <energy>
    <i name="e_fr_energy">    -53.05279708 </i>
    <i name="e_wo_entrp">    -53.05208814 </i>
    <i name="e_0_energy">    -53.05244261 </i>
   </energy>
  </scstep>
  <scstep>
   <time name="dav">   24.31   24.37</time>
   <time name="total">   26.91   26.98</time>
   <energy>
    <i name="e_fr_energy">    -53.05253345 </i>
    <i name="e_wo_entrp">    -53.05166564 </i>
    <i name="e_0_energy">    -53.05209955 </i>
   </energy>
  </scstep>
  <scstep>
   <time name="dav">   25.97   26.03</time>
   <time name="total">   28.56   28.63</time>
   <energy>
    <i name="e_fr_energy">    -53.05245855 </i>
    <i name="e_wo_entrp">    -53.05172401 </i>
    <i name="e_0_energy">    -53.05209128 </i>
   </energy>
  </scstep>
  <scstep>
   <time name="dav">   25.16   25.22</time>
   <time name="total">   27.76   27.83</time>
   <energy>
    <i name="e_fr_energy">    -53.05239065 </i>
    <i name="e_wo_entrp">    -53.05158762 </i>
    <i name="e_0_energy">    -53.05198913 </i>
   </energy>
  </scstep>
  <scstep>
   <time name="dav">   23.58   23.64</time>
   <time name="total">   26.17   26.23</time>
   <energy>
    <i name="e_fr_energy">    -53.05239854 </i>
    <i name="e_wo_entrp">    -53.05161875 </i>
    <i name="e_0_energy">    -53.05200864 </i>
   </energy>
  </scstep>
  <scstep>
   <time name="dav">   22.50   22.55</time>
   <time name="total">   25.09   25.15</time>
   <energy>
    <i name="e_fr_energy">    -53.05239974 </i>
    <i name="e_wo_entrp">    -53.05161284 </i>
    <i name="e_0_energy">    -53.05200629 </i>
   </energy>
  </scstep>
  <scstep>
   <time name="dav">   17.49   17.53</time>
   <time name="total">   20.10   20.16</time>
   <energy>
    <i name="e_fr_energy">    -53.05240149 </i>
    <i name="e_wo_entrp">    -53.05159932 </i>
    <i name="e_0_energy">    -53.05200041 </i>
   </energy>
  </scstep>
  <scstep>
   <time name="dav">   17.88   17.92</time>
   <time name="total">   18.86   18.91</time>
   <energy>
    <i name="alphaZ">    282.33243707 </i>
    <i name="ewald">  -7906.19842868 </i>
    <i name="hartreedc">  -3991.32776663 </i>
    <i name="XCdc">    381.09115827 </i>
    <i name="pawpsdc">  16162.98433387 </i>
    <i name="pawaedc"> -16454.00091026 </i>
    <i name="eentropy">     -0.00079396 </i>
    <i name="bandstr">   -547.47047647 </i>
    <i name="atom">  12019.53804467 </i>
    <i name="e_fr_energy">    -53.05240213 </i>
    <i name="e_wo_entrp">    -53.05160817 </i>
    <i name="e_0_energy">    -53.05200515 </i>
   </energy>
  </scstep>
  <structure>
   <crystal>
    <varray name="basis" >
     <v>       3.89499768       0.00000000       0.00000000 </v>
     <v>      -1.94749884       3.37316694      -0.00000000 </v>
     <v>      -0.00000000      -0.00000000      24.98668102 </v>
    </varray>
    <i name="volume">    328.28694355 </i>
    <varray name="rec_basis" >
     <v>       0.25673956       0.14822866       0.00000000 </v>
     <v>      -0.00000000       0.29645731       0.00000000 </v>
     <v>      -0.00000000       0.00000000       0.04002132 </v>
    </varray>
   </crystal>
   <varray name="positions" >
    <v>       0.00000000       0.00000000       0.26198700 </v>
    <v>      -0.00000000      -0.00000000       0.73801300 </v>
    <v>       0.33333334       0.66666669       0.10199125 </v>
    <v>       0.66666663       0.33333331       0.89800875 </v>
    <v>       0.33333334       0.66666669       0.19884398 </v>
    <v>       0.66666663       0.33333331       0.80115604 </v>
    <v>       0.33333334       0.66666669       0.94417634 </v>
    <v>       0.66666663       0.33333331       0.05582366 </v>
    <v>       0.33333334       0.66666669       0.68851280 </v>
    <v>       0.66666663       0.33333331       0.31148720 </v>
    <v>       0.33333334       0.66666669       0.42989589 </v>
    <v>       0.66666663       0.33333331       0.57010411 </v>
    <v>       0.33333334       0.66666669       0.57607804 </v>
    <v>       0.66666663       0.33333331       0.42392196 </v>
   </varray>
  </structure>
  <varray name="forces" >
   <v>      -0.00000000      -0.00000000       0.24252685 </v>
   <v>       0.00000000       0.00000000      -0.24252685 </v>
   <v>      -0.00000000      -0.00000000       0.08935789 </v>
   <v>       0.00000000       0.00000000      -0.08935789 </v>
   <v>       0.00000000       0.00000000      -0.24745394 </v>
   <v>      -0.00000000      -0.00000000       0.24745394 </v>
   <v>       0.00000000       0.00000000      -0.16007728 </v>
   <v>      -0.00000000      -0.00000000       0.16007728 </v>
   <v>      -0.00000000      -0.00000000       0.15642660 </v>
   <v>       0.00000000       0.00000000      -0.15642660 </v>
   <v>      -0.00000000      -0.00000000       0.19151391 </v>
   <v>       0.00000000       0.00000000      -0.19151391 </v>
   <v>       0.00000000       0.00000000      -0.02229584 </v>
   <v>      -0.00000000      -0.00000000       0.02229584 </v>
  </varray>
  <varray name="stress" >
   <v>      -1.80773375       0.00000000       0.00000000 </v>
   <v>       0.00000000      -1.80773375      -0.00000000 </v>
   <v>       0.00000000      -0.00000000      -8.66188755 </v>
  </varray>
  <energy>
   <i name="e_fr_energy">    -57.11584451 </i>
   <i name="e_wo_entrp">    -57.11544753 </i>
   <i name="e_0_energy">     -0.00079396 </i>
  </energy>
  <time name="totalsc">  269.39  270.16</time>
 </calculation>
 <calculation>
  <scstep>
   <time name="dav">   21.07   21.13</time>
   <time name="total">   23.69   23.76</time>
   <energy>
    <i name="alphaZ">    282.94865974 </i>
    <i name="ewald">  -7902.06473839 </i>
    <i name="hartreedc">  -4004.95519752 </i>
    <i name="XCdc">    381.38395120 </i>
    <i name="pawpsdc">  16163.24211883 </i>
    <i name="pawaedc"> -16454.25894796 </i>
    <i name="eentropy">     -0.00078344 </i>
    <i name="bandstr">   -538.85565310 </i>
    <i name="atom">  12019.53804467 </i>
    <i name="e_fr_energy">    -53.02254597 </i>
    <i name="e_wo_entrp">    -53.02176253 </i>
    <i name="e_0_energy">    -53.02215425 </i>
   </energy>
  </scstep>
  <scstep>
   <time name="dav">   26.12   26.20</time>
   <time name="total">   28.75   28.84</time>
   <energy>
    <i name="e_fr_energy">    -53.05317219 </i>
    <i name="e_wo_entrp">    -53.05262302 </i>
    <i name="e_0_energy">    -53.05289761 </i>
   </energy>
  </scstep>
  <scstep>
   <time name="dav">   24.64   24.72</time>
   <time name="total">   27.28   27.36</time>
   <energy>
    <i name="e_fr_energy">    -53.05184008 </i>
    <i name="e_wo_entrp">    -53.05108022 </i>
    <i name="e_0_energy">    -53.05146015 </i>
   </energy>
  </scstep>
  <scstep>
   <time name="dav">   27.14   27.22</time>
   <time name="total">   29.77   29.88</time>
   <energy>
    <i name="e_fr_energy">    -53.05150867 </i>
    <i name="e_wo_entrp">    -53.05092008 </i>
    <i name="e_0_energy">    -53.05121438 </i>
   </energy>
  </scstep>
  <scstep>
   <time name="dav">   25.57   25.65</time>
   <time name="total">   28.19   28.28</time>
   <energy>
    <i name="e_fr_energy">    -53.05128826 </i>
    <i name="e_wo_entrp">    -53.05062388 </i>
    <i name="e_0_energy">    -53.05095607 </i>
   </energy>
  </scstep>
  <scstep>
   <time name="dav">   25.73   25.81</time>
   <time name="total">   28.38   28.47</time>
   <energy>
    <i name="e_fr_energy">    -53.05130382 </i>
    <i name="e_wo_entrp">    -53.05065542 </i>
    <i name="e_0_energy">    -53.05097962 </i>
   </energy>
  </scstep>
  <scstep>
   <time name="dav">   23.55   23.62</time>
   <time name="total">   26.20   26.28</time>
   <energy>
    <i name="e_fr_energy">    -53.05130828 </i>
    <i name="e_wo_entrp">    -53.05065836 </i>
    <i name="e_0_energy">    -53.05098332 </i>
   </energy>
  </scstep>
  <scstep>
   <time name="dav">   23.84   23.92</time>
   <time name="total">   26.47   26.55</time>
   <energy>
    <i name="e_fr_energy">    -53.05131070 </i>
    <i name="e_wo_entrp">    -53.05063814 </i>
    <i name="e_0_energy">    -53.05097442 </i>
   </energy>
  </scstep>
  <scstep>
   <time name="dav">   21.60   21.66</time>
   <time name="total">   22.59   22.66</time>
   <energy>
    <i name="alphaZ">    282.94865974 </i>
    <i name="ewald">  -7902.06473839 </i>
    <i name="hartreedc">  -3998.75368315 </i>
    <i name="XCdc">    381.12351470 </i>
    <i name="pawpsdc">  16174.34573280 </i>
    <i name="pawaedc"> -16465.41198448 </i>
    <i name="eentropy">     -0.00066349 </i>
    <i name="bandstr">   -544.77619360 </i>
    <i name="atom">  12019.53804467 </i>
    <i name="e_fr_energy">    -53.05131121 </i>
    <i name="e_wo_entrp">    -53.05064771 </i>
    <i name="e_0_energy">    -53.05097946 </i>
   </energy>
  </scstep>
  <structure>
   <crystal>
    <varray name="basis" >
     <v>       3.89366494       0.00000000       0.00000000 </v>
     <v>      -1.94683247       3.37201275      -0.00000000 </v>
     <v>      -0.00000000      -0.00000000      24.94933431 </v>
    </varray>
    <i name="volume">    327.57198044 </i>
    <varray name="rec_basis" >
     <v>       0.25682744       0.14827939       0.00000000 </v>
     <v>      -0.00000000       0.29655878       0.00000000 </v>
     <v>      -0.00000000       0.00000000       0.04008123 </v>
    </varray>
   </crystal>
   <varray name="positions" >
    <v>       0.00000000       0.00000000       0.26263926 </v>
    <v>      -0.00000000      -0.00000000       0.73736074 </v>
    <v>       0.33333334       0.66666669       0.10244956 </v>
    <v>       0.66666663       0.33333331       0.89755044 </v>
    <v>       0.33333334       0.66666669       0.19931587 </v>
    <v>       0.66666663       0.33333331       0.80068416 </v>
    <v>       0.33333334       0.66666669       0.94385578 </v>
    <v>       0.66666663       0.33333331       0.05614422 </v>
    <v>       0.33333334       0.66666669       0.68774354 </v>
    <v>       0.66666663       0.33333331       0.31225646 </v>
    <v>       0.33333334       0.66666669       0.43031726 </v>
    <v>       0.66666663       0.33333331       0.56968274 </v>
    <v>       0.33333334       0.66666669       0.57484999 </v>
    <v>       0.66666663       0.33333331       0.42515001 </v>
   </varray>
  </structure>
  <varray name="forces" >
   <v>      -0.00000000      -0.00000000       0.24732121 </v>
   <v>       0.00000000       0.00000000      -0.24732121 </v>
   <v>      -0.00000000      -0.00000000       0.05925633 </v>
   <v>       0.00000000       0.00000000      -0.05925633 </v>
   <v>       0.00000000       0.00000000      -0.21731355 </v>
   <v>      -0.00000000      -0.00000000       0.21731355 </v>
   <v>       0.00000000       0.00000000      -0.15686803 </v>
   <v>      -0.00000000      -0.00000000       0.15686803 </v>
   <v>      -0.00000000      -0.00000000       0.17354848 </v>
   <v>       0.00000000       0.00000000      -0.17354848 </v>
   <v>      -0.00000000      -0.00000000       0.20018772 </v>
   <v>       0.00000000       0.00000000      -0.20018772 </v>
   <v>       0.00000000       0.00000000      -0.02839118 </v>
   <v>      -0.00000000      -0.00000000       0.02839118 </v>
  </varray>
  <varray name="stress" >
   <v>      -1.11297776      -0.00000000       0.00000000 </v>
   <v>       0.00000000      -1.11297776       0.00000000 </v>
   <v>       0.00000000      -0.00000000      -8.20356502 </v>
  </varray>
  <energy>
   <i name="e_fr_energy">    -57.12475717 </i>
   <i name="e_wo_entrp">    -57.12442543 </i>
   <i name="e_0_energy">     -0.00066349 </i>
  </energy>
  <time name="totalsc">  285.79  286.93</time>
 </calculation>
 <calculation>
  <scstep>
   <time name="dav">   20.99   21.05</time>
   <time name="total">   23.62   23.70</time>
   <energy>
    <i name="alphaZ">    284.18725500 </i>
    <i name="ewald">  -7886.39547479 </i>
    <i name="hartreedc">  -4033.39307851 </i>
    <i name="XCdc">    381.70769132 </i>
    <i name="pawpsdc">  16174.49840822 </i>
    <i name="pawaedc"> -16465.56583859 </i>
    <i name="eentropy">     -0.00067287 </i>
    <i name="bandstr">   -527.50965014 </i>
    <i name="atom">  12019.53804467 </i>
    <i name="e_fr_energy">    -52.93331570 </i>
    <i name="e_wo_entrp">    -52.93264282 </i>
    <i name="e_0_energy">    -52.93297926 </i>
   </energy>
  </scstep>
  <scstep>
   <time name="dav">   26.26   26.33</time>
   <time name="total">   29.10   29.41</time>
   <energy>
    <i name="e_fr_energy">    -53.05728972 </i>
    <i name="e_wo_entrp">    -53.05677008 </i>
    <i name="e_0_energy">    -53.05702990 </i>
   </energy>
  </scstep>
  <scstep>
   <time name="dav">   24.93   25.00</time>
   <time name="total">   27.60   27.68</time>
   <energy>
    <i name="e_fr_energy">    -53.05030846 </i>
    <i name="e_wo_entrp">    -53.04969882 </i>
    <i name="e_0_energy">    -53.05000364 </i>
   </energy>
  </scstep>
  <scstep>
   <time name="dav">   27.60   27.68</time>
   <time name="total">   30.26   30.35</time>
   <energy>
    <i name="e_fr_energy">    -53.04882200 </i>
    <i name="e_wo_entrp">    -53.04823091 </i>
    <i name="e_0_energy">    -53.04852646 </i>
   </energy>
  </scstep>
  <scstep>
   <time name="dav">   25.53   25.61</time>
   <time name="total">   28.22   28.32</time>
   <energy>
    <i name="e_fr_energy">    -53.04811739 </i>
    <i name="e_wo_entrp">    -53.04750314 </i>
    <i name="e_0_energy">    -53.04781026 </i>
   </energy>
  </scstep>
  <scstep>
   <time name="dav">   26.98   27.06</time>
   <time name="total">   29.63   29.72</time>
   <energy>
    <i name="e_fr_energy">    -53.04812832 </i>
    <i name="e_wo_entrp">    -53.04750584 </i>
    <i name="e_0_energy">    -53.04781708 </i>
   </energy>
  </scstep>
  <scstep>
   <time name="dav">   24.74   24.81</time>
   <time name="total">   27.37   27.47</time>
   <energy>
    <i name="e_fr_energy">    -53.04813374 </i>
    <i name="e_wo_entrp">    -53.04750865 </i>
    <i name="e_0_energy">    -53.04782119 </i>
   </energy>
  </scstep>
  <scstep>
   <time name="dav">   26.10   26.18</time>
   <time name="total">   28.70   28.80</time>
   <energy>
    <i name="e_fr_energy">    -53.04812994 </i>
    <i name="e_wo_entrp">    -53.04749545 </i>
    <i name="e_0_energy">    -53.04781269 </i>
   </energy>
  </scstep>
  <scstep>
   <time name="dav">   21.40   21.46</time>
   <time name="total">   24.00   24.08</time>
   <energy>
    <i name="e_fr_energy">    -53.04813100 </i>
    <i name="e_wo_entrp">    -53.04749745 </i>
    <i name="e_0_energy">    -53.04781422 </i>
   </energy>
  </scstep>
  <scstep>
   <time name="dav">   15.05   15.10</time>
   <time name="total">   16.04   16.09</time>
   <energy>
    <i name="alphaZ">    284.18725500 </i>
    <i name="ewald">  -7886.39547479 </i>
    <i name="hartreedc">  -4021.00889001 </i>
    <i name="XCdc">    381.19014519 </i>
    <i name="pawpsdc">  16196.00338419 </i>
    <i name="pawaedc"> -16487.16776920 </i>
    <i name="eentropy">     -0.00063353 </i>
    <i name="bandstr">   -539.39419262 </i>
    <i name="atom">  12019.53804467 </i>
    <i name="e_fr_energy">    -53.04813110 </i>
    <i name="e_wo_entrp">    -53.04749757 </i>
    <i name="e_0_energy">    -53.04781433 </i>
   </energy>
  </scstep>
  <structure>
   <crystal>
    <varray name="basis" >
     <v>       3.89099945       0.00000000       0.00000000 </v>
     <v>      -1.94549973       3.36970437      -0.00000000 </v>
     <v>      -0.00000000      -0.00000000      24.87464089 </v>
    </varray>
    <i name="volume">    326.14429817 </i>
    <varray name="rec_basis" >
     <v>       0.25700338       0.14838097       0.00000000 </v>
     <v>      -0.00000000       0.29676194       0.00000000 </v>
     <v>      -0.00000000       0.00000000       0.04020159 </v>
    </varray>
   </crystal>
   <varray name="positions" >
    <v>       0.00000000       0.00000000       0.26394573 </v>
    <v>      -0.00000000      -0.00000000       0.73605427 </v>
    <v>       0.33333334       0.66666669       0.10336753 </v>
    <v>       0.66666663       0.33333331       0.89663247 </v>
    <v>       0.33333334       0.66666669       0.20026105 </v>
    <v>       0.66666663       0.33333331       0.79973898 </v>
    <v>       0.33333334       0.66666669       0.94321369 </v>
    <v>       0.66666663       0.33333331       0.05678631 </v>
    <v>       0.33333334       0.66666669       0.68620273 </v>
    <v>       0.66666663       0.33333331       0.31379727 </v>
    <v>       0.33333334       0.66666669       0.43116128 </v>
    <v>       0.66666663       0.33333331       0.56883872 </v>
    <v>       0.33333334       0.66666669       0.57239021 </v>
    <v>       0.66666663       0.33333331       0.42760979 </v>
   </varray>
  </structure>
  <varray name="forces" >
   <v>      -0.00000000      -0.00000000       0.25358555 </v>
   <v>       0.00000000       0.00000000      -0.25358555 </v>
   <v>       0.00000000       0.00000000      -0.00384435 </v>
   <v>      -0.00000000      -0.00000000       0.00384435 </v>
   <v>       0.00000000       0.00000000      -0.15270349 </v>
   <v>      -0.00000000      -0.00000000       0.15270349 </v>
   <v>       0.00000000       0.00000000      -0.15202442 </v>
   <v>      -0.00000000      -0.00000000       0.15202442 </v>
   <v>      -0.00000000      -0.00000000       0.20841759 </v>
   <v>       0.00000000       0.00000000      -0.20841759 </v>
   <v>      -0.00000000      -0.00000000       0.21361362 </v>
   <v>       0.00000000       0.00000000      -0.21361362 </v>
   <v>       0.00000000       0.00000000      -0.04568856 </v>
   <v>      -0.00000000      -0.00000000       0.04568856 </v>
  </varray>
  <varray name="stress" >
   <v>       0.10622743       0.00000000       0.00000000 </v>
   <v>      -0.00000000       0.10622743      -0.00000000 </v>
   <v>       0.00000000      -0.00000000      -7.31655202 </v>
  </varray>
  <energy>
   <i name="e_fr_energy">    -57.14201705 </i>
   <i name="e_wo_entrp">    -57.14170028 </i>
   <i name="e_0_energy">     -0.00063353 </i>
  </energy>
  <time name="totalsc">  308.50  310.16</time>
 </calculation>
 <calculation>
  <scstep>
   <time name="dav">   20.69   20.75</time>
   <time name="total">   23.29   23.36</time>
   <energy>
    <i name="alphaZ">    286.68931308 </i>
    <i name="ewald">  -7825.42315868 </i>
    <i name="hartreedc">  -4119.59308050 </i>
    <i name="XCdc">    382.34706429 </i>
    <i name="pawpsdc">  16196.26414686 </i>
    <i name="pawaedc"> -16487.42776739 </i>
    <i name="eentropy">     -0.00052392 </i>
    <i name="bandstr">   -504.94324458 </i>
    <i name="atom">  12019.53804467 </i>
    <i name="e_fr_energy">    -52.54920616 </i>
    <i name="e_wo_entrp">    -52.54868224 </i>
    <i name="e_0_energy">    -52.54894420 </i>
   </energy>
  </scstep>
  <scstep>
   <time name="dav">   25.94   26.02</time>
   <time name="total">   28.58   28.67</time>
   <energy>
    <i name="e_fr_energy">    -53.05593357 </i>
    <i name="e_wo_entrp">    -53.05552664 </i>
    <i name="e_0_energy">    -53.05573011 </i>
   </energy>
  </scstep>
  <scstep>
   <time name="dav">   25.16   25.23</time>
   <time name="total">   27.80   27.88</time>
   <energy>
    <i name="e_fr_energy">    -53.04595428 </i>
    <i name="e_wo_entrp">    -53.04535548 </i>
    <i name="e_0_energy">    -53.04565488 </i>
   </energy>
  </scstep>
  <scstep>
   <time name="dav">   25.14   25.21</time>
   <time name="total">   27.76   27.85</time>
   <energy>
    <i name="e_fr_energy">    -53.04172870 </i>
    <i name="e_wo_entrp">    -53.04120431 </i>
    <i name="e_0_energy">    -53.04146650 </i>
   </energy>
  </scstep>
  <scstep>
   <time name="dav">   26.71   26.79</time>
   <time name="total">   29.34   29.87</time>
   <energy>
    <i name="e_fr_energy">    -53.03964513 </i>
    <i name="e_wo_entrp">    -53.03910952 </i>
    <i name="e_0_energy">    -53.03937733 </i>
   </energy>
  </scstep>
  <scstep>
   <time name="dav">   27.12   27.20</time>
   <time name="total">   29.77   29.86</time>
   <energy>
    <i name="e_fr_energy">    -53.03957155 </i>
    <i name="e_wo_entrp">    -53.03903987 </i>
    <i name="e_0_energy">    -53.03930571 </i>
   </energy>
  </scstep>
  <scstep>
   <time name="dav">   26.28   26.35</time>
   <time name="total">   28.93   29.05</time>
   <energy>
    <i name="e_fr_energy">    -53.03961109 </i>
    <i name="e_wo_entrp">    -53.03907115 </i>
    <i name="e_0_energy">    -53.03934112 </i>
   </energy>
  </scstep>
  <scstep>
   <time name="dav">   24.55   24.63</time>
   <time name="total">   27.21   27.29</time>
   <energy>
    <i name="e_fr_energy">    -53.03961581 </i>
    <i name="e_wo_entrp">    -53.03907277 </i>
    <i name="e_0_energy">    -53.03934429 </i>
   </energy>
  </scstep>
  <scstep>
   <time name="dav">   23.73   23.80</time>
   <time name="total">   26.39   26.47</time>
   <energy>
    <i name="e_fr_energy">    -53.03962174 </i>
    <i name="e_wo_entrp">    -53.03907721 </i>
    <i name="e_0_energy">    -53.03934947 </i>
   </energy>
  </scstep>
  <scstep>
   <time name="dav">   22.94   23.00</time>
   <time name="total">   25.58   25.65</time>
   <energy>
    <i name="e_fr_energy">    -53.03962018 </i>
    <i name="e_wo_entrp">    -53.03907488 </i>
    <i name="e_0_energy">    -53.03934753 </i>
   </energy>
  </scstep>
  <scstep>
   <time name="dav">   17.04   17.09</time>
   <time name="total">   18.03   18.09</time>
   <energy>
    <i name="alphaZ">    286.68931308 </i>
    <i name="ewald">  -7825.42315868 </i>
    <i name="hartreedc">  -4095.17463441 </i>
    <i name="XCdc">    381.33157129 </i>
    <i name="pawpsdc">  16240.89825152 </i>
    <i name="pawaedc"> -16532.24000411 </i>
    <i name="eentropy">     -0.00054564 </i>
    <i name="bandstr">   -528.65845766 </i>
    <i name="atom">  12019.53804467 </i>
    <i name="e_fr_energy">    -53.03961993 </i>
    <i name="e_wo_entrp">    -53.03907429 </i>
    <i name="e_0_energy">    -53.03934711 </i>
   </energy>
  </scstep>
  <structure>
   <crystal>
    <varray name="basis" >
     <v>       3.88566848       0.00000000       0.00000000 </v>
     <v>      -1.94283424       3.36508762      -0.00000000 </v>
     <v>      -0.00000000      -0.00000000      24.72525405 </v>
    </varray>
    <i name="volume">    323.29789986 </i>
    <varray name="rec_basis" >
     <v>       0.25735597       0.14858454       0.00000000 </v>
     <v>      -0.00000000       0.29716908       0.00000000 </v>
     <v>      -0.00000000       0.00000000       0.04044448 </v>
    </varray>
   </crystal>
   <varray name="positions" >
    <v>       0.00000000       0.00000000       0.26656652 </v>
    <v>      -0.00000000      -0.00000000       0.73343348 </v>
    <v>       0.33333334       0.66666669       0.10520900 </v>
    <v>       0.66666663       0.33333331       0.89479100 </v>
    <v>       0.33333334       0.66666669       0.20215708 </v>
    <v>       0.66666663       0.33333331       0.79784295 </v>
    <v>       0.33333334       0.66666669       0.94192565 </v>
    <v>       0.66666663       0.33333331       0.05807435 </v>
    <v>       0.33333334       0.66666669       0.68311186 </v>
    <v>       0.66666663       0.33333331       0.31688814 </v>
    <v>       0.33333334       0.66666669       0.43285437 </v>
    <v>       0.66666663       0.33333331       0.56714563 </v>
    <v>       0.33333334       0.66666669       0.56745588 </v>
    <v>       0.66666663       0.33333331       0.43254412 </v>
   </varray>
  </structure>
  <varray name="forces" >
   <v>      -0.00000000      -0.00000000       0.26195256 </v>
   <v>       0.00000000       0.00000000      -0.26195256 </v>
   <v>       0.00000000       0.00000000      -0.13921124 </v>
   <v>      -0.00000000      -0.00000000       0.13921124 </v>
   <v>       0.00000000       0.00000000      -0.01445903 </v>
   <v>      -0.00000000      -0.00000000       0.01445903 </v>
   <v>       0.00000000       0.00000000      -0.14531425 </v>
   <v>      -0.00000000      -0.00000000       0.14531425 </v>
   <v>      -0.00000000      -0.00000000       0.27520737 </v>
   <v>       0.00000000       0.00000000      -0.27520737 </v>
   <v>      -0.00000000      -0.00000000       0.21997046 </v>
   <v>       0.00000000       0.00000000      -0.21997046 </v>
   <v>       0.00000000       0.00000000      -0.09830354 </v>
   <v>      -0.00000000      -0.00000000       0.09830354 </v>
  </varray>
  <varray name="stress" >
   <v>       2.64484843       0.00000000      -0.00000000 </v>
   <v>       0.00000000       2.64484843       0.00000000 </v>
   <v>       0.00000000      -0.00000000      -5.20929849 </v>
  </varray>
  <energy>
   <i name="e_fr_energy">    -57.17587829 </i>
   <i name="e_wo_entrp">    -57.17560547 </i>
   <i name="e_0_energy">     -0.00054564 </i>
  </energy>
  <time name="totalsc">  337.33  338.92</time>
 </calculation>
 <calculation>
  <scstep>
   <time name="dav">   21.98   22.03</time>
   <time name="total">   24.64   24.71</time>
   <energy>
    <i name="alphaZ">    291.79509152 </i>
    <i name="ewald">  -7584.79335757 </i>
    <i name="hartreedc">  -4408.10612538 </i>
    <i name="XCdc">    383.57770573 </i>
    <i name="pawpsdc">  16241.15367017 </i>
    <i name="pawaedc"> -16532.49451982 </i>
    <i name="eentropy">     -0.00051134 </i>
    <i name="bandstr">   -460.35455141 </i>
    <i name="atom">  12019.53804467 </i>
    <i name="e_fr_energy">    -49.68455343 </i>
    <i name="e_wo_entrp">    -49.68404209 </i>
    <i name="e_0_energy">    -49.68429776 </i>
   </energy>
  </scstep>
  <scstep>
   <time name="dav">   25.34   25.40</time>
   <time name="total">   27.99   28.06</time>
   <energy>
    <i name="e_fr_energy">    -53.17051748 </i>
    <i name="e_wo_entrp">    -53.17047377 </i>
    <i name="e_0_energy">    -53.17049562 </i>
   </energy>
  </scstep>
  <scstep>
   <time name="dav">   25.18   25.24</time>
   <time name="total">   27.81   27.88</time>
   <energy>
    <i name="e_fr_energy">    -53.04745434 </i>
    <i name="e_wo_entrp">    -53.04687460 </i>
    <i name="e_0_energy">    -53.04716447 </i>
   </energy>
  </scstep>
  <scstep>
   <time name="dav">   24.23   24.29</time>
   <time name="total">   26.85   26.93</time>
   <energy>
    <i name="e_fr_energy">    -53.03741598 </i>
    <i name="e_wo_entrp">    -53.03685122 </i>
    <i name="e_0_energy">    -53.03713360 </i>
   </energy>
  </scstep>
  <scstep>
   <time name="dav">   28.01   28.08</time>
   <time name="total">   30.63   30.71</time>
   <energy>
    <i name="e_fr_energy">    -53.02459956 </i>
    <i name="e_wo_entrp">    -53.02409475 </i>
    <i name="e_0_energy">    -53.02434715 </i>
   </energy>
  </scstep>
  <scstep>
   <time name="dav">   28.10   28.17</time>
   <time name="total">   30.71   30.79</time>
   <energy>
    <i name="e_fr_energy">    -53.02022323 </i>
    <i name="e_wo_entrp">    -53.01968617 </i>
    <i name="e_0_energy">    -53.01995470 </i>
   </energy>
  </scstep>
  <scstep>
   <time name="dav">   23.23   23.29</time>
   <time name="total">   25.84   25.93</time>
   <energy>
    <i name="e_fr_energy">    -53.02059219 </i>
    <i name="e_wo_entrp">    -53.02011346 </i>
    <i name="e_0_energy">    -53.02035283 </i>
   </energy>
  </scstep>
  <scstep>
   <time name="dav">   24.39   24.45</time>
   <time name="total">   27.02   27.08</time>
   <energy>
    <i name="e_fr_energy">    -53.02059515 </i>
    <i name="e_wo_entrp">    -53.02007712 </i>
    <i name="e_0_energy">    -53.02033614 </i>
   </energy>
  </scstep>
  <scstep>
   <time name="dav">   24.83   24.89</time>
   <time name="total">   27.46   27.53</time>
   <energy>
    <i name="e_fr_energy">    -53.02060467 </i>
    <i name="e_wo_entrp">    -53.02008810 </i>
    <i name="e_0_energy">    -53.02034638 </i>
   </energy>
  </scstep>
  <scstep>
   <time name="dav">   24.61   24.67</time>
   <time name="total">   27.25   27.33</time>
   <energy>
    <i name="e_fr_energy">    -53.02060363 </i>
    <i name="e_wo_entrp">    -53.02007646 </i>
    <i name="e_0_energy">    -53.02034005 </i>
   </energy>
  </scstep>
  <scstep>
   <time name="dav">   21.18   21.23</time>
   <time name="total">   23.83   23.90</time>
   <energy>
    <i name="e_fr_energy">    -53.02060322 </i>
    <i name="e_wo_entrp">    -53.02007597 </i>
    <i name="e_0_energy">    -53.02033959 </i>
   </energy>
  </scstep>
  <scstep>
   <time name="dav">   16.35   16.39</time>
   <time name="total">   17.35   17.39</time>
   <energy>
    <i name="alphaZ">    291.79509152 </i>
    <i name="ewald">  -7584.79335757 </i>
    <i name="hartreedc">  -4361.93281698 </i>
    <i name="XCdc">    381.67927774 </i>
    <i name="pawpsdc">  16341.47755534 </i>
    <i name="pawaedc"> -16633.16851663 </i>
    <i name="eentropy">     -0.00052703 </i>
    <i name="bandstr">   -507.61535371 </i>
    <i name="atom">  12019.53804467 </i>
    <i name="e_fr_energy">    -53.02060264 </i>
    <i name="e_wo_entrp">    -53.02007561 </i>
    <i name="e_0_energy">    -53.02033913 </i>
   </energy>
  </scstep>
  <structure>
   <crystal>
    <varray name="basis" >
     <v>       3.87500654       0.00000000       0.00000000 </v>
     <v>      -1.93750327       3.35585411      -0.00000000 </v>
     <v>      -0.00000000      -0.00000000      24.42648037 </v>
    </varray>
    <i name="volume">    317.64089090 </i>
    <varray name="rec_basis" >
     <v>       0.25806408       0.14899337       0.00000000 </v>
     <v>      -0.00000000       0.29798673       0.00000000 </v>
     <v>      -0.00000000      -0.00000000       0.04093918 </v>
    </varray>
   </crystal>
   <varray name="positions" >
    <v>       0.00000000       0.00000000       0.27183977 </v>
    <v>      -0.00000000      -0.00000000       0.72816023 </v>
    <v>       0.33333334       0.66666669       0.10891419 </v>
    <v>       0.66666663       0.33333331       0.89108581 </v>
    <v>       0.33333334       0.66666669       0.20597206 </v>
    <v>       0.66666663       0.33333331       0.79402797 </v>
    <v>       0.33333334       0.66666669       0.93933401 </v>
    <v>       0.66666663       0.33333331       0.06066599 </v>
    <v>       0.33333334       0.66666669       0.67689276 </v>
    <v>       0.66666663       0.33333331       0.32310724 </v>
    <v>       0.33333334       0.66666669       0.43626101 </v>
    <v>       0.66666663       0.33333331       0.56373899 </v>
    <v>       0.33333334       0.66666669       0.55752759 </v>
    <v>       0.66666663       0.33333331       0.44247241 </v>
   </varray>
  </structure>
  <varray name="forces" >
   <v>      -0.00000000      -0.00000000       0.25673284 </v>
   <v>       0.00000000       0.00000000      -0.25673284 </v>
   <v>       0.00000000       0.00000000      -0.44458463 </v>
   <v>      -0.00000000      -0.00000000       0.44458463 </v>
   <v>      -0.00000000      -0.00000000       0.29914118 </v>
   <v>       0.00000000       0.00000000      -0.29914118 </v>
   <v>       0.00000000       0.00000000      -0.14347904 </v>
   <v>      -0.00000000      -0.00000000       0.14347904 </v>
   <v>      -0.00000000      -0.00000000       0.39893096 </v>
   <v>       0.00000000       0.00000000      -0.39893096 </v>
   <v>      -0.00000000      -0.00000000       0.14677110 </v>
   <v>       0.00000000       0.00000000      -0.14677110 </v>
   <v>       0.00000000       0.00000000      -0.23959187 </v>
   <v>      -0.00000000      -0.00000000       0.23959187 </v>
  </varray>
  <varray name="stress" >
   <v>       7.88710876      -0.00000000       0.00000000 </v>
   <v>      -0.00000000       7.88710876      -0.00000000 </v>
   <v>       0.00000000       0.00000000       1.41997596 </v>
  </varray>
  <energy>
   <i name="e_fr_energy">    -57.24618282 </i>
   <i name="e_wo_entrp">    -57.24591931 </i>
   <i name="e_0_energy">     -0.00052703 </i>
  </energy>
  <time name="totalsc">  361.79  363.42</time>
 </calculation>
 <calculation>
  <scstep>
   <time name="dav">   22.22   22.27</time>
   <time name="total">   24.89   25.17</time>
   <energy>
    <i name="alphaZ">    302.43166538 </i>
    <i name="ewald">  -6632.97364346 </i>
    <i name="hartreedc">  -5434.19313151 </i>
    <i name="XCdc">    386.06955955 </i>
    <i name="pawpsdc">  16342.40539613 </i>
    <i name="pawaedc"> -16634.08988120 </i>
    <i name="eentropy">     -0.00579072 </i>
    <i name="bandstr">   -352.49711118 </i>
    <i name="atom">  12019.53804467 </i>
    <i name="e_fr_energy">     -3.31489235 </i>
    <i name="e_wo_entrp">     -3.30910162 </i>
    <i name="e_0_energy">     -3.31199699 </i>
   </energy>
  </scstep>
  <scstep>
   <time name="dav">   22.74   22.79</time>
   <time name="total">   25.39   26.09</time>
   <energy>
    <i name="e_fr_energy">    -54.85910857 </i>
    <i name="e_wo_entrp">    -54.85910857 </i>
    <i name="e_0_energy">    -54.85910857 </i>
   </energy>
  </scstep>
  <scstep>
   <time name="dav">   24.46   24.52</time>
   <time name="total">   27.11   27.18</time>
   <energy>
    <i name="e_fr_energy">    -51.99509531 </i>
    <i name="e_wo_entrp">    -51.99509531 </i>
    <i name="e_0_energy">    -51.99509531 </i>
   </energy>
  </scstep>
  <scstep>
   <time name="dav">   24.97   25.03</time>
   <time name="total">   27.63   27.70</time>
   <energy>
    <i name="e_fr_energy">    -52.55121349 </i>
    <i name="e_wo_entrp">    -52.55121349 </i>
    <i name="e_0_energy">    -52.55121349 </i>
   </energy>
  </scstep>
  <scstep>
   <time name="dav">   25.35   25.41</time>
   <time name="total">   28.05   28.14</time>
   <energy>
    <i name="e_fr_energy">    -52.41436293 </i>
    <i name="e_wo_entrp">    -52.41436293 </i>
    <i name="e_0_energy">    -52.41436293 </i>
   </energy>
  </scstep>
  <scstep>
   <time name="dav">   27.47   27.54</time>
   <time name="total">   30.15   30.22</time>
   <energy>
    <i name="e_fr_energy">    -52.34996160 </i>
    <i name="e_wo_entrp">    -52.34996160 </i>
    <i name="e_0_energy">    -52.34996160 </i>
   </energy>
  </scstep>
  <scstep>
   <time name="dav">   28.03   28.10</time>
   <time name="total">   30.70   30.78</time>
   <energy>
    <i name="e_fr_energy">    -52.29612804 </i>
    <i name="e_wo_entrp">    -52.29612768 </i>
    <i name="e_0_energy">    -52.29612786 </i>
   </energy>
  </scstep>
  <scstep>
   <time name="dav">   26.99   27.06</time>
   <time name="total">   29.62   29.71</time>
   <energy>
    <i name="e_fr_energy">    -52.29179556 </i>
    <i name="e_wo_entrp">    -52.29179504 </i>
    <i name="e_0_energy">    -52.29179530 </i>
   </energy>
  </scstep>
  <scstep>
   <time name="dav">   23.06   23.12</time>
   <time name="total">   25.69   25.75</time>
   <energy>
    <i name="e_fr_energy">    -52.29048449 </i>
    <i name="e_wo_entrp">    -52.29048444 </i>
    <i name="e_0_energy">    -52.29048447 </i>
   </energy>
  </scstep>
  <scstep>
   <time name="dav">   24.62   24.68</time>
   <time name="total">   27.23   27.30</time>
   <energy>
    <i name="e_fr_energy">    -52.29063752 </i>
    <i name="e_wo_entrp">    -52.29063748 </i>
    <i name="e_0_energy">    -52.29063750 </i>
   </energy>
  </scstep>
  <scstep>
   <time name="dav">   23.72   23.78</time>
   <time name="total">   26.33   26.86</time>
   <energy>
    <i name="e_fr_energy">    -52.29033548 </i>
    <i name="e_wo_entrp">    -52.29033535 </i>
    <i name="e_0_energy">    -52.29033542 </i>
   </energy>
  </scstep>
  <scstep>
   <time name="dav">   27.80   27.87</time>
   <time name="total">   30.41   31.91</time>
   <energy>
    <i name="e_fr_energy">    -52.29033646 </i>
    <i name="e_wo_entrp">    -52.29033622 </i>
    <i name="e_0_energy">    -52.29033634 </i>
   </energy>
  </scstep>
  <scstep>
   <time name="dav">   23.06   23.12</time>
   <time name="total">   25.69   25.76</time>
   <energy>
    <i name="e_fr_energy">    -52.29033232 </i>
    <i name="e_wo_entrp">    -52.29033214 </i>
    <i name="e_0_energy">    -52.29033223 </i>
   </energy>
  </scstep>
  <scstep>
   <time name="dav">   25.62   25.68</time>
   <time name="total">   28.30   28.38</time>
   <energy>
    <i name="e_fr_energy">    -52.29033310 </i>
    <i name="e_wo_entrp">    -52.29033294 </i>
    <i name="e_0_energy">    -52.29033302 </i>
   </energy>
  </scstep>
  <scstep>
   <time name="dav">   24.74   24.81</time>
   <time name="total">   27.41   27.48</time>
   <energy>
    <i name="e_fr_energy">    -52.29033083 </i>
    <i name="e_wo_entrp">    -52.29033067 </i>
    <i name="e_0_energy">    -52.29033075 </i>
   </energy>
  </scstep>
  <scstep>
   <time name="dav">   23.11   23.17</time>
   <time name="total">   24.11   24.17</time>
   <energy>
    <i name="alphaZ">    302.43166538 </i>
    <i name="ewald">  -6632.97364346 </i>
    <i name="hartreedc">  -5357.35750025 </i>
    <i name="XCdc">    382.98431846 </i>
    <i name="pawpsdc">  16813.87738749 </i>
    <i name="pawaedc"> -17107.76511437 </i>
    <i name="eentropy">     -0.00000016 </i>
    <i name="bandstr">   -473.02548869 </i>
    <i name="atom">  12019.53804467 </i>
    <i name="e_fr_energy">    -52.29033093 </i>
    <i name="e_wo_entrp">    -52.29033076 </i>
    <i name="e_0_energy">    -52.29033085 </i>
   </energy>
  </scstep>
  <structure>
   <crystal>
    <varray name="basis" >
     <v>       3.85368266       0.00000000       0.00000000 </v>
     <v>      -1.92684133       3.33738708       0.00000000 </v>
     <v>      -0.00000000      -0.00000000      23.82893301 </v>
    </varray>
    <i name="volume">    306.46940596 </i>
    <varray name="rec_basis" >
     <v>       0.25949205       0.14981780       0.00000000 </v>
     <v>      -0.00000000       0.29963561       0.00000000 </v>
     <v>      -0.00000000      -0.00000000       0.04196579 </v>
    </varray>
   </crystal>
   <varray name="positions" >
    <v>       0.00000000       0.00000000       0.28251526 </v>
    <v>      -0.00000000      -0.00000000       0.71748474 </v>
    <v>       0.33333334       0.66666669       0.11641520 </v>
    <v>       0.66666663       0.33333331       0.88358480 </v>
    <v>       0.33333334       0.66666669       0.21369535 </v>
    <v>       0.66666663       0.33333331       0.78630468 </v>
    <v>       0.33333334       0.66666669       0.93408733 </v>
    <v>       0.66666663       0.33333331       0.06591267 </v>
    <v>       0.33333334       0.66666669       0.66430242 </v>
    <v>       0.66666663       0.33333331       0.33569758 </v>
    <v>       0.33333334       0.66666669       0.44315762 </v>
    <v>       0.66666663       0.33333331       0.55684238 </v>
    <v>       0.33333334       0.66666669       0.53742814 </v>
    <v>       0.66666663       0.33333331       0.46257186 </v>
   </varray>
  </structure>
  <varray name="forces" >
   <v>      -0.00000000      -0.00000000       0.21125277 </v>
   <v>       0.00000000       0.00000000      -0.21125277 </v>
   <v>       0.00000000       0.00000000      -1.14948778 </v>
   <v>      -0.00000000      -0.00000000       1.14948778 </v>
   <v>      -0.00000000      -0.00000000       1.02025642 </v>
   <v>       0.00000000       0.00000000      -1.02025642 </v>
   <v>       0.00000000       0.00000000      -0.15850998 </v>
   <v>      -0.00000000      -0.00000000       0.15850998 </v>
   <v>      -0.00000000      -0.00000000       0.66476190 </v>
   <v>       0.00000000       0.00000000      -0.66476190 </v>
   <v>       0.00000000       0.00000000      -1.96641232 </v>
   <v>      -0.00000000      -0.00000000       1.96641232 </v>
   <v>      -0.00000000      -0.00000000       1.30286578 </v>
   <v>       0.00000000       0.00000000      -1.30286578 </v>
  </varray>
  <varray name="stress" >
   <v>      23.42778132       0.00000000      -0.00000000 </v>
   <v>       0.00000000      23.42778132      -0.00000000 </v>
   <v>      -0.00000000      -0.00000000      67.42483807 </v>
  </varray>
  <energy>
   <i name="e_fr_energy">    -56.71316807 </i>
   <i name="e_wo_entrp">    -56.71316799 </i>
   <i name="e_0_energy">     -0.00000016 </i>
  </energy>
  <time name="totalsc">  483.27  487.97</time>
 </calculation>
 <calculation>
  <scstep>
   <time name="dav">   22.27   22.33</time>
   <time name="total">   24.91   24.97</time>
   <energy>
    <i name="alphaZ">    292.31190950 </i>
    <i name="ewald">  -7570.56604933 </i>
    <i name="hartreedc">  -4305.94412614 </i>
    <i name="XCdc">    378.57215888 </i>
    <i name="pawpsdc">  16813.26993604 </i>
    <i name="pawaedc"> -17107.15816942 </i>
    <i name="eentropy">     -0.00205477 </i>
    <i name="bandstr">   -527.26154491 </i>
    <i name="atom">  12019.53804467 </i>
    <i name="e_fr_energy">     -7.23989548 </i>
    <i name="e_wo_entrp">     -7.23784071 </i>
    <i name="e_0_energy">     -7.23886810 </i>
   </energy>
  </scstep>
  <scstep>
   <time name="dav">   22.10   22.15</time>
   <time name="total">   24.74   24.82</time>
   <energy>
    <i name="e_fr_energy">    -56.40933197 </i>
    <i name="e_wo_entrp">    -56.40511799 </i>
    <i name="e_0_energy">    -56.40722498 </i>
   </energy>
  </scstep>
  <scstep>
   <time name="dav">   25.25   25.31</time>
   <time name="total">   27.89   27.97</time>
   <energy>
    <i name="e_fr_energy">    -52.65358609 </i>
    <i name="e_wo_entrp">    -52.65358609 </i>
    <i name="e_0_energy">    -52.65358609 </i>
   </energy>
  </scstep>
  <scstep>
   <time name="dav">   26.04   26.10</time>
   <time name="total">   28.68   28.76</time>
   <energy>
    <i name="e_fr_energy">    -53.43872318 </i>
    <i name="e_wo_entrp">    -53.43872318 </i>
    <i name="e_0_energy">    -53.43872318 </i>
   </energy>
  </scstep>
  <scstep>
   <time name="dav">   25.31   25.38</time>
   <time name="total">   27.99   28.08</time>
   <energy>
    <i name="e_fr_energy">    -53.33695508 </i>
    <i name="e_wo_entrp">    -53.33692049 </i>
    <i name="e_0_energy">    -53.33693778 </i>
   </energy>
  </scstep>
  <scstep>
   <time name="dav">   25.42   25.48</time>
   <time name="total">   28.08   28.15</time>
   <energy>
    <i name="e_fr_energy">    -53.12167174 </i>
    <i name="e_wo_entrp">    -53.12111563 </i>
    <i name="e_0_energy">    -53.12139368 </i>
   </energy>
  </scstep>
  <scstep>
   <time name="dav">   26.56   26.62</time>
   <time name="total">   29.21   29.29</time>
   <energy>
    <i name="e_fr_energy">    -53.03477100 </i>
    <i name="e_wo_entrp">    -53.03419436 </i>
    <i name="e_0_energy">    -53.03448268 </i>
   </energy>
  </scstep>
  <scstep>
   <time name="dav">   27.21   27.28</time>
   <time name="total">   29.83   29.91</time>
   <energy>
    <i name="e_fr_energy">    -53.02451469 </i>
    <i name="e_wo_entrp">    -53.02393859 </i>
    <i name="e_0_energy">    -53.02422664 </i>
   </energy>
  </scstep>
  <scstep>
   <time name="dav">   27.58   27.65</time>
   <time name="total">   30.19   30.48</time>
   <energy>
    <i name="e_fr_energy">    -53.01819425 </i>
    <i name="e_wo_entrp">    -53.01762535 </i>
    <i name="e_0_energy">    -53.01790980 </i>
   </energy>
  </scstep>
  <scstep>
   <time name="dav">   26.65   26.72</time>
   <time name="total">   29.27   29.36</time>
   <energy>
    <i name="e_fr_energy">    -53.01382961 </i>
    <i name="e_wo_entrp">    -53.01332260 </i>
    <i name="e_0_energy">    -53.01357610 </i>
   </energy>
  </scstep>
  <scstep>
   <time name="dav">   21.29   21.34</time>
   <time name="total">   23.90   23.96</time>
   <energy>
    <i name="e_fr_energy">    -53.01461714 </i>
    <i name="e_wo_entrp">    -53.01410571 </i>
    <i name="e_0_energy">    -53.01436143 </i>
   </energy>
  </scstep>
  <scstep>
   <time name="dav">   23.49   23.54</time>
   <time name="total">   26.11   26.19</time>
   <energy>
    <i name="e_fr_energy">    -53.01461505 </i>
    <i name="e_wo_entrp">    -53.01410692 </i>
    <i name="e_0_energy">    -53.01436098 </i>
   </energy>
  </scstep>
  <scstep>
   <time name="dav">   25.78   25.86</time>
   <time name="total">   28.41   29.74</time>
   <energy>
    <i name="e_fr_energy">    -53.01462540 </i>
    <i name="e_wo_entrp">    -53.01408842 </i>
    <i name="e_0_energy">    -53.01435691 </i>
   </energy>
  </scstep>
  <scstep>
   <time name="dav">   25.91   25.98</time>
   <time name="total">   28.56   28.65</time>
   <energy>
    <i name="e_fr_energy">    -53.01459404 </i>
    <i name="e_wo_entrp">    -53.01407982 </i>
    <i name="e_0_energy">    -53.01433693 </i>
   </energy>
  </scstep>
  <scstep>
   <time name="dav">   23.49   23.56</time>
   <time name="total">   26.14   26.22</time>
   <energy>
    <i name="e_fr_energy">    -53.01459350 </i>
    <i name="e_wo_entrp">    -53.01407848 </i>
    <i name="e_0_energy">    -53.01433599 </i>
   </energy>
  </scstep>
  <scstep>
   <time name="dav">   19.64   19.70</time>
   <time name="total">   20.64   20.73</time>
   <energy>
    <i name="alphaZ">    292.31190950 </i>
    <i name="ewald">  -7570.56604933 </i>
    <i name="hartreedc">  -4378.64596101 </i>
    <i name="XCdc">    381.72600499 </i>
    <i name="pawpsdc">  16356.96261297 </i>
    <i name="pawaedc"> -16648.67923186 </i>
    <i name="eentropy">     -0.00051805 </i>
    <i name="bandstr">   -505.66140631 </i>
    <i name="atom">  12019.53804467 </i>
    <i name="e_fr_energy">    -53.01459443 </i>
    <i name="e_wo_entrp">    -53.01407637 </i>
    <i name="e_0_energy">    -53.01433540 </i>
   </energy>
  </scstep>
  <structure>
   <crystal>
    <varray name="basis" >
     <v>       3.87394315       0.00000000       0.00000000 </v>
     <v>      -1.93697158       3.35493318      -0.00000000 </v>
     <v>      -0.00000000      -0.00000000      24.39668162 </v>
    </varray>
    <i name="volume">    317.07929037 </i>
    <varray name="rec_basis" >
     <v>       0.25813492       0.14903426       0.00000000 </v>
     <v>      -0.00000000       0.29806853       0.00000000 </v>
     <v>      -0.00000000      -0.00000000       0.04098918 </v>
    </varray>
   </crystal>
   <varray name="positions" >
    <v>      -0.00000000      -0.00000000       0.27211778 </v>
    <v>       0.00000000       0.00000000       0.72788222 </v>
    <v>       0.33333334       0.66666669       0.10910953 </v>
    <v>       0.66666663       0.33333331       0.89089047 </v>
    <v>       0.33333334       0.66666669       0.20617320 </v>
    <v>       0.66666663       0.33333331       0.79382683 </v>
    <v>       0.33333334       0.66666669       0.93919737 </v>
    <v>       0.66666663       0.33333331       0.06080263 </v>
    <v>       0.33333334       0.66666669       0.67656488 </v>
    <v>       0.66666663       0.33333331       0.32343512 </v>
    <v>       0.33333334       0.66666669       0.43644061 </v>
    <v>       0.66666663       0.33333331       0.56355939 </v>
    <v>       0.33333334       0.66666669       0.55700415 </v>
    <v>       0.66666663       0.33333331       0.44299585 </v>
   </varray>
  </structure>
  <varray name="forces" >
   <v>      -0.00000000      -0.00000000       0.25769586 </v>
   <v>       0.00000000       0.00000000      -0.25769586 </v>
   <v>       0.00000000       0.00000000      -0.47049853 </v>
   <v>      -0.00000000      -0.00000000       0.47049853 </v>
   <v>      -0.00000000      -0.00000000       0.32426533 </v>
   <v>       0.00000000       0.00000000      -0.32426533 </v>
   <v>       0.00000000       0.00000000      -0.13672339 </v>
   <v>      -0.00000000      -0.00000000       0.13672339 </v>
   <v>      -0.00000000      -0.00000000       0.40111135 </v>
   <v>       0.00000000       0.00000000      -0.40111135 </v>
   <v>      -0.00000000      -0.00000000       0.13676863 </v>
   <v>       0.00000000       0.00000000      -0.13676863 </v>
   <v>       0.00000000       0.00000000      -0.24774486 </v>
   <v>      -0.00000000      -0.00000000       0.24774486 </v>
  </varray>
  <varray name="stress" >
   <v>       9.33097084       0.00000000       0.00000000 </v>
   <v>       0.00000000       9.33097084       0.00000000 </v>
   <v>       0.00000000      -0.00000000       3.40260233 </v>
  </varray>
  <energy>
   <i name="e_fr_energy">    -57.24889680 </i>
   <i name="e_wo_entrp">    -57.24863777 </i>
   <i name="e_0_energy">     -0.00051805 </i>
  </energy>
  <time name="totalsc">  479.22  482.14</time>
 </calculation>
 <calculation>
  <scstep>
   <time name="dav">   21.67   21.72</time>
   <time name="total">   24.30   24.37</time>
   <energy>
    <i name="alphaZ">    297.30608762 </i>
    <i name="ewald">  -7185.36406601 </i>
    <i name="hartreedc">  -4831.75389708 </i>
    <i name="XCdc">    384.07897147 </i>
    <i name="pawpsdc">  16359.71260517 </i>
    <i name="pawaedc"> -16651.45272253 </i>
    <i name="eentropy">     -0.00057255 </i>
    <i name="bandstr">   -442.24109511 </i>
    <i name="atom">  12019.53804467 </i>
    <i name="e_fr_energy">    -50.17664435 </i>
    <i name="e_wo_entrp">    -50.17607180 </i>
    <i name="e_0_energy">    -50.17635808 </i>
   </energy>
  </scstep>
  <scstep>
   <time name="dav">   25.46   25.52</time>
   <time name="total">   28.11   28.18</time>
   <energy>
    <i name="e_fr_energy">    -53.02517333 </i>
    <i name="e_wo_entrp">    -53.02517323 </i>
    <i name="e_0_energy">    -53.02517328 </i>
   </energy>
  </scstep>
  <scstep>
   <time name="dav">   26.21   26.27</time>
   <time name="total">   28.86   29.56</time>
   <energy>
    <i name="e_fr_energy">    -52.95659027 </i>
    <i name="e_wo_entrp">    -52.95622917 </i>
    <i name="e_0_energy">    -52.95640972 </i>
   </energy>
  </scstep>
  <scstep>
   <time name="dav">   25.62   25.69</time>
   <time name="total">   28.27   28.34</time>
   <energy>
    <i name="e_fr_energy">    -52.94078106 </i>
    <i name="e_wo_entrp">    -52.94058534 </i>
    <i name="e_0_energy">    -52.94068320 </i>
   </energy>
  </scstep>
  <scstep>
   <time name="dav">   27.86   27.93</time>
   <time name="total">   30.52   30.61</time>
   <energy>
    <i name="e_fr_energy">    -52.93058185 </i>
    <i name="e_wo_entrp">    -52.93048703 </i>
    <i name="e_0_energy">    -52.93053444 </i>
   </energy>
  </scstep>
  <scstep>
   <time name="dav">   27.88   27.95</time>
   <time name="total">   30.55   30.63</time>
   <energy>
    <i name="e_fr_energy">    -52.92894924 </i>
    <i name="e_wo_entrp">    -52.92882649 </i>
    <i name="e_0_energy">    -52.92888787 </i>
   </energy>
  </scstep>
  <scstep>
   <time name="dav">   21.97   22.02</time>
   <time name="total">   24.63   24.70</time>
   <energy>
    <i name="e_fr_energy">    -52.92933582 </i>
    <i name="e_wo_entrp">    -52.92924784 </i>
    <i name="e_0_energy">    -52.92929183 </i>
   </energy>
  </scstep>
  <scstep>
   <time name="dav">   27.61   27.68</time>
   <time name="total">   30.23   30.31</time>
   <energy>
    <i name="e_fr_energy">    -52.92932916 </i>
    <i name="e_wo_entrp">    -52.92922059 </i>
    <i name="e_0_energy">    -52.92927488 </i>
   </energy>
  </scstep>
  <scstep>
   <time name="dav">   25.15   25.21</time>
   <time name="total">   27.76   27.84</time>
   <energy>
    <i name="e_fr_energy">    -52.92932852 </i>
    <i name="e_wo_entrp">    -52.92921639 </i>
    <i name="e_0_energy">    -52.92927246 </i>
   </energy>
  </scstep>
  <scstep>
   <time name="dav">   22.84   22.90</time>
   <time name="total">   25.45   25.52</time>
   <energy>
    <i name="e_fr_energy">    -52.92932665 </i>
    <i name="e_wo_entrp">    -52.92921028 </i>
    <i name="e_0_energy">    -52.92926847 </i>
   </energy>
  </scstep>
  <scstep>
   <time name="dav">   20.92   20.97</time>
   <time name="total">   21.90   21.96</time>
   <energy>
    <i name="alphaZ">    297.30608762 </i>
    <i name="ewald">  -7185.36406601 </i>
    <i name="hartreedc">  -4787.34371370 </i>
    <i name="XCdc">    382.22242022 </i>
    <i name="pawpsdc">  16510.56648650 </i>
    <i name="pawaedc"> -16802.88910039 </i>
    <i name="eentropy">     -0.00011644 </i>
    <i name="bandstr">   -486.96536898 </i>
    <i name="atom">  12019.53804467 </i>
    <i name="e_fr_energy">    -52.92932650 </i>
    <i name="e_wo_entrp">    -52.92921005 </i>
    <i name="e_0_energy">    -52.92926827 </i>
   </energy>
  </scstep>
  <structure>
   <crystal>
    <varray name="basis" >
     <v>       3.86381291       0.00000000       0.00000000 </v>
     <v>      -1.93190645       3.34616013      -0.00000000 </v>
     <v>      -0.00000000      -0.00000000      24.11280732 </v>
    </varray>
    <i name="volume">    311.75295997 </i>
    <varray name="rec_basis" >
     <v>       0.25881170       0.14942501       0.00000000 </v>
     <v>      -0.00000000       0.29885001       0.00000000 </v>
     <v>      -0.00000000      -0.00000000       0.04147174 </v>
    </varray>
   </crystal>
   <varray name="positions" >
    <v>       0.00000000       0.00000000       0.27719554 </v>
    <v>      -0.00000000      -0.00000000       0.72280446 </v>
    <v>       0.33333334       0.66666669       0.11267736 </v>
    <v>       0.66666663       0.33333331       0.88732264 </v>
    <v>       0.33333334       0.66666669       0.20984675 </v>
    <v>       0.66666663       0.33333331       0.79015328 </v>
    <v>       0.33333334       0.66666669       0.93670181 </v>
    <v>       0.66666663       0.33333331       0.06329819 </v>
    <v>       0.33333334       0.66666669       0.67057633 </v>
    <v>       0.66666663       0.33333331       0.32942367 </v>
    <v>       0.33333334       0.66666669       0.43972096 </v>
    <v>       0.66666663       0.33333331       0.56027904 </v>
    <v>       0.33333334       0.66666669       0.54744393 </v>
    <v>       0.66666663       0.33333331       0.45255607 </v>
   </varray>
  </structure>
  <varray name="forces" >
   <v>      -0.00000000      -0.00000000       0.24128707 </v>
   <v>       0.00000000       0.00000000      -0.24128707 </v>
   <v>       0.00000000       0.00000000      -0.79086389 </v>
   <v>      -0.00000000      -0.00000000       0.79086389 </v>
   <v>      -0.00000000      -0.00000000       0.65291121 </v>
   <v>       0.00000000       0.00000000      -0.65291121 </v>
   <v>       0.00000000       0.00000000      -0.14176133 </v>
   <v>      -0.00000000      -0.00000000       0.14176133 </v>
   <v>      -0.00000000      -0.00000000       0.52445304 </v>
   <v>       0.00000000       0.00000000      -0.52445304 </v>
   <v>       0.00000000       0.00000000      -0.24079564 </v>
   <v>      -0.00000000      -0.00000000       0.24079564 </v>
   <v>       0.00000000       0.00000000      -0.17739084 </v>
   <v>      -0.00000000      -0.00000000       0.17739084 </v>
  </varray>
  <varray name="stress" >
   <v>      14.74510617       0.00000000       0.00000000 </v>
   <v>       0.00000000      14.74510617      -0.00000000 </v>
   <v>       0.00000000      -0.00000000      18.56129622 </v>
  </varray>
  <energy>
   <i name="e_fr_energy">    -57.25409276 </i>
   <i name="e_wo_entrp">    -57.25403454 </i>
   <i name="e_0_energy">     -0.00011644 </i>
  </energy>
  <time name="totalsc">  344.68  346.89</time>
 </calculation>
 <calculation>
  <scstep>
   <time name="dav">   23.23   23.29</time>
   <time name="total">   25.85   25.92</time>
   <energy>
    <i name="alphaZ">    294.06952237 </i>
    <i name="ewald">  -7453.09531165 </i>
    <i name="hartreedc">  -4474.80059423 </i>
    <i name="XCdc">    380.56026308 </i>
    <i name="pawpsdc">  16510.63423447 </i>
    <i name="pawaedc"> -16802.95588913 </i>
    <i name="eentropy">     -0.00001202 </i>
    <i name="bandstr">   -526.21274584 </i>
    <i name="atom">  12019.53804467 </i>
    <i name="e_fr_energy">    -52.26248828 </i>
    <i name="e_wo_entrp">    -52.26247626 </i>
    <i name="e_0_energy">    -52.26248227 </i>
   </energy>
  </scstep>
  <scstep>
   <time name="dav">   25.11   25.17</time>
   <time name="total">   27.77   27.84</time>
   <energy>
    <i name="e_fr_energy">    -53.02295583 </i>
    <i name="e_wo_entrp">    -53.02239875 </i>
    <i name="e_0_energy">    -53.02267729 </i>
   </energy>
  </scstep>
  <scstep>
   <time name="dav">   24.84   24.90</time>
   <time name="total">   27.48   27.55</time>
   <energy>
    <i name="e_fr_energy">    -53.01583543 </i>
    <i name="e_wo_entrp">    -53.01566107 </i>
    <i name="e_0_energy">    -53.01574825 </i>
   </energy>
  </scstep>
  <scstep>
   <time name="dav">   25.51   25.59</time>
   <time name="total">   28.17   28.27</time>
   <energy>
    <i name="e_fr_energy">    -53.00808326 </i>
    <i name="e_wo_entrp">    -53.00768103 </i>
    <i name="e_0_energy">    -53.00788215 </i>
   </energy>
  </scstep>
  <scstep>
   <time name="dav">   25.22   25.30</time>
   <time name="total">   27.88   27.96</time>
   <energy>
    <i name="e_fr_energy">    -53.00136651 </i>
    <i name="e_wo_entrp">    -53.00092340 </i>
    <i name="e_0_energy">    -53.00114496 </i>
   </energy>
  </scstep>
  <scstep>
   <time name="dav">   26.70   26.78</time>
   <time name="total">   29.36   29.44</time>
   <energy>
    <i name="e_fr_energy">    -53.00089108 </i>
    <i name="e_wo_entrp">    -53.00049018 </i>
    <i name="e_0_energy">    -53.00069063 </i>
   </energy>
  </scstep>
  <scstep>
   <time name="dav">   24.06   24.13</time>
   <time name="total">   26.69   26.78</time>
   <energy>
    <i name="e_fr_energy">    -53.00091742 </i>
    <i name="e_wo_entrp">    -53.00049849 </i>
    <i name="e_0_energy">    -53.00070795 </i>
   </energy>
  </scstep>
  <scstep>
   <time name="dav">   28.03   28.11</time>
   <time name="total">   30.68   30.77</time>
   <energy>
    <i name="e_fr_energy">    -53.00087614 </i>
    <i name="e_wo_entrp">    -53.00047508 </i>
    <i name="e_0_energy">    -53.00067561 </i>
   </energy>
  </scstep>
  <scstep>
   <time name="dav">   25.96   26.04</time>
   <time name="total">   28.61   28.70</time>
   <energy>
    <i name="e_fr_energy">    -53.00084458 </i>
    <i name="e_wo_entrp">    -53.00045941 </i>
    <i name="e_0_energy">    -53.00065200 </i>
   </energy>
  </scstep>
  <scstep>
   <time name="dav">   25.28   25.36</time>
   <time name="total">   27.96   28.04</time>
   <energy>
    <i name="e_fr_energy">    -53.00084592 </i>
    <i name="e_wo_entrp">    -53.00046516 </i>
    <i name="e_0_energy">    -53.00065554 </i>
   </energy>
  </scstep>
  <scstep>
   <time name="dav">   19.65   19.71</time>
   <time name="total">   20.65   20.71</time>
   <energy>
    <i name="alphaZ">    294.06952237 </i>
    <i name="ewald">  -7453.09531165 </i>
    <i name="hartreedc">  -4504.69499350 </i>
    <i name="XCdc">    381.87962875 </i>
    <i name="pawpsdc">  16405.37484310 </i>
    <i name="pawaedc"> -16697.28293338 </i>
    <i name="eentropy">     -0.00038170 </i>
    <i name="bandstr">   -498.78926525 </i>
    <i name="atom">  12019.53804467 </i>
    <i name="e_fr_energy">    -53.00084659 </i>
    <i name="e_wo_entrp">    -53.00046489 </i>
    <i name="e_0_energy">    -53.00065574 </i>
   </energy>
  </scstep>
  <structure>
   <crystal>
    <varray name="basis" >
     <v>       3.87034809       0.00000000       0.00000000 </v>
     <v>      -1.93517404       3.35181976      -0.00000000 </v>
     <v>      -0.00000000      -0.00000000      24.29593899 </v>
    </varray>
    <i name="volume">    315.18415130 </i>
    <varray name="rec_basis" >
     <v>       0.25837469       0.14917270       0.00000000 </v>
     <v>      -0.00000000       0.29834540       0.00000000 </v>
     <v>      -0.00000000      -0.00000000       0.04115914 </v>
    </varray>
   </crystal>
   <varray name="positions" >
    <v>      -0.00000000      -0.00000000       0.27388124 </v>
    <v>       0.00000000       0.00000000       0.72611876 </v>
    <v>       0.33333334       0.66666669       0.11034860 </v>
    <v>       0.66666663       0.33333331       0.88965140 </v>
    <v>       0.33333334       0.66666669       0.20744898 </v>
    <v>       0.66666663       0.33333331       0.79255105 </v>
    <v>       0.33333334       0.66666669       0.93833069 </v>
    <v>       0.66666663       0.33333331       0.06166931 </v>
    <v>       0.33333334       0.66666669       0.67448512 </v>
    <v>       0.66666663       0.33333331       0.32551488 </v>
    <v>       0.33333334       0.66666669       0.43757984 </v>
    <v>       0.66666663       0.33333331       0.56242016 </v>
    <v>       0.33333334       0.66666669       0.55368398 </v>
    <v>       0.66666663       0.33333331       0.44631602 </v>
   </varray>
  </structure>
  <varray name="forces" >
   <v>      -0.00000000      -0.00000000       0.25333901 </v>
   <v>       0.00000000       0.00000000      -0.25333901 </v>
   <v>       0.00000000       0.00000000      -0.57987073 </v>
   <v>      -0.00000000      -0.00000000       0.57987073 </v>
   <v>      -0.00000000      -0.00000000       0.43652211 </v>
   <v>       0.00000000       0.00000000      -0.43652211 </v>
   <v>       0.00000000       0.00000000      -0.13701060 </v>
   <v>      -0.00000000      -0.00000000       0.13701060 </v>
   <v>      -0.00000000      -0.00000000       0.44215921 </v>
   <v>       0.00000000       0.00000000      -0.44215921 </v>
   <v>      -0.00000000      -0.00000000       0.06060481 </v>
   <v>       0.00000000       0.00000000      -0.06060481 </v>
   <v>       0.00000000       0.00000000      -0.27397232 </v>
   <v>      -0.00000000      -0.00000000       0.27397232 </v>
  </varray>
  <varray name="stress" >
   <v>      10.67195454       0.00000000       0.00000000 </v>
   <v>       0.00000000      10.67195454       0.00000000 </v>
   <v>       0.00000000      -0.00000000       6.71555742 </v>
  </varray>
  <energy>
   <i name="e_fr_energy">    -57.26654333 </i>
   <i name="e_wo_entrp">    -57.26635248 </i>
   <i name="e_0_energy">     -0.00038170 </i>
  </energy>
  <time name="totalsc">  345.21  346.33</time>
 </calculation>
 <calculation>
  <scstep>
   <time name="dav">   20.49   20.55</time>
   <time name="total">   23.10   23.18</time>
   <energy>
    <i name="alphaZ">    295.68104965 </i>
    <i name="ewald">  -7327.77202694 </i>
    <i name="hartreedc">  -4652.91654674 </i>
    <i name="XCdc">    382.68916137 </i>
    <i name="pawpsdc">  16405.79448984 </i>
    <i name="pawaedc"> -16697.70065057 </i>
    <i name="eentropy">     -0.00054415 </i>
    <i name="bandstr">   -478.11598178 </i>
    <i name="atom">  12019.53804467 </i>
    <i name="e_fr_energy">    -52.80300464 </i>
    <i name="e_wo_entrp">    -52.80246050 </i>
    <i name="e_0_energy">    -52.80273257 </i>
   </energy>
  </scstep>
  <scstep>
   <time name="dav">   25.42   25.50</time>
   <time name="total">   28.03   28.12</time>
   <energy>
    <i name="e_fr_energy">    -52.98878993 </i>
    <i name="e_wo_entrp">    -52.98867208 </i>
    <i name="e_0_energy">    -52.98873100 </i>
   </energy>
  </scstep>
  <scstep>
   <time name="dav">   24.75   24.82</time>
   <time name="total">   27.35   27.43</time>
   <energy>
    <i name="e_fr_energy">    -52.98051130 </i>
    <i name="e_wo_entrp">    -52.98011010 </i>
    <i name="e_0_energy">    -52.98031070 </i>
   </energy>
  </scstep>
  <scstep>
   <time name="dav">   26.70   26.78</time>
   <time name="total">   29.34   29.43</time>
   <energy>
    <i name="e_fr_energy">    -52.97784043 </i>
    <i name="e_wo_entrp">    -52.97762953 </i>
    <i name="e_0_energy">    -52.97773498 </i>
   </energy>
  </scstep>
  <scstep>
   <time name="dav">   25.74   25.82</time>
   <time name="total">   28.38   28.47</time>
   <energy>
    <i name="e_fr_energy">    -52.97706681 </i>
    <i name="e_wo_entrp">    -52.97684718 </i>
    <i name="e_0_energy">    -52.97695699 </i>
   </energy>
  </scstep>
  <scstep>
   <time name="dav">   26.75   26.83</time>
   <time name="total">   29.39   29.48</time>
   <energy>
    <i name="e_fr_energy">    -52.97705386 </i>
    <i name="e_wo_entrp">    -52.97683585 </i>
    <i name="e_0_energy">    -52.97694485 </i>
   </energy>
  </scstep>
  <scstep>
   <time name="dav">   26.94   27.02</time>
   <time name="total">   29.59   29.68</time>
   <energy>
    <i name="e_fr_energy">    -52.97703503 </i>
    <i name="e_wo_entrp">    -52.97680286 </i>
    <i name="e_0_energy">    -52.97691894 </i>
   </energy>
  </scstep>
  <scstep>
   <time name="dav">   26.01   26.08</time>
   <time name="total">   28.65   28.74</time>
   <energy>
    <i name="e_fr_energy">    -52.97704102 </i>
    <i name="e_wo_entrp">    -52.97680617 </i>
    <i name="e_0_energy">    -52.97692359 </i>
   </energy>
  </scstep>
  <scstep>
   <time name="dav">   23.37   23.44</time>
   <time name="total">   26.01   26.11</time>
   <energy>
    <i name="e_fr_energy">    -52.97704179 </i>
    <i name="e_wo_entrp">    -52.97680419 </i>
    <i name="e_0_energy">    -52.97692299 </i>
   </energy>
  </scstep>
  <scstep>
   <time name="dav">   15.43   15.47</time>
   <time name="total">   16.43   16.49</time>
   <energy>
    <i name="alphaZ">    295.68104965 </i>
    <i name="ewald">  -7327.77202694 </i>
    <i name="hartreedc">  -4637.64813018 </i>
    <i name="XCdc">    382.03943285 </i>
    <i name="pawpsdc">  16451.48900865 </i>
    <i name="pawaedc"> -16743.56983686 </i>
    <i name="eentropy">     -0.00023913 </i>
    <i name="bandstr">   -492.73434443 </i>
    <i name="atom">  12019.53804467 </i>
    <i name="e_fr_energy">    -52.97704172 </i>
    <i name="e_wo_entrp">    -52.97680259 </i>
    <i name="e_0_energy">    -52.97692216 </i>
   </energy>
  </scstep>
  <structure>
   <crystal>
    <varray name="basis" >
     <v>       3.86708050       0.00000000       0.00000000 </v>
     <v>      -1.93354025       3.34898995      -0.00000000 </v>
     <v>      -0.00000000      -0.00000000      24.20437315 </v>
    </varray>
    <i name="volume">    313.46632779 </i>
    <varray name="rec_basis" >
     <v>       0.25859301       0.14929875       0.00000000 </v>
     <v>      -0.00000000       0.29859749       0.00000000 </v>
     <v>      -0.00000000      -0.00000000       0.04131485 </v>
    </varray>
   </crystal>
   <varray name="positions" >
    <v>       0.00000000       0.00000000       0.27552590 </v>
    <v>      -0.00000000      -0.00000000       0.72447410 </v>
    <v>       0.33333334       0.66666669       0.11150420 </v>
    <v>       0.66666663       0.33333331       0.88849580 </v>
    <v>       0.33333334       0.66666669       0.20863883 </v>
    <v>       0.66666663       0.33333331       0.79136120 </v>
    <v>       0.33333334       0.66666669       0.93752239 </v>
    <v>       0.66666663       0.33333331       0.06247761 </v>
    <v>       0.33333334       0.66666669       0.67254546 </v>
    <v>       0.66666663       0.33333331       0.32745454 </v>
    <v>       0.33333334       0.66666669       0.43864233 </v>
    <v>       0.66666663       0.33333331       0.56135767 </v>
    <v>       0.33333334       0.66666669       0.55058747 </v>
    <v>       0.66666663       0.33333331       0.44941253 </v>
   </varray>
  </structure>
  <varray name="forces" >
   <v>      -0.00000000      -0.00000000       0.24804775 </v>
   <v>       0.00000000       0.00000000      -0.24804775 </v>
   <v>       0.00000000       0.00000000      -0.68345946 </v>
   <v>      -0.00000000      -0.00000000       0.68345946 </v>
   <v>      -0.00000000      -0.00000000       0.54303118 </v>
   <v>       0.00000000       0.00000000      -0.54303118 </v>
   <v>       0.00000000       0.00000000      -0.13872395 </v>
   <v>      -0.00000000      -0.00000000       0.13872395 </v>
   <v>      -0.00000000      -0.00000000       0.48239818 </v>
   <v>       0.00000000       0.00000000      -0.48239818 </v>
   <v>       0.00000000       0.00000000      -0.05420715 </v>
   <v>      -0.00000000      -0.00000000       0.05420715 </v>
   <v>       0.00000000       0.00000000      -0.26161466 </v>
   <v>      -0.00000000      -0.00000000       0.26161466 </v>
  </varray>
  <varray name="stress" >
   <v>      12.62781190       0.00000000       0.00000000 </v>
   <v>       0.00000000      12.62781190      -0.00000000 </v>
   <v>       0.00000000      -0.00000000      11.70149809 </v>
  </varray>
  <energy>
   <i name="e_fr_energy">    -57.27193062 </i>
   <i name="e_wo_entrp">    -57.27181106 </i>
   <i name="e_0_energy">     -0.00023913 </i>
  </energy>
  <time name="totalsc">  310.77  312.19</time>
 </calculation>
 <calculation>
  <scstep>
   <time name="dav">   20.76   20.81</time>
   <time name="total">   23.44   23.50</time>
   <energy>
    <i name="alphaZ">    295.90870696 </i>
    <i name="ewald">  -7283.20433652 </i>
    <i name="hartreedc">  -4685.59512942 </i>
    <i name="XCdc">    382.15797549 </i>
    <i name="pawpsdc">  16453.01071382 </i>
    <i name="pawaedc"> -16745.08986576 </i>
    <i name="eentropy">     -0.00030110 </i>
    <i name="bandstr">   -489.68679950 </i>
    <i name="atom">  12019.53804467 </i>
    <i name="e_fr_energy">    -52.96099136 </i>
    <i name="e_wo_entrp">    -52.96069026 </i>
    <i name="e_0_energy">    -52.96084081 </i>
   </energy>
  </scstep>
  <scstep>
   <time name="dav">   26.00   26.07</time>
   <time name="total">   28.68   28.75</time>
   <energy>
    <i name="e_fr_energy">    -52.97720011 </i>
    <i name="e_wo_entrp">    -52.97700019 </i>
    <i name="e_0_energy">    -52.97710015 </i>
   </energy>
  </scstep>
  <scstep>
   <time name="dav">   25.37   25.43</time>
   <time name="total">   28.03   28.11</time>
   <energy>
    <i name="e_fr_energy">    -52.97663249 </i>
    <i name="e_wo_entrp">    -52.97636309 </i>
    <i name="e_0_energy">    -52.97649779 </i>
   </energy>
  </scstep>
  <scstep>
   <time name="dav">   26.85   26.92</time>
   <time name="total">   29.48   29.58</time>
   <energy>
    <i name="e_fr_energy">    -52.97647612 </i>
    <i name="e_wo_entrp">    -52.97625781 </i>
    <i name="e_0_energy">    -52.97636697 </i>
   </energy>
  </scstep>
  <scstep>
   <time name="dav">   25.38   25.44</time>
   <time name="total">   27.99   28.06</time>
   <energy>
    <i name="e_fr_energy">    -52.97642736 </i>
    <i name="e_wo_entrp">    -52.97621164 </i>
    <i name="e_0_energy">    -52.97631950 </i>
   </energy>
  </scstep>
  <scstep>
   <time name="dav">   26.45   26.52</time>
   <time name="total">   29.06   29.14</time>
   <energy>
    <i name="e_fr_energy">    -52.97642896 </i>
    <i name="e_wo_entrp">    -52.97621181 </i>
    <i name="e_0_energy">    -52.97632038 </i>
   </energy>
  </scstep>
  <scstep>
   <time name="dav">   23.16   23.22</time>
   <time name="total">   25.77   25.84</time>
   <energy>
    <i name="e_fr_energy">    -52.97643037 </i>
    <i name="e_wo_entrp">    -52.97621256 </i>
    <i name="e_0_energy">    -52.97632147 </i>
   </energy>
  </scstep>
  <scstep>
   <time name="dav">   19.21   19.25</time>
   <time name="total">   21.81   21.86</time>
   <energy>
    <i name="e_fr_energy">    -52.97643166 </i>
    <i name="e_wo_entrp">    -52.97621363 </i>
    <i name="e_0_energy">    -52.97632264 </i>
   </energy>
  </scstep>
  <scstep>
   <time name="dav">   15.15   15.19</time>
   <time name="total">   16.13   16.17</time>
   <energy>
    <i name="alphaZ">    295.90870696 </i>
    <i name="ewald">  -7283.20433652 </i>
    <i name="hartreedc">  -4683.34054561 </i>
    <i name="XCdc">    382.06747422 </i>
    <i name="pawpsdc">  16454.45583136 </i>
    <i name="pawaedc"> -16746.54714919 </i>
    <i name="eentropy">     -0.00021952 </i>
    <i name="bandstr">   -491.85423806 </i>
    <i name="atom">  12019.53804467 </i>
    <i name="e_fr_energy">    -52.97643169 </i>
    <i name="e_wo_entrp">    -52.97621217 </i>
    <i name="e_0_energy">    -52.97632193 </i>
   </energy>
  </scstep>
  <structure>
   <crystal>
    <varray name="basis" >
     <v>       3.86725188       0.00000000       0.00000000 </v>
     <v>      -1.93362594       3.34913837      -0.00000000 </v>
     <v>      -0.00000000      -0.00000000      24.18360794 </v>
    </varray>
    <i name="volume">    313.22516253 </i>
    <varray name="rec_basis" >
     <v>       0.25858155       0.14929213       0.00000000 </v>
     <v>      -0.00000000       0.29858426       0.00000000 </v>
     <v>      -0.00000000      -0.00000000       0.04135032 </v>
    </varray>
   </crystal>
   <varray name="positions" >
    <v>       0.00000000       0.00000000       0.27605830 </v>
    <v>      -0.00000000      -0.00000000       0.72394170 </v>
    <v>       0.33333334       0.66666669       0.11181689 </v>
    <v>       0.66666663       0.33333331       0.88818311 </v>
    <v>       0.33333334       0.66666669       0.20905003 </v>
    <v>       0.66666663       0.33333331       0.79095000 </v>
    <v>       0.33333334       0.66666669       0.93725953 </v>
    <v>       0.66666663       0.33333331       0.06274047 </v>
    <v>       0.33333334       0.66666669       0.67197303 </v>
    <v>       0.66666663       0.33333331       0.32802697 </v>
    <v>       0.33333334       0.66666669       0.43897093 </v>
    <v>       0.66666663       0.33333331       0.56102907 </v>
    <v>       0.33333334       0.66666669       0.54959978 </v>
    <v>       0.66666663       0.33333331       0.45040022 </v>
   </varray>
  </structure>
  <varray name="forces" >
   <v>      -0.00000000      -0.00000000       0.23966072 </v>
   <v>       0.00000000       0.00000000      -0.23966072 </v>
   <v>       0.00000000       0.00000000      -0.67945067 </v>
   <v>      -0.00000000      -0.00000000       0.67945067 </v>
   <v>      -0.00000000      -0.00000000       0.54496755 </v>
   <v>       0.00000000       0.00000000      -0.54496755 </v>
   <v>       0.00000000       0.00000000      -0.13726763 </v>
   <v>      -0.00000000      -0.00000000       0.13726763 </v>
   <v>      -0.00000000      -0.00000000       0.49065758 </v>
   <v>       0.00000000       0.00000000      -0.49065758 </v>
   <v>       0.00000000       0.00000000      -0.10007506 </v>
   <v>      -0.00000000      -0.00000000       0.10007506 </v>
   <v>       0.00000000       0.00000000      -0.24434791 </v>
   <v>      -0.00000000      -0.00000000       0.24434791 </v>
  </varray>
  <varray name="stress" >
   <v>      12.84430710       0.00000000       0.00000000 </v>
   <v>       0.00000000      12.84430711      -0.00000000 </v>
   <v>       0.00000000       0.00000000      12.57435702 </v>
  </varray>
  <energy>
   <i name="e_fr_energy">    -57.27609103 </i>
   <i name="e_wo_entrp">    -57.27598127 </i>
   <i name="e_0_energy">     -0.00021952 </i>
  </energy>
  <time name="totalsc">  275.00  278.02</time>
 </calculation>
 <calculation>
  <scstep>
   <time name="dav">   20.74   20.80</time>
   <time name="total">   23.38   23.46</time>
   <energy>
    <i name="alphaZ">    296.18834297 </i>
    <i name="ewald">  -7226.60530120 </i>
    <i name="hartreedc">  -4744.04799273 </i>
    <i name="XCdc">    382.21680895 </i>
    <i name="pawpsdc">  16454.55676059 </i>
    <i name="pawaedc"> -16746.64871314 </i>
    <i name="eentropy">     -0.00028807 </i>
    <i name="bandstr">   -488.14722383 </i>
    <i name="atom">  12019.53804467 </i>
    <i name="e_fr_energy">    -52.94956179 </i>
    <i name="e_wo_entrp">    -52.94927372 </i>
    <i name="e_0_energy">    -52.94941776 </i>
   </energy>
  </scstep>
  <scstep>
   <time name="dav">   25.98   26.06</time>
   <time name="total">   28.65   28.74</time>
   <energy>
    <i name="e_fr_energy">    -52.97357456 </i>
    <i name="e_wo_entrp">    -52.97340472 </i>
    <i name="e_0_energy">    -52.97348964 </i>
   </energy>
  </scstep>
  <scstep>
   <time name="dav">   25.86   25.94</time>
   <time name="total">   28.49   28.59</time>
   <energy>
    <i name="e_fr_energy">    -52.97278550 </i>
    <i name="e_wo_entrp">    -52.97253306 </i>
    <i name="e_0_energy">    -52.97265928 </i>
   </energy>
  </scstep>
  <scstep>
   <time name="dav">   26.76   26.84</time>
   <time name="total">   29.41   29.49</time>
   <energy>
    <i name="e_fr_energy">    -52.97256768 </i>
    <i name="e_wo_entrp">    -52.97237343 </i>
    <i name="e_0_energy">    -52.97247055 </i>
   </energy>
  </scstep>
  <scstep>
   <time name="dav">   25.93   26.01</time>
   <time name="total">   28.60   28.69</time>
   <energy>
    <i name="e_fr_energy">    -52.97249380 </i>
    <i name="e_wo_entrp">    -52.97230350 </i>
    <i name="e_0_energy">    -52.97239865 </i>
   </energy>
  </scstep>
  <scstep>
   <time name="dav">   26.35   26.43</time>
   <time name="total">   29.01   29.09</time>
   <energy>
    <i name="e_fr_energy">    -52.97249769 </i>
    <i name="e_wo_entrp">    -52.97230623 </i>
    <i name="e_0_energy">    -52.97240196 </i>
   </energy>
  </scstep>
  <scstep>
   <time name="dav">   26.52   26.60</time>
   <time name="total">   29.20   29.70</time>
   <energy>
    <i name="e_fr_energy">    -52.97249979 </i>
    <i name="e_wo_entrp">    -52.97230633 </i>
    <i name="e_0_energy">    -52.97240306 </i>
   </energy>
  </scstep>
  <scstep>
   <time name="dav">   21.84   21.91</time>
   <time name="total">   24.52   24.81</time>
   <energy>
    <i name="e_fr_energy">    -52.97250133 </i>
    <i name="e_wo_entrp">    -52.97230782 </i>
    <i name="e_0_energy">    -52.97240458 </i>
   </energy>
  </scstep>
  <scstep>
   <time name="dav">   16.21   16.26</time>
   <time name="total">   17.21   17.27</time>
   <energy>
    <i name="alphaZ">    296.18834297 </i>
    <i name="ewald">  -7226.60530120 </i>
    <i name="hartreedc">  -4741.26951255 </i>
    <i name="XCdc">    382.10519612 </i>
    <i name="pawpsdc">  16457.99724373 </i>
    <i name="pawaedc"> -16750.11044633 </i>
    <i name="eentropy">     -0.00019541 </i>
    <i name="bandstr">   -490.81587333 </i>
    <i name="atom">  12019.53804467 </i>
    <i name="e_fr_energy">    -52.97250133 </i>
    <i name="e_wo_entrp">    -52.97230591 </i>
    <i name="e_0_energy">    -52.97240362 </i>
   </energy>
  </scstep>
  <structure>
   <crystal>
    <varray name="basis" >
     <v>       3.86746198       0.00000000       0.00000000 </v>
     <v>      -1.93373099       3.34932032      -0.00000000 </v>
     <v>      -0.00000000      -0.00000000      24.15815077 </v>
    </varray>
    <i name="volume">    312.92944180 </i>
    <varray name="rec_basis" >
     <v>       0.25856751       0.14928402       0.00000000 </v>
     <v>      -0.00000000       0.29856804       0.00000000 </v>
     <v>      -0.00000000      -0.00000000       0.04139390 </v>
    </varray>
   </crystal>
   <varray name="positions" >
    <v>       0.00000000       0.00000000       0.27671157 </v>
    <v>      -0.00000000      -0.00000000       0.72328843 </v>
    <v>       0.33333334       0.66666669       0.11220055 </v>
    <v>       0.66666663       0.33333331       0.88779945 </v>
    <v>       0.33333334       0.66666669       0.20955458 </v>
    <v>       0.66666663       0.33333331       0.79044545 </v>
    <v>       0.33333334       0.66666669       0.93693699 </v>
    <v>       0.66666663       0.33333331       0.06306301 </v>
    <v>       0.33333334       0.66666669       0.67127066 </v>
    <v>       0.66666663       0.33333331       0.32872934 </v>
    <v>       0.33333334       0.66666669       0.43937411 </v>
    <v>       0.66666663       0.33333331       0.56062589 </v>
    <v>       0.33333334       0.66666669       0.54838788 </v>
    <v>       0.66666663       0.33333331       0.45161212 </v>
   </varray>
  </structure>
  <varray name="forces" >
   <v>      -0.00000000      -0.00000000       0.22927767 </v>
   <v>       0.00000000       0.00000000      -0.22927767 </v>
   <v>       0.00000000       0.00000000      -0.67439438 </v>
   <v>      -0.00000000      -0.00000000       0.67439438 </v>
   <v>      -0.00000000      -0.00000000       0.54797878 </v>
   <v>       0.00000000       0.00000000      -0.54797878 </v>
   <v>       0.00000000       0.00000000      -0.13588675 </v>
   <v>      -0.00000000      -0.00000000       0.13588675 </v>
   <v>      -0.00000000      -0.00000000       0.49916615 </v>
   <v>       0.00000000       0.00000000      -0.49916615 </v>
   <v>       0.00000000       0.00000000      -0.16493070 </v>
   <v>      -0.00000000      -0.00000000       0.16493070 </v>
   <v>       0.00000000       0.00000000      -0.21192544 </v>
   <v>      -0.00000000      -0.00000000       0.21192544 </v>
  </varray>
  <varray name="stress" >
   <v>      13.04083331       0.00000000       0.00000000 </v>
   <v>       0.00000000      13.04083331      -0.00000000 </v>
   <v>       0.00000000      -0.00000000      13.86890139 </v>
  </varray>
  <energy>
   <i name="e_fr_energy">    -57.27807263 </i>
   <i name="e_wo_entrp">    -57.27797492 </i>
   <i name="e_0_energy">     -0.00019541 </i>
  </energy>
  <time name="totalsc">  282.63  284.15</time>
 </calculation>
 <calculation>
  <scstep>
   <time name="dav">   25.73   25.79</time>
   <time name="total">   28.34   28.42</time>
   <energy>
    <i name="alphaZ">    295.84244990 </i>
    <i name="ewald">  -7221.78122216 </i>
    <i name="hartreedc">  -4741.42855366 </i>
    <i name="XCdc">    381.92767460 </i>
    <i name="pawpsdc">  16458.20912030 </i>
    <i name="pawaedc"> -16750.32241880 </i>
    <i name="eentropy">     -0.00020011 </i>
    <i name="bandstr">   -494.97192833 </i>
    <i name="atom">  12019.53804467 </i>
    <i name="e_fr_energy">    -52.98703360 </i>
    <i name="e_wo_entrp">    -52.98683349 </i>
    <i name="e_0_energy">    -52.98693355 </i>
   </energy>
  </scstep>
  <scstep>
   <time name="dav">   26.21   26.28</time>
   <time name="total">   28.83   28.91</time>
   <energy>
    <i name="e_fr_energy">    -52.98607015 </i>
    <i name="e_wo_entrp">    -52.98582792 </i>
    <i name="e_0_energy">    -52.98594904 </i>
   </energy>
  </scstep>
  <scstep>
   <time name="dav">   24.55   24.61</time>
   <time name="total">   27.16   27.23</time>
   <energy>
    <i name="e_fr_energy">    -52.98591933 </i>
    <i name="e_wo_entrp">    -52.98569177 </i>
    <i name="e_0_energy">    -52.98580555 </i>
   </energy>
  </scstep>
  <scstep>
   <time name="dav">   27.18   27.25</time>
   <time name="total">   29.80   29.88</time>
   <energy>
    <i name="e_fr_energy">    -52.98587233 </i>
    <i name="e_wo_entrp">    -52.98564588 </i>
    <i name="e_0_energy">    -52.98575910 </i>
   </energy>
  </scstep>
  <scstep>
   <time name="dav">   25.51   25.57</time>
   <time name="total">   28.13   28.20</time>
   <energy>
    <i name="e_fr_energy">    -52.98586197 </i>
    <i name="e_wo_entrp">    -52.98564006 </i>
    <i name="e_0_energy">    -52.98575102 </i>
   </energy>
  </scstep>
  <scstep>
   <time name="dav">   17.40   17.45</time>
   <time name="total">   20.03   20.08</time>
   <energy>
    <i name="e_fr_energy">    -52.98585900 </i>
    <i name="e_wo_entrp">    -52.98563698 </i>
    <i name="e_0_energy">    -52.98574799 </i>
   </energy>
  </scstep>
  <scstep>
   <time name="dav">   15.39   15.43</time>
   <time name="total">   16.38   16.43</time>
   <energy>
    <i name="alphaZ">    295.84244990 </i>
    <i name="ewald">  -7221.78122216 </i>
    <i name="hartreedc">  -4744.60879786 </i>
    <i name="XCdc">    382.07231599 </i>
    <i name="pawpsdc">  16439.20020544 </i>
    <i name="pawaedc"> -16731.24087536 </i>
    <i name="eentropy">     -0.00022237 </i>
    <i name="bandstr">   -492.00775630 </i>
    <i name="atom">  12019.53804467 </i>
    <i name="e_fr_energy">    -52.98585806 </i>
    <i name="e_wo_entrp">    -52.98563569 </i>
    <i name="e_0_energy">    -52.98574687 </i>
   </energy>
  </scstep>
  <structure>
   <crystal>
    <varray name="basis" >
     <v>       3.86898765       0.00000000       0.00000000 </v>
     <v>      -1.93449382       3.35064159      -0.00000000 </v>
     <v>      -0.00000000      -0.00000000      24.16732482 </v>
    </varray>
    <i name="volume">    313.29531263 </i>
    <varray name="rec_basis" >
     <v>       0.25846554       0.14922515       0.00000000 </v>
     <v>      -0.00000000       0.29845030       0.00000000 </v>
     <v>      -0.00000000      -0.00000000       0.04137818 </v>
    </varray>
   </crystal>
   <varray name="positions" >
    <v>       0.00000000       0.00000000       0.27675549 </v>
    <v>      -0.00000000      -0.00000000       0.72324451 </v>
    <v>       0.33333334       0.66666669       0.11215409 </v>
    <v>       0.66666663       0.33333331       0.88784591 </v>
    <v>       0.33333334       0.66666669       0.20962163 </v>
    <v>       0.66666663       0.33333331       0.79037840 </v>
    <v>       0.33333334       0.66666669       0.93691327 </v>
    <v>       0.66666663       0.33333331       0.06308673 </v>
    <v>       0.33333334       0.66666669       0.67129003 </v>
    <v>       0.66666663       0.33333331       0.32870997 </v>
    <v>       0.33333334       0.66666669       0.43937386 </v>
    <v>       0.66666663       0.33333331       0.56062614 </v>
    <v>       0.33333334       0.66666669       0.54832545 </v>
    <v>       0.66666663       0.33333331       0.45167455 </v>
   </varray>
  </structure>
  <varray name="forces" >
   <v>      -0.00000000      -0.00000000       0.22152492 </v>
   <v>       0.00000000       0.00000000      -0.22152492 </v>
   <v>       0.00000000       0.00000000      -0.62837938 </v>
   <v>      -0.00000000      -0.00000000       0.62837938 </v>
   <v>      -0.00000000      -0.00000000       0.50863758 </v>
   <v>       0.00000000       0.00000000      -0.50863758 </v>
   <v>       0.00000000       0.00000000      -0.13404919 </v>
   <v>      -0.00000000      -0.00000000       0.13404919 </v>
   <v>      -0.00000000      -0.00000000       0.49328566 </v>
   <v>       0.00000000       0.00000000      -0.49328566 </v>
   <v>       0.00000000       0.00000000      -0.16140670 </v>
   <v>      -0.00000000      -0.00000000       0.16140670 </v>
   <v>       0.00000000       0.00000000      -0.20977840 </v>
   <v>      -0.00000000      -0.00000000       0.20977840 </v>
  </varray>
  <varray name="stress" >
   <v>      12.45808976       0.00000000      -0.00000000 </v>
   <v>       0.00000000      12.45808976      -0.00000000 </v>
   <v>       0.00000000      -0.00000000      12.64350426 </v>
  </varray>
  <energy>
   <i name="e_fr_energy">    -57.28591981 </i>
   <i name="e_wo_entrp">    -57.28580862 </i>
   <i name="e_0_energy">     -0.00022237 </i>
  </energy>
  <time name="totalsc">  222.68  223.30</time>
 </calculation>
 <calculation>
  <scstep>
   <time name="dav">   25.91   25.97</time>
   <time name="total">   28.53   28.60</time>
   <energy>
    <i name="alphaZ">    294.80799702 </i>
    <i name="ewald">  -7207.28597370 </i>
    <i name="hartreedc">  -4745.13450915 </i>
    <i name="XCdc">    381.54132035 </i>
    <i name="pawpsdc">  16439.24183554 </i>
    <i name="pawaedc"> -16731.28407539 </i>
    <i name="eentropy">     -0.00023608 </i>
    <i name="bandstr">   -504.45810774 </i>
    <i name="atom">  12019.53804467 </i>
    <i name="e_fr_energy">    -53.03370449 </i>
    <i name="e_wo_entrp">    -53.03346840 </i>
    <i name="e_0_energy">    -53.03358645 </i>
   </energy>
  </scstep>
  <scstep>
   <time name="dav">   26.99   27.06</time>
   <time name="total">   29.65   29.73</time>
   <energy>
    <i name="e_fr_energy">    -53.02495764 </i>
    <i name="e_wo_entrp">    -53.02458407 </i>
    <i name="e_0_energy">    -53.02477086 </i>
   </energy>
  </scstep>
  <scstep>
   <time name="dav">   24.98   25.04</time>
   <time name="total">   27.65   27.72</time>
   <energy>
    <i name="e_fr_energy">    -53.02361823 </i>
    <i name="e_wo_entrp">    -53.02329811 </i>
    <i name="e_0_energy">    -53.02345817 </i>
   </energy>
  </scstep>
  <scstep>
   <time name="dav">   26.87   26.95</time>
   <time name="total">   29.49   29.58</time>
   <energy>
    <i name="e_fr_energy">    -53.02326460 </i>
    <i name="e_wo_entrp">    -53.02294202 </i>
    <i name="e_0_energy">    -53.02310331 </i>
   </energy>
  </scstep>
  <scstep>
   <time name="dav">   25.05   25.13</time>
   <time name="total">   27.66   27.74</time>
   <energy>
    <i name="e_fr_energy">    -53.02320878 </i>
    <i name="e_wo_entrp">    -53.02290489 </i>
    <i name="e_0_energy">    -53.02305683 </i>
   </energy>
  </scstep>
  <scstep>
   <time name="dav">   28.12   28.21</time>
   <time name="total">   30.73   30.83</time>
   <energy>
    <i name="e_fr_energy">    -53.02319641 </i>
    <i name="e_wo_entrp">    -53.02289051 </i>
    <i name="e_0_energy">    -53.02304346 </i>
   </energy>
  </scstep>
  <scstep>
   <time name="dav">   21.83   21.89</time>
   <time name="total">   24.43   24.51</time>
   <energy>
    <i name="e_fr_energy">    -53.02319496 </i>
    <i name="e_wo_entrp">    -53.02288739 </i>
    <i name="e_0_energy">    -53.02304117 </i>
   </energy>
  </scstep>
  <scstep>
   <time name="dav">   14.96   15.17</time>
   <time name="total">   15.94   16.15</time>
   <energy>
    <i name="alphaZ">    294.80799702 </i>
    <i name="ewald">  -7207.28597370 </i>
    <i name="hartreedc">  -4754.66860516 </i>
    <i name="XCdc">    381.97492700 </i>
    <i name="pawpsdc">  16383.56960468 </i>
    <i name="pawaedc"> -16675.40428232 </i>
    <i name="eentropy">     -0.00030581 </i>
    <i name="bandstr">   -495.55460118 </i>
    <i name="atom">  12019.53804467 </i>
    <i name="e_fr_energy">    -53.02319479 </i>
    <i name="e_wo_entrp">    -53.02288898 </i>
    <i name="e_0_energy">    -53.02304188 </i>
   </energy>
  </scstep>
  <structure>
   <crystal>
    <varray name="basis" >
     <v>       3.87356464       0.00000000       0.00000000 </v>
     <v>      -1.93678232       3.35460538      -0.00000000 </v>
     <v>      -0.00000000      -0.00000000      24.19484699 </v>
    </varray>
    <i name="volume">    314.39463573 </i>
    <varray name="rec_basis" >
     <v>       0.25816014       0.14904883       0.00000000 </v>
     <v>      -0.00000000       0.29809766       0.00000000 </v>
     <v>      -0.00000000      -0.00000000       0.04133111 </v>
    </varray>
   </crystal>
   <varray name="positions" >
    <v>       0.00000000       0.00000000       0.27688722 </v>
    <v>      -0.00000000      -0.00000000       0.72311278 </v>
    <v>       0.33333334       0.66666669       0.11201477 </v>
    <v>       0.66666663       0.33333331       0.88798523 </v>
    <v>       0.33333334       0.66666669       0.20982271 </v>
    <v>       0.66666663       0.33333331       0.79017732 </v>
    <v>       0.33333334       0.66666669       0.93684216 </v>
    <v>       0.66666663       0.33333331       0.06315784 </v>
    <v>       0.33333334       0.66666669       0.67134811 </v>
    <v>       0.66666663       0.33333331       0.32865189 </v>
    <v>       0.33333334       0.66666669       0.43937308 </v>
    <v>       0.66666663       0.33333331       0.56062692 </v>
    <v>       0.33333334       0.66666669       0.54813823 </v>
    <v>       0.66666663       0.33333331       0.45186177 </v>
   </varray>
  </structure>
  <varray name="forces" >
   <v>      -0.00000000      -0.00000000       0.19713783 </v>
   <v>       0.00000000       0.00000000      -0.19713783 </v>
   <v>       0.00000000       0.00000000      -0.49536071 </v>
   <v>      -0.00000000      -0.00000000       0.49536071 </v>
   <v>      -0.00000000      -0.00000000       0.39594480 </v>
   <v>       0.00000000       0.00000000      -0.39594480 </v>
   <v>       0.00000000       0.00000000      -0.12829439 </v>
   <v>      -0.00000000      -0.00000000       0.12829439 </v>
   <v>      -0.00000000      -0.00000000       0.47563451 </v>
   <v>       0.00000000       0.00000000      -0.47563451 </v>
   <v>       0.00000000       0.00000000      -0.15071256 </v>
   <v>      -0.00000000      -0.00000000       0.15071256 </v>
   <v>       0.00000000       0.00000000      -0.20302548 </v>
   <v>      -0.00000000      -0.00000000       0.20302548 </v>
  </varray>
  <varray name="stress" >
   <v>      10.46083108       0.00000000       0.00000000 </v>
   <v>       0.00000000      10.46083108       0.00000000 </v>
   <v>       0.00000000      -0.00000000       8.77881812 </v>
  </varray>
  <energy>
   <i name="e_fr_energy">    -57.30677465 </i>
   <i name="e_wo_entrp">    -57.30662175 </i>
   <i name="e_0_energy">     -0.00030581 </i>
  </energy>
  <time name="totalsc">  259.36  260.81</time>
 </calculation>
 <calculation>
  <scstep>
   <time name="dav">   26.04   26.12</time>
   <time name="total">   28.65   28.76</time>
   <energy>
    <i name="alphaZ">    292.75351595 </i>
    <i name="ewald">  -7178.19748800 </i>
    <i name="hartreedc">  -4755.87550136 </i>
    <i name="XCdc">    380.91678860 </i>
    <i name="pawpsdc">  16383.84097810 </i>
    <i name="pawaedc"> -16675.67396198 </i>
    <i name="eentropy">     -0.00033501 </i>
    <i name="bandstr">   -520.42979205 </i>
    <i name="atom">  12019.53804467 </i>
    <i name="e_fr_energy">    -53.12775109 </i>
    <i name="e_wo_entrp">    -53.12741608 </i>
    <i name="e_0_energy">    -53.12758359 </i>
   </energy>
  </scstep>
  <scstep>
   <time name="dav">   26.17   26.25</time>
   <time name="total">   28.78   28.87</time>
   <energy>
    <i name="e_fr_energy">    -53.09284289 </i>
    <i name="e_wo_entrp">    -53.09229769 </i>
    <i name="e_0_energy">    -53.09257029 </i>
   </energy>
  </scstep>
  <scstep>
   <time name="dav">   24.42   24.49</time>
   <time name="total">   27.01   27.10</time>
   <energy>
    <i name="e_fr_energy">    -53.08751139 </i>
    <i name="e_wo_entrp">    -53.08703186 </i>
    <i name="e_0_energy">    -53.08727163 </i>
   </energy>
  </scstep>
  <scstep>
   <time name="dav">   26.48   26.56</time>
   <time name="total">   29.07   29.17</time>
   <energy>
    <i name="e_fr_energy">    -53.08620086 </i>
    <i name="e_wo_entrp">    -53.08571421 </i>
    <i name="e_0_energy">    -53.08595753 </i>
   </energy>
  </scstep>
  <scstep>
   <time name="dav">   24.98   25.05</time>
   <time name="total">   27.57   27.66</time>
   <energy>
    <i name="e_fr_energy">    -53.08601373 </i>
    <i name="e_wo_entrp">    -53.08555909 </i>
    <i name="e_0_energy">    -53.08578641 </i>
   </energy>
  </scstep>
  <scstep>
   <time name="dav">   28.24   28.32</time>
   <time name="total">   30.85   30.95</time>
   <energy>
    <i name="e_fr_energy">    -53.08598252 </i>
    <i name="e_wo_entrp">    -53.08552186 </i>
    <i name="e_0_energy">    -53.08575219 </i>
   </energy>
  </scstep>
  <scstep>
   <time name="dav">   22.83   22.90</time>
   <time name="total">   25.45   25.52</time>
   <energy>
    <i name="e_fr_energy">    -53.08598010 </i>
    <i name="e_wo_entrp">    -53.08551792 </i>
    <i name="e_0_energy">    -53.08574901 </i>
   </energy>
  </scstep>
  <scstep>
   <time name="dav">   17.63   17.69</time>
   <time name="total">   18.62   18.67</time>
   <energy>
    <i name="alphaZ">    292.75351595 </i>
    <i name="ewald">  -7178.19748800 </i>
    <i name="hartreedc">  -4774.88774648 </i>
    <i name="XCdc">    381.78210544 </i>
    <i name="pawpsdc">  16275.50145114 </i>
    <i name="pawaedc"> -16566.93249809 </i>
    <i name="eentropy">     -0.00045986 </i>
    <i name="bandstr">   -502.64290427 </i>
    <i name="atom">  12019.53804467 </i>
    <i name="e_fr_energy">    -53.08597951 </i>
    <i name="e_wo_entrp">    -53.08551965 </i>
    <i name="e_0_energy">    -53.08574958 </i>
   </energy>
  </scstep>
  <structure>
   <crystal>
    <varray name="basis" >
     <v>       3.88271863       0.00000000       0.00000000 </v>
     <v>      -1.94135932       3.36253297      -0.00000000 </v>
     <v>      -0.00000000      -0.00000000      24.24989133 </v>
    </varray>
    <i name="volume">    316.60098951 </i>
    <varray name="rec_basis" >
     <v>       0.25755150       0.14869743       0.00000000 </v>
     <v>      -0.00000000       0.29739485       0.00000000 </v>
     <v>      -0.00000000      -0.00000000       0.04123730 </v>
    </varray>
   </crystal>
   <varray name="positions" >
    <v>       0.00000000       0.00000000       0.27715039 </v>
    <v>      -0.00000000      -0.00000000       0.72284961 </v>
    <v>       0.33333334       0.66666669       0.11173644 </v>
    <v>       0.66666663       0.33333331       0.88826356 </v>
    <v>       0.33333334       0.66666669       0.21022441 </v>
    <v>       0.66666663       0.33333331       0.78977562 </v>
    <v>       0.33333334       0.66666669       0.93670009 </v>
    <v>       0.66666663       0.33333331       0.06329991 </v>
    <v>       0.33333334       0.66666669       0.67146415 </v>
    <v>       0.66666663       0.33333331       0.32853585 </v>
    <v>       0.33333334       0.66666669       0.43937154 </v>
    <v>       0.66666663       0.33333331       0.56062846 </v>
    <v>       0.33333334       0.66666669       0.54776422 </v>
    <v>       0.66666663       0.33333331       0.45223578 </v>
   </varray>
  </structure>
  <varray name="forces" >
   <v>      -0.00000000      -0.00000000       0.14821111 </v>
   <v>       0.00000000       0.00000000      -0.14821111 </v>
   <v>       0.00000000       0.00000000      -0.24515814 </v>
   <v>      -0.00000000      -0.00000000       0.24515814 </v>
   <v>      -0.00000000      -0.00000000       0.18596828 </v>
   <v>       0.00000000       0.00000000      -0.18596828 </v>
   <v>       0.00000000       0.00000000      -0.11616956 </v>
   <v>      -0.00000000      -0.00000000       0.11616956 </v>
   <v>      -0.00000000      -0.00000000       0.44024713 </v>
   <v>       0.00000000       0.00000000      -0.44024713 </v>
   <v>       0.00000000       0.00000000      -0.12895159 </v>
   <v>      -0.00000000      -0.00000000       0.12895159 </v>
   <v>       0.00000000       0.00000000      -0.18928280 </v>
   <v>      -0.00000000      -0.00000000       0.18928280 </v>
  </varray>
  <varray name="stress" >
   <v>       6.68435311       0.00000000       0.00000000 </v>
   <v>       0.00000000       6.68435311       0.00000000 </v>
   <v>       0.00000000       0.00000000       1.58215678 </v>
  </varray>
  <energy>
   <i name="e_fr_energy">    -57.33681484 </i>
   <i name="e_wo_entrp">    -57.33658490 </i>
   <i name="e_0_energy">     -0.00045986 </i>
  </energy>
  <time name="totalsc">  260.04  260.91</time>
 </calculation>
 <calculation>
  <scstep>
   <time name="dav">   25.55   25.62</time>
   <time name="total">   28.17   28.26</time>
   <energy>
    <i name="alphaZ">    288.70147496 </i>
    <i name="ewald">  -7119.64562985 </i>
    <i name="hartreedc">  -4777.90672580 </i>
    <i name="XCdc">    379.68125007 </i>
    <i name="pawpsdc">  16275.91889187 </i>
    <i name="pawaedc"> -16567.34589731 </i>
    <i name="eentropy">     -0.00049735 </i>
    <i name="bandstr">   -552.27331255 </i>
    <i name="atom">  12019.53804467 </i>
    <i name="e_fr_energy">    -53.33240128 </i>
    <i name="e_wo_entrp">    -53.33190394 </i>
    <i name="e_0_energy">    -53.33215261 </i>
   </energy>
  </scstep>
  <scstep>
   <time name="dav">   25.54   25.61</time>
   <time name="total">   28.16   28.25</time>
   <energy>
    <i name="e_fr_energy">    -53.19403632 </i>
    <i name="e_wo_entrp">    -53.19346636 </i>
    <i name="e_0_energy">    -53.19375134 </i>
   </energy>
  </scstep>
  <scstep>
   <time name="dav">   24.28   24.35</time>
   <time name="total">   26.89   26.97</time>
   <energy>
    <i name="e_fr_energy">    -53.17249048 </i>
    <i name="e_wo_entrp">    -53.17192256 </i>
    <i name="e_0_energy">    -53.17220652 </i>
   </energy>
  </scstep>
  <scstep>
   <time name="dav">   27.15   27.23</time>
   <time name="total">   29.77   29.86</time>
   <energy>
    <i name="e_fr_energy">    -53.16820931 </i>
    <i name="e_wo_entrp">    -53.16764262 </i>
    <i name="e_0_energy">    -53.16792597 </i>
   </energy>
  </scstep>
  <scstep>
   <time name="dav">   27.14   27.22</time>
   <time name="total">   29.78   29.87</time>
   <energy>
    <i name="e_fr_energy">    -53.16732744 </i>
    <i name="e_wo_entrp">    -53.16676169 </i>
    <i name="e_0_energy">    -53.16704457 </i>
   </energy>
  </scstep>
  <scstep>
   <time name="dav">   28.68   28.76</time>
   <time name="total">   31.32   31.41</time>
   <energy>
    <i name="e_fr_energy">    -53.16720013 </i>
    <i name="e_wo_entrp">    -53.16663459 </i>
    <i name="e_0_energy">    -53.16691736 </i>
   </energy>
  </scstep>
  <scstep>
   <time name="dav">   21.96   22.03</time>
   <time name="total">   24.60   24.68</time>
   <energy>
    <i name="e_fr_energy">    -53.16720647 </i>
    <i name="e_wo_entrp">    -53.16664072 </i>
    <i name="e_0_energy">    -53.16692360 </i>
   </energy>
  </scstep>
  <scstep>
   <time name="dav">   23.78   23.85</time>
   <time name="total">   24.78   24.85</time>
   <energy>
    <i name="alphaZ">    288.70147496 </i>
    <i name="ewald">  -7119.64562985 </i>
    <i name="hartreedc">  -4815.75877359 </i>
    <i name="XCdc">    381.40461339 </i>
    <i name="pawpsdc">  16071.26251029 </i>
    <i name="pawaedc"> -16361.94568391 </i>
    <i name="eentropy">     -0.00056567 </i>
    <i name="bandstr">   -516.72319663 </i>
    <i name="atom">  12019.53804467 </i>
    <i name="e_fr_energy">    -53.16720634 </i>
    <i name="e_wo_entrp">    -53.16664067 </i>
    <i name="e_0_energy">    -53.16692351 </i>
   </energy>
  </scstep>
  <structure>
   <crystal>
    <varray name="basis" >
     <v>       3.90102661       0.00000000       0.00000000 </v>
     <v>      -1.95051331       3.37838815      -0.00000000 </v>
     <v>      -0.00000000      -0.00000000      24.35998001 </v>
    </varray>
    <i name="volume">    321.04461137 </i>
    <varray name="rec_basis" >
     <v>       0.25634278       0.14799957       0.00000000 </v>
     <v>      -0.00000000       0.29599914       0.00000000 </v>
     <v>      -0.00000000      -0.00000000       0.04105094 </v>
    </varray>
   </crystal>
   <varray name="positions" >
    <v>       0.00000000       0.00000000       0.27767551 </v>
    <v>      -0.00000000      -0.00000000       0.72232449 </v>
    <v>       0.33333334       0.66666669       0.11118104 </v>
    <v>       0.66666663       0.33333331       0.88881896 </v>
    <v>       0.33333334       0.66666669       0.21102599 </v>
    <v>       0.66666663       0.33333331       0.78897404 </v>
    <v>       0.33333334       0.66666669       0.93641660 </v>
    <v>       0.66666663       0.33333331       0.06358340 </v>
    <v>       0.33333334       0.66666669       0.67169569 </v>
    <v>       0.66666663       0.33333331       0.32830431 </v>
    <v>       0.33333334       0.66666669       0.43936847 </v>
    <v>       0.66666663       0.33333331       0.56063153 </v>
    <v>       0.33333334       0.66666669       0.54701789 </v>
    <v>       0.66666663       0.33333331       0.45298211 </v>
   </varray>
  </structure>
  <varray name="forces" >
   <v>      -0.00000000      -0.00000000       0.05361143 </v>
   <v>       0.00000000       0.00000000      -0.05361143 </v>
   <v>      -0.00000000      -0.00000000       0.19847002 </v>
   <v>       0.00000000       0.00000000      -0.19847002 </v>
   <v>       0.00000000       0.00000000      -0.17804172 </v>
   <v>      -0.00000000      -0.00000000       0.17804172 </v>
   <v>       0.00000000       0.00000000      -0.09059683 </v>
   <v>      -0.00000000      -0.00000000       0.09059683 </v>
   <v>      -0.00000000      -0.00000000       0.37151019 </v>
   <v>       0.00000000       0.00000000      -0.37151019 </v>
   <v>       0.00000000       0.00000000      -0.08365617 </v>
   <v>      -0.00000000      -0.00000000       0.08365617 </v>
   <v>       0.00000000       0.00000000      -0.16155810 </v>
   <v>      -0.00000000      -0.00000000       0.16155810 </v>
  </varray>
  <varray name="stress" >
   <v>      -0.63962600       0.00000000       0.00000000 </v>
   <v>       0.00000000      -0.63962600       0.00000000 </v>
   <v>       0.00000000       0.00000000     -11.39445260 </v>
  </varray>
  <energy>
   <i name="e_fr_energy">    -57.35339780 </i>
   <i name="e_wo_entrp">    -57.35311497 </i>
   <i name="e_0_energy">     -0.00056567 </i>
  </energy>
  <time name="totalsc">  267.60  268.46</time>
 </calculation>
 <calculation>
  <scstep>
   <time name="dav">   25.74   25.82</time>
   <time name="total">   28.36   28.46</time>
   <energy>
    <i name="alphaZ">    289.50614986 </i>
    <i name="ewald">  -7131.38149220 </i>
    <i name="hartreedc">  -4815.16864686 </i>
    <i name="XCdc">    381.82497869 </i>
    <i name="pawpsdc">  16072.48702208 </i>
    <i name="pawaedc"> -16363.15865756 </i>
    <i name="eentropy">     -0.00056607 </i>
    <i name="bandstr">   -506.80895320 </i>
    <i name="atom">  12019.53804467 </i>
    <i name="e_fr_energy">    -53.16212059 </i>
    <i name="e_wo_entrp">    -53.16155452 </i>
    <i name="e_0_energy">    -53.16183756 </i>
   </energy>
  </scstep>
  <scstep>
   <time name="dav">   26.06   26.14</time>
   <time name="total">   28.67   28.76</time>
   <energy>
    <i name="e_fr_energy">    -53.15643337 </i>
    <i name="e_wo_entrp">    -53.15587800 </i>
    <i name="e_0_energy">    -53.15615569 </i>
   </energy>
  </scstep>
  <scstep>
   <time name="dav">   24.46   24.53</time>
   <time name="total">   27.08   27.16</time>
   <energy>
    <i name="e_fr_energy">    -53.15562792 </i>
    <i name="e_wo_entrp">    -53.15506617 </i>
    <i name="e_0_energy">    -53.15534705 </i>
   </energy>
  </scstep>
  <scstep>
   <time name="dav">   27.16   27.24</time>
   <time name="total">   29.77   29.87</time>
   <energy>
    <i name="e_fr_energy">    -53.15544914 </i>
    <i name="e_wo_entrp">    -53.15488695 </i>
    <i name="e_0_energy">    -53.15516805 </i>
   </energy>
  </scstep>
  <scstep>
   <time name="dav">   25.46   25.54</time>
   <time name="total">   28.07   28.16</time>
   <energy>
    <i name="e_fr_energy">    -53.15544224 </i>
    <i name="e_wo_entrp">    -53.15487855 </i>
    <i name="e_0_energy">    -53.15516039 </i>
   </energy>
  </scstep>
  <scstep>
   <time name="dav">   27.91   28.00</time>
   <time name="total">   30.53   30.62</time>
   <energy>
    <i name="e_fr_energy">    -53.15544472 </i>
    <i name="e_wo_entrp">    -53.15488106 </i>
    <i name="e_0_energy">    -53.15516289 </i>
   </energy>
  </scstep>
  <scstep>
   <time name="dav">   19.92   19.97</time>
   <time name="total">   22.52   22.83</time>
   <energy>
    <i name="e_fr_energy">    -53.15544622 </i>
    <i name="e_wo_entrp">    -53.15488273 </i>
    <i name="e_0_energy">    -53.15516448 </i>
   </energy>
  </scstep>
  <scstep>
   <time name="dav">   14.91   14.95</time>
   <time name="total">   15.89   15.94</time>
   <energy>
    <i name="alphaZ">    289.50614986 </i>
    <i name="ewald">  -7131.38149220 </i>
    <i name="hartreedc">  -4807.59251719 </i>
    <i name="XCdc">    381.48026764 </i>
    <i name="pawpsdc">  16112.27368517 </i>
    <i name="pawaedc"> -16403.08814281 </i>
    <i name="eentropy">     -0.00056358 </i>
    <i name="bandstr">   -513.89087768 </i>
    <i name="atom">  12019.53804467 </i>
    <i name="e_fr_energy">    -53.15544612 </i>
    <i name="e_wo_entrp">    -53.15488254 </i>
    <i name="e_0_energy">    -53.15516433 </i>
   </energy>
  </scstep>
  <structure>
   <crystal>
    <varray name="basis" >
     <v>       3.89736375       0.00000000       0.00000000 </v>
     <v>      -1.94868188       3.37521602      -0.00000000 </v>
     <v>      -0.00000000      -0.00000000      24.33795469 </v>
    </varray>
    <i name="volume">    320.15227613 </i>
    <varray name="rec_basis" >
     <v>       0.25658370       0.14813867       0.00000000 </v>
     <v>      -0.00000000       0.29627733       0.00000000 </v>
     <v>      -0.00000000      -0.00000000       0.04108809 </v>
    </varray>
   </crystal>
   <varray name="positions" >
    <v>       0.00000000       0.00000000       0.27757093 </v>
    <v>      -0.00000000      -0.00000000       0.72242907 </v>
    <v>       0.33333334       0.66666669       0.11129166 </v>
    <v>       0.66666663       0.33333331       0.88870834 </v>
    <v>       0.33333334       0.66666669       0.21086634 </v>
    <v>       0.66666663       0.33333331       0.78913368 </v>
    <v>       0.33333334       0.66666669       0.93647306 </v>
    <v>       0.66666663       0.33333331       0.06352694 </v>
    <v>       0.33333334       0.66666669       0.67164958 </v>
    <v>       0.66666663       0.33333331       0.32835042 </v>
    <v>       0.33333334       0.66666669       0.43936908 </v>
    <v>       0.66666663       0.33333331       0.56063092 </v>
    <v>       0.33333334       0.66666669       0.54716653 </v>
    <v>       0.66666663       0.33333331       0.45283347 </v>
   </varray>
  </structure>
  <varray name="forces" >
   <v>      -0.00000000      -0.00000000       0.07207698 </v>
   <v>       0.00000000       0.00000000      -0.07207698 </v>
   <v>      -0.00000000      -0.00000000       0.11602320 </v>
   <v>       0.00000000       0.00000000      -0.11602320 </v>
   <v>       0.00000000       0.00000000      -0.11074022 </v>
   <v>      -0.00000000      -0.00000000       0.11074022 </v>
   <v>       0.00000000       0.00000000      -0.09575422 </v>
   <v>      -0.00000000      -0.00000000       0.09575422 </v>
   <v>      -0.00000000      -0.00000000       0.38431555 </v>
   <v>       0.00000000       0.00000000      -0.38431555 </v>
   <v>       0.00000000       0.00000000      -0.09266651 </v>
   <v>      -0.00000000      -0.00000000       0.09266651 </v>
   <v>       0.00000000       0.00000000      -0.16692245 </v>
   <v>      -0.00000000      -0.00000000       0.16692245 </v>
  </varray>
  <varray name="stress" >
   <v>       0.95844142       0.00000000       0.00000000 </v>
   <v>      -0.00000000       0.95844142      -0.00000000 </v>
   <v>       0.00000000      -0.00000000      -8.81760595 </v>
  </varray>
  <energy>
   <i name="e_fr_energy">    -57.35448038 </i>
   <i name="e_wo_entrp">    -57.35419858 </i>
   <i name="e_0_energy">     -0.00056358 </i>
  </energy>
  <time name="totalsc">  254.92  256.19</time>
 </calculation>
 <calculation>
  <scstep>
   <time name="dav">   20.92   20.98</time>
   <time name="total">   23.53   23.62</time>
   <energy>
    <i name="alphaZ">    289.50660718 </i>
    <i name="ewald">  -7130.91890540 </i>
    <i name="hartreedc">  -4808.22171200 </i>
    <i name="XCdc">    381.49573999 </i>
    <i name="pawpsdc">  16112.11791481 </i>
    <i name="pawaedc"> -16402.93284301 </i>
    <i name="eentropy">     -0.00055819 </i>
    <i name="bandstr">   -513.74680043 </i>
    <i name="atom">  12019.53804467 </i>
    <i name="e_fr_energy">    -53.16251237 </i>
    <i name="e_wo_entrp">    -53.16195419 </i>
    <i name="e_0_energy">    -53.16223328 </i>
   </energy>
  </scstep>
  <scstep>
   <time name="dav">   27.31   27.39</time>
   <time name="total">   29.93   30.02</time>
   <energy>
    <i name="e_fr_energy">    -53.16230163 </i>
    <i name="e_wo_entrp">    -53.16174646 </i>
    <i name="e_0_energy">    -53.16202404 </i>
   </energy>
  </scstep>
  <scstep>
   <time name="dav">   25.21   25.28</time>
   <time name="total">   27.82   27.92</time>
   <energy>
    <i name="e_fr_energy">    -53.16210357 </i>
    <i name="e_wo_entrp">    -53.16154946 </i>
    <i name="e_0_energy">    -53.16182651 </i>
   </energy>
  </scstep>
  <scstep>
   <time name="dav">   24.77   24.84</time>
   <time name="total">   27.39   27.47</time>
   <energy>
    <i name="e_fr_energy">    -53.16200793 </i>
    <i name="e_wo_entrp">    -53.16145287 </i>
    <i name="e_0_energy">    -53.16173040 </i>
   </energy>
  </scstep>
  <scstep>
   <time name="dav">   25.97   26.05</time>
   <time name="total">   28.61   28.71</time>
   <energy>
    <i name="e_fr_energy">    -53.16198061 </i>
    <i name="e_wo_entrp">    -53.16142672 </i>
    <i name="e_0_energy">    -53.16170367 </i>
   </energy>
  </scstep>
  <scstep>
   <time name="dav">   21.85   21.92</time>
   <time name="total">   24.48   24.56</time>
   <energy>
    <i name="e_fr_energy">    -53.16198193 </i>
    <i name="e_wo_entrp">    -53.16142736 </i>
    <i name="e_0_energy">    -53.16170465 </i>
   </energy>
  </scstep>
  <scstep>
   <time name="dav">   16.40   16.45</time>
   <time name="total">   17.40   17.46</time>
   <energy>
    <i name="alphaZ">    289.50660718 </i>
    <i name="ewald">  -7130.91890540 </i>
    <i name="hartreedc">  -4807.95151661 </i>
    <i name="XCdc">    381.49522995 </i>
    <i name="pawpsdc">  16123.52932178 </i>
    <i name="pawaedc"> -16414.36147509 </i>
    <i name="eentropy">     -0.00055465 </i>
    <i name="bandstr">   -513.99873392 </i>
    <i name="atom">  12019.53804467 </i>
    <i name="e_fr_energy">    -53.16198209 </i>
    <i name="e_wo_entrp">    -53.16142744 </i>
    <i name="e_0_energy">    -53.16170476 </i>
   </energy>
  </scstep>
  <structure>
   <crystal>
    <varray name="basis" >
     <v>       3.89922499       0.00000000       0.00000000 </v>
     <v>      -1.94961250       3.37682790      -0.00000000 </v>
     <v>      -0.00000000      -0.00000000      24.31468711 </v>
    </varray>
    <i name="volume">    320.15177040 </i>
    <varray name="rec_basis" >
     <v>       0.25646122       0.14806795       0.00000000 </v>
     <v>      -0.00000000       0.29613591       0.00000000 </v>
     <v>      -0.00000000      -0.00000000       0.04112741 </v>
    </varray>
   </crystal>
   <varray name="positions" >
    <v>       0.00000000       0.00000000       0.27763847 </v>
    <v>      -0.00000000      -0.00000000       0.72236153 </v>
    <v>       0.33333334       0.66666669       0.11130066 </v>
    <v>       0.66666663       0.33333331       0.88869934 </v>
    <v>       0.33333334       0.66666669       0.21087708 </v>
    <v>       0.66666663       0.33333331       0.78912295 </v>
    <v>       0.33333334       0.66666669       0.93641281 </v>
    <v>       0.66666663       0.33333331       0.06358719 </v>
    <v>       0.33333334       0.66666669       0.67182687 </v>
    <v>       0.66666663       0.33333331       0.32817313 </v>
    <v>       0.33333334       0.66666669       0.43933009 </v>
    <v>       0.66666663       0.33333331       0.56066991 </v>
    <v>       0.33333334       0.66666669       0.54704355 </v>
    <v>       0.66666663       0.33333331       0.45295645 </v>
   </varray>
  </structure>
  <varray name="forces" >
   <v>      -0.00000000      -0.00000000       0.03747407 </v>
   <v>       0.00000000       0.00000000      -0.03747407 </v>
   <v>      -0.00000000      -0.00000000       0.10419087 </v>
   <v>       0.00000000       0.00000000      -0.10419087 </v>
   <v>       0.00000000       0.00000000      -0.09778076 </v>
   <v>      -0.00000000      -0.00000000       0.09778076 </v>
   <v>       0.00000000       0.00000000      -0.08695810 </v>
   <v>      -0.00000000      -0.00000000       0.08695810 </v>
   <v>      -0.00000000      -0.00000000       0.34099367 </v>
   <v>       0.00000000       0.00000000      -0.34099367 </v>
   <v>       0.00000000       0.00000000      -0.09447253 </v>
   <v>      -0.00000000      -0.00000000       0.09447253 </v>
   <v>       0.00000000       0.00000000      -0.16062460 </v>
   <v>      -0.00000000      -0.00000000       0.16062460 </v>
  </varray>
  <varray name="stress" >
   <v>       0.82659995       0.00000000       0.00000000 </v>
   <v>       0.00000000       0.82659995      -0.00000000 </v>
   <v>       0.00000000       0.00000000      -7.48253888 </v>
  </varray>
  <energy>
   <i name="e_fr_energy">    -57.36093637 </i>
   <i name="e_wo_entrp">    -57.36065904 </i>
   <i name="e_0_energy">     -0.00055465 </i>
  </energy>
  <time name="totalsc">  223.23  224.00</time>
 </calculation>
 <calculation>
  <scstep>
   <time name="dav">   20.73   20.79</time>
   <time name="total">   23.34   23.42</time>
   <energy>
    <i name="alphaZ">    289.51036291 </i>
    <i name="ewald">  -7129.54052759 </i>
    <i name="hartreedc">  -4809.86648174 </i>
    <i name="XCdc">    381.54363599 </i>
    <i name="pawpsdc">  16123.61320562 </i>
    <i name="pawaedc"> -16414.44792591 </i>
    <i name="eentropy">     -0.00052725 </i>
    <i name="bandstr">   -513.53119642 </i>
    <i name="atom">  12019.53804467 </i>
    <i name="e_fr_energy">    -53.18140973 </i>
    <i name="e_wo_entrp">    -53.18088248 </i>
    <i name="e_0_energy">    -53.18114610 </i>
   </energy>
  </scstep>
  <scstep>
   <time name="dav">   27.01   27.09</time>
   <time name="total">   29.62   29.71</time>
   <energy>
    <i name="e_fr_energy">    -53.17948832 </i>
    <i name="e_wo_entrp">    -53.17898898 </i>
    <i name="e_0_energy">    -53.17923865 </i>
   </energy>
  </scstep>
  <scstep>
   <time name="dav">   25.39   25.47</time>
   <time name="total">   28.01   28.09</time>
   <energy>
    <i name="e_fr_energy">    -53.17770109 </i>
    <i name="e_wo_entrp">    -53.17721124 </i>
    <i name="e_0_energy">    -53.17745617 </i>
   </energy>
  </scstep>
  <scstep>
   <time name="dav">   24.70   24.77</time>
   <time name="total">   27.30   27.39</time>
   <energy>
    <i name="e_fr_energy">    -53.17684543 </i>
    <i name="e_wo_entrp">    -53.17634648 </i>
    <i name="e_0_energy">    -53.17659596 </i>
   </energy>
  </scstep>
  <scstep>
   <time name="dav">   26.16   26.24</time>
   <time name="total">   28.77   28.86</time>
   <energy>
    <i name="e_fr_energy">    -53.17659117 </i>
    <i name="e_wo_entrp">    -53.17610496 </i>
    <i name="e_0_energy">    -53.17634807 </i>
   </energy>
  </scstep>
  <scstep>
   <time name="dav">   22.01   22.08</time>
   <time name="total">   24.63   24.70</time>
   <energy>
    <i name="e_fr_energy">    -53.17660209 </i>
    <i name="e_wo_entrp">    -53.17610855 </i>
    <i name="e_0_energy">    -53.17635532 </i>
   </energy>
  </scstep>
  <scstep>
   <time name="dav">   24.85   24.92</time>
   <time name="total">   27.46   27.55</time>
   <energy>
    <i name="e_fr_energy">    -53.17660390 </i>
    <i name="e_wo_entrp">    -53.17610975 </i>
    <i name="e_0_energy">    -53.17635682 </i>
   </energy>
  </scstep>
  <scstep>
   <time name="dav">   19.51   19.57</time>
   <time name="total">   20.49   20.55</time>
   <energy>
    <i name="alphaZ">    289.51036291 </i>
    <i name="ewald">  -7129.54052759 </i>
    <i name="hartreedc">  -4809.05082503 </i>
    <i name="XCdc">    381.54145938 </i>
    <i name="pawpsdc">  16158.29012974 </i>
    <i name="pawaedc"> -16449.18509361 </i>
    <i name="eentropy">     -0.00049387 </i>
    <i name="bandstr">   -514.27966121 </i>
    <i name="atom">  12019.53804467 </i>
    <i name="e_fr_energy">    -53.17660460 </i>
    <i name="e_wo_entrp">    -53.17611073 </i>
    <i name="e_0_energy">    -53.17635767 </i>
   </energy>
  </scstep>
  <structure>
   <crystal>
    <varray name="basis" >
     <v>       3.90480870       0.00000000       0.00000000 </v>
     <v>      -1.95240435       3.38166353      -0.00000000 </v>
     <v>      -0.00000000      -0.00000000      24.24488436 </v>
    </varray>
    <i name="volume">    320.14761718 </i>
    <varray name="rec_basis" >
     <v>       0.25609449       0.14785622       0.00000000 </v>
     <v>      -0.00000000       0.29571245       0.00000000 </v>
     <v>      -0.00000000      -0.00000000       0.04124581 </v>
    </varray>
   </crystal>
   <varray name="positions" >
    <v>       0.00000000       0.00000000       0.27784130 </v>
    <v>      -0.00000000      -0.00000000       0.72215870 </v>
    <v>       0.33333334       0.66666669       0.11132770 </v>
    <v>       0.66666663       0.33333331       0.88867230 </v>
    <v>       0.33333334       0.66666669       0.21090931 </v>
    <v>       0.66666663       0.33333331       0.78909072 </v>
    <v>       0.33333334       0.66666669       0.93623189 </v>
    <v>       0.66666663       0.33333331       0.06376811 </v>
    <v>       0.33333334       0.66666669       0.67235925 </v>
    <v>       0.66666663       0.33333331       0.32764075 </v>
    <v>       0.33333334       0.66666669       0.43921300 </v>
    <v>       0.66666663       0.33333331       0.56078700 </v>
    <v>       0.33333334       0.66666669       0.54667426 </v>
    <v>       0.66666663       0.33333331       0.45332574 </v>
   </varray>
  </structure>
  <varray name="forces" >
   <v>       0.00000000       0.00000000      -0.06415380 </v>
   <v>      -0.00000000      -0.00000000       0.06415380 </v>
   <v>      -0.00000000      -0.00000000       0.06854226 </v>
   <v>       0.00000000       0.00000000      -0.06854226 </v>
   <v>       0.00000000       0.00000000      -0.05840186 </v>
   <v>      -0.00000000      -0.00000000       0.05840186 </v>
   <v>       0.00000000       0.00000000      -0.06115698 </v>
   <v>      -0.00000000      -0.00000000       0.06115698 </v>
   <v>      -0.00000000      -0.00000000       0.21315308 </v>
   <v>       0.00000000       0.00000000      -0.21315308 </v>
   <v>       0.00000000       0.00000000      -0.10139604 </v>
   <v>      -0.00000000      -0.00000000       0.10139604 </v>
   <v>       0.00000000       0.00000000      -0.14035732 </v>
   <v>      -0.00000000      -0.00000000       0.14035732 </v>
  </varray>
  <varray name="stress" >
   <v>       0.12768963       0.00000000       0.00000000 </v>
   <v>      -0.00000000       0.12768963      -0.00000000 </v>
   <v>       0.00000000       0.00000000      -3.77134434 </v>
  </varray>
  <energy>
   <i name="e_fr_energy">    -57.37535480 </i>
   <i name="e_wo_entrp">    -57.37510786 </i>
   <i name="e_0_energy">     -0.00049387 </i>
  </energy>
  <time name="totalsc">  253.73  254.97</time>
 </calculation>
 <calculation>
  <scstep>
   <time name="dav">   20.85   20.91</time>
   <time name="total">   23.47   23.54</time>
   <energy>
    <i name="alphaZ">    289.52863673 </i>
    <i name="ewald">  -7126.82519173 </i>
    <i name="hartreedc">  -4812.91346114 </i>
    <i name="XCdc">    381.64405306 </i>
    <i name="pawpsdc">  16158.14826804 </i>
    <i name="pawaedc"> -16449.04296567 </i>
    <i name="eentropy">     -0.00037516 </i>
    <i name="bandstr">   -513.27983410 </i>
    <i name="atom">  12019.53804467 </i>
    <i name="e_fr_energy">    -53.20282530 </i>
    <i name="e_wo_entrp">    -53.20245014 </i>
    <i name="e_0_energy">    -53.20263772 </i>
   </energy>
  </scstep>
  <scstep>
   <time name="dav">   27.25   27.33</time>
   <time name="total">   29.87   29.96</time>
   <energy>
    <i name="e_fr_energy">    -53.19509159 </i>
    <i name="e_wo_entrp">    -53.19482560 </i>
    <i name="e_0_energy">    -53.19495860 </i>
   </energy>
  </scstep>
  <scstep>
   <time name="dav">   25.58   25.65</time>
   <time name="total">   28.20   28.29</time>
   <energy>
    <i name="e_fr_energy">    -53.18794431 </i>
    <i name="e_wo_entrp">    -53.18770878 </i>
    <i name="e_0_energy">    -53.18782654 </i>
   </energy>
  </scstep>
  <scstep>
   <time name="dav">   24.70   24.78</time>
   <time name="total">   27.34   27.43</time>
   <energy>
    <i name="e_fr_energy">    -53.18452059 </i>
    <i name="e_wo_entrp">    -53.18425931 </i>
    <i name="e_0_energy">    -53.18438995 </i>
   </energy>
  </scstep>
  <scstep>
   <time name="dav">   26.28   26.36</time>
   <time name="total">   28.92   29.01</time>
   <energy>
    <i name="e_fr_energy">    -53.18344743 </i>
    <i name="e_wo_entrp">    -53.18322116 </i>
    <i name="e_0_energy">    -53.18333430 </i>
   </energy>
  </scstep>
  <scstep>
   <time name="dav">   21.97   22.03</time>
   <time name="total">   24.61   24.68</time>
   <energy>
    <i name="e_fr_energy">    -53.18348990 </i>
    <i name="e_wo_entrp">    -53.18324778 </i>
    <i name="e_0_energy">    -53.18336884 </i>
   </energy>
  </scstep>
  <scstep>
   <time name="dav">   25.40   25.47</time>
   <time name="total">   28.03   29.14</time>
   <energy>
    <i name="e_fr_energy">    -53.18349744 </i>
    <i name="e_wo_entrp">    -53.18325092 </i>
    <i name="e_0_energy">    -53.18337418 </i>
   </energy>
  </scstep>
  <scstep>
   <time name="dav">   22.77   22.83</time>
   <time name="total">   25.38   25.46</time>
   <energy>
    <i name="e_fr_energy">    -53.18350014 </i>
    <i name="e_wo_entrp">    -53.18325459 </i>
    <i name="e_0_energy">    -53.18337736 </i>
   </energy>
  </scstep>
  <scstep>
   <time name="dav">   19.64   19.69</time>
   <time name="total">   20.62   20.68</time>
   <energy>
    <i name="alphaZ">    289.52863673 </i>
    <i name="ewald">  -7126.82519173 </i>
    <i name="hartreedc">  -4811.15505957 </i>
    <i name="XCdc">    381.63374755 </i>
    <i name="pawpsdc">  16227.95830549 </i>
    <i name="pawaedc"> -16518.98152134 </i>
    <i name="eentropy">     -0.00024407 </i>
    <i name="bandstr">   -514.88021714 </i>
    <i name="atom">  12019.53804467 </i>
    <i name="e_fr_energy">    -53.18349941 </i>
    <i name="e_wo_entrp">    -53.18325534 </i>
    <i name="e_0_energy">    -53.18337737 </i>
   </energy>
  </scstep>
  <structure>
   <crystal>
    <varray name="basis" >
     <v>       3.91597612       0.00000000       0.00000000 </v>
     <v>      -1.95798806       3.39133480      -0.00000000 </v>
     <v>      -0.00000000      -0.00000000      24.10527886 </v>
    </varray>
    <i name="volume">    320.12741082 </i>
    <varray name="rec_basis" >
     <v>       0.25536417       0.14743457       0.00000000 </v>
     <v>      -0.00000000       0.29486915       0.00000000 </v>
     <v>      -0.00000000      -0.00000000       0.04148469 </v>
    </varray>
   </crystal>
   <varray name="positions" >
    <v>       0.00000000       0.00000000       0.27824813 </v>
    <v>      -0.00000000      -0.00000000       0.72175187 </v>
    <v>       0.33333334       0.66666669       0.11138194 </v>
    <v>       0.66666663       0.33333331       0.88861806 </v>
    <v>       0.33333334       0.66666669       0.21097395 </v>
    <v>       0.66666663       0.33333331       0.78902607 </v>
    <v>       0.33333334       0.66666669       0.93586901 </v>
    <v>       0.66666663       0.33333331       0.06413099 </v>
    <v>       0.33333334       0.66666669       0.67342707 </v>
    <v>       0.66666663       0.33333331       0.32657293 </v>
    <v>       0.33333334       0.66666669       0.43897815 </v>
    <v>       0.66666663       0.33333331       0.56102185 </v>
    <v>       0.33333334       0.66666669       0.54593356 </v>
    <v>       0.66666663       0.33333331       0.45406644 </v>
   </varray>
  </structure>
  <varray name="forces" >
   <v>       0.00000000       0.00000000      -0.26225328 </v>
   <v>      -0.00000000      -0.00000000       0.26225328 </v>
   <v>       0.00000000       0.00000000      -0.01018867 </v>
   <v>      -0.00000000      -0.00000000       0.01018867 </v>
   <v>      -0.00000000      -0.00000000       0.02551667 </v>
   <v>       0.00000000       0.00000000      -0.02551667 </v>
   <v>       0.00000000       0.00000000      -0.00933823 </v>
   <v>      -0.00000000      -0.00000000       0.00933823 </v>
   <v>       0.00000000       0.00000000      -0.03837002 </v>
   <v>      -0.00000000      -0.00000000       0.03837002 </v>
   <v>       0.00000000       0.00000000      -0.11716463 </v>
   <v>      -0.00000000      -0.00000000       0.11716463 </v>
   <v>       0.00000000       0.00000000      -0.09317391 </v>
   <v>      -0.00000000      -0.00000000       0.09317391 </v>
  </varray>
  <varray name="stress" >
   <v>      -0.86528732       0.00000000       0.00000000 </v>
   <v>       0.00000000      -0.86528732      -0.00000000 </v>
   <v>       0.00000000       0.00000000       4.09123601 </v>
  </varray>
  <energy>
   <i name="e_fr_energy">    -57.38200431 </i>
   <i name="e_wo_entrp">    -57.38188228 </i>
   <i name="e_0_energy">     -0.00024407 </i>
  </energy>
  <time name="totalsc">  280.47  282.38</time>
 </calculation>
 <calculation>
  <scstep>
   <time name="dav">   20.72   20.78</time>
   <time name="total">   23.33   23.41</time>
   <energy>
    <i name="alphaZ">    289.52229246 </i>
    <i name="ewald">  -7127.57452472 </i>
    <i name="hartreedc">  -4810.04792117 </i>
    <i name="XCdc">    381.60505145 </i>
    <i name="pawpsdc">  16227.52635662 </i>
    <i name="pawaedc"> -16518.55020262 </i>
    <i name="eentropy">     -0.00027879 </i>
    <i name="bandstr">   -515.20480011 </i>
    <i name="atom">  12019.53804467 </i>
    <i name="e_fr_energy">    -53.18598220 </i>
    <i name="e_wo_entrp">    -53.18570342 </i>
    <i name="e_0_energy">    -53.18584281 </i>
   </energy>
  </scstep>
  <scstep>
   <time name="dav">   27.21   27.29</time>
   <time name="total">   29.82   29.91</time>
   <energy>
    <i name="e_fr_energy">    -53.18539210 </i>
    <i name="e_wo_entrp">    -53.18508197 </i>
    <i name="e_0_energy">    -53.18523704 </i>
   </energy>
  </scstep>
  <scstep>
   <time name="dav">   25.01   25.08</time>
   <time name="total">   27.61   27.69</time>
   <energy>
    <i name="e_fr_energy">    -53.18487626 </i>
    <i name="e_wo_entrp">    -53.18455576 </i>
    <i name="e_0_energy">    -53.18471601 </i>
   </energy>
  </scstep>
  <scstep>
   <time name="dav">   24.72   24.80</time>
   <time name="total">   27.34   27.42</time>
   <energy>
    <i name="e_fr_energy">    -53.18461674 </i>
    <i name="e_wo_entrp">    -53.18430366 </i>
    <i name="e_0_energy">    -53.18446020 </i>
   </energy>
  </scstep>
  <scstep>
   <time name="dav">   25.35   25.43</time>
   <time name="total">   27.97   28.09</time>
   <energy>
    <i name="e_fr_energy">    -53.18454467 </i>
    <i name="e_wo_entrp">    -53.18422182 </i>
    <i name="e_0_energy">    -53.18438324 </i>
   </energy>
  </scstep>
  <scstep>
   <time name="dav">   21.78   21.85</time>
   <time name="total">   24.40   24.47</time>
   <energy>
    <i name="e_fr_energy">    -53.18454736 </i>
    <i name="e_wo_entrp">    -53.18422925 </i>
    <i name="e_0_energy">    -53.18438830 </i>
   </energy>
  </scstep>
  <scstep>
   <time name="dav">   19.92   19.98</time>
   <time name="total">   20.92   20.99</time>
   <energy>
    <i name="alphaZ">    289.52229246 </i>
    <i name="ewald">  -7127.57452472 </i>
    <i name="hartreedc">  -4810.57349953 </i>
    <i name="XCdc">    381.60859751 </i>
    <i name="pawpsdc">  16207.79553297 </i>
    <i name="pawaedc"> -16498.78506902 </i>
    <i name="eentropy">     -0.00031697 </i>
    <i name="bandstr">   -514.71560490 </i>
    <i name="atom">  12019.53804467 </i>
    <i name="e_fr_energy">    -53.18454753 </i>
    <i name="e_wo_entrp">    -53.18423056 </i>
    <i name="e_0_energy">    -53.18438905 </i>
   </energy>
  </scstep>
  <structure>
   <crystal>
    <varray name="basis" >
     <v>       3.91296471       0.00000000       0.00000000 </v>
     <v>      -1.95648236       3.38872684      -0.00000000 </v>
     <v>      -0.00000000      -0.00000000      24.14292494 </v>
    </varray>
    <i name="volume">    320.13442573 </i>
    <varray name="rec_basis" >
     <v>       0.25556070       0.14754804       0.00000000 </v>
     <v>      -0.00000000       0.29509608       0.00000000 </v>
     <v>      -0.00000000      -0.00000000       0.04142000 </v>
    </varray>
   </crystal>
   <varray name="positions" >
    <v>       0.00000000       0.00000000       0.27813779 </v>
    <v>      -0.00000000      -0.00000000       0.72186221 </v>
    <v>       0.33333334       0.66666669       0.11136723 </v>
    <v>       0.66666663       0.33333331       0.88863277 </v>
    <v>       0.33333334       0.66666669       0.21095642 </v>
    <v>       0.66666663       0.33333331       0.78904361 </v>
    <v>       0.33333334       0.66666669       0.93596743 </v>
    <v>       0.66666663       0.33333331       0.06403257 </v>
    <v>       0.33333334       0.66666669       0.67313746 </v>
    <v>       0.66666663       0.33333331       0.32686254 </v>
    <v>       0.33333334       0.66666669       0.43904184 </v>
    <v>       0.66666663       0.33333331       0.56095816 </v>
    <v>       0.33333334       0.66666669       0.54613445 </v>
    <v>       0.66666663       0.33333331       0.45386555 </v>
   </varray>
  </structure>
  <varray name="forces" >
   <v>       0.00000000       0.00000000      -0.20880426 </v>
   <v>      -0.00000000      -0.00000000       0.20880426 </v>
   <v>      -0.00000000      -0.00000000       0.01229002 </v>
   <v>       0.00000000       0.00000000      -0.01229002 </v>
   <v>      -0.00000000      -0.00000000       0.00201328 </v>
   <v>       0.00000000       0.00000000      -0.00201328 </v>
   <v>       0.00000000       0.00000000      -0.02326017 </v>
   <v>      -0.00000000      -0.00000000       0.02326017 </v>
   <v>      -0.00000000      -0.00000000       0.02912527 </v>
   <v>       0.00000000       0.00000000      -0.02912527 </v>
   <v>       0.00000000       0.00000000      -0.11234212 </v>
   <v>      -0.00000000      -0.00000000       0.11234212 </v>
   <v>       0.00000000       0.00000000      -0.10689693 </v>
   <v>      -0.00000000      -0.00000000       0.10689693 </v>
  </varray>
  <varray name="stress" >
   <v>      -0.71576354       0.00000000       0.00000000 </v>
   <v>       0.00000000      -0.71576354       0.00000000 </v>
   <v>       0.00000000      -0.00000000       2.00030543 </v>
  </varray>
  <energy>
   <i name="e_fr_energy">    -57.38309853 </i>
   <i name="e_wo_entrp">    -57.38294005 </i>
   <i name="e_0_energy">     -0.00031697 </i>
  </energy>
  <time name="totalsc">  225.63  226.63</time>
 </calculation>
 <calculation>
  <scstep>
   <time name="dav">   21.56   21.63</time>
   <time name="total">   24.18   24.26</time>
   <energy>
    <i name="alphaZ">    289.46317698 </i>
    <i name="ewald">  -7128.90341100 </i>
    <i name="hartreedc">  -4808.35785024 </i>
    <i name="XCdc">    381.58101690 </i>
    <i name="pawpsdc">  16207.60558013 </i>
    <i name="pawaedc"> -16498.59379057 </i>
    <i name="eentropy">     -0.00031294 </i>
    <i name="bandstr">   -515.52092320 </i>
    <i name="atom">  12019.53804467 </i>
    <i name="e_fr_energy">    -53.18846926 </i>
    <i name="e_wo_entrp">    -53.18815632 </i>
    <i name="e_0_energy">    -53.18831279 </i>
   </energy>
  </scstep>
  <scstep>
   <time name="dav">   27.35   27.43</time>
   <time name="total">   29.97   30.06</time>
   <energy>
    <i name="e_fr_energy">    -53.18957735 </i>
    <i name="e_wo_entrp">    -53.18922703 </i>
    <i name="e_0_energy">    -53.18940219 </i>
   </energy>
  </scstep>
  <scstep>
   <time name="dav">   26.05   26.12</time>
   <time name="total">   28.69   28.77</time>
   <energy>
    <i name="e_fr_energy">    -53.18953367 </i>
    <i name="e_wo_entrp">    -53.18920776 </i>
    <i name="e_0_energy">    -53.18937072 </i>
   </energy>
  </scstep>
  <scstep>
   <time name="dav">   26.11   26.19</time>
   <time name="total">   28.76   28.84</time>
   <energy>
    <i name="e_fr_energy">    -53.18951659 </i>
    <i name="e_wo_entrp">    -53.18919169 </i>
    <i name="e_0_energy">    -53.18935414 </i>
   </energy>
  </scstep>
  <scstep>
   <time name="dav">   27.01   27.09</time>
   <time name="total">   29.64   29.76</time>
   <energy>
    <i name="e_fr_energy">    -53.18950834 </i>
    <i name="e_wo_entrp">    -53.18918596 </i>
    <i name="e_0_energy">    -53.18934715 </i>
   </energy>
  </scstep>
  <scstep>
   <time name="dav">   25.12   25.19</time>
   <time name="total">   27.74   27.82</time>
   <energy>
    <i name="e_fr_energy">    -53.18950634 </i>
    <i name="e_wo_entrp">    -53.18918704 </i>
    <i name="e_0_energy">    -53.18934669 </i>
   </energy>
  </scstep>
  <scstep>
   <time name="dav">   18.03   18.08</time>
   <time name="total">   19.02   19.08</time>
   <energy>
    <i name="alphaZ">    289.46317698 </i>
    <i name="ewald">  -7128.90341100 </i>
    <i name="hartreedc">  -4808.99261270 </i>
    <i name="XCdc">    381.60577192 </i>
    <i name="pawpsdc">  16207.68966382 </i>
    <i name="pawaedc"> -16498.67718779 </i>
    <i name="eentropy">     -0.00031841 </i>
    <i name="bandstr">   -514.91263362 </i>
    <i name="atom">  12019.53804467 </i>
    <i name="e_fr_energy">    -53.18950612 </i>
    <i name="e_wo_entrp">    -53.18918770 </i>
    <i name="e_0_energy">    -53.18934691 </i>
   </energy>
  </scstep>
  <structure>
   <crystal>
    <varray name="basis" >
     <v>       3.91299304       0.00000000       0.00000000 </v>
     <v>      -1.95649652       3.38875138      -0.00000000 </v>
     <v>      -0.00000000      -0.00000000      24.14750586 </v>
    </varray>
    <i name="volume">    320.19980503 </i>
    <varray name="rec_basis" >
     <v>       0.25555885       0.14754697       0.00000000 </v>
     <v>      -0.00000000       0.29509394       0.00000000 </v>
     <v>      -0.00000000      -0.00000000       0.04141214 </v>
    </varray>
   </crystal>
   <varray name="positions" >
    <v>       0.00000000       0.00000000       0.27795745 </v>
    <v>      -0.00000000      -0.00000000       0.72204255 </v>
    <v>       0.33333334       0.66666669       0.11138510 </v>
    <v>       0.66666663       0.33333331       0.88861490 </v>
    <v>       0.33333334       0.66666669       0.21096452 </v>
    <v>       0.66666663       0.33333331       0.78903550 </v>
    <v>       0.33333334       0.66666669       0.93590945 </v>
    <v>       0.66666663       0.33333331       0.06409055 </v>
    <v>       0.33333334       0.66666669       0.67326700 </v>
    <v>       0.66666663       0.33333331       0.32673300 </v>
    <v>       0.33333334       0.66666669       0.43890270 </v>
    <v>       0.66666663       0.33333331       0.56109730 </v>
    <v>       0.33333334       0.66666669       0.54595404 </v>
    <v>       0.66666663       0.33333331       0.45404596 </v>
   </varray>
  </structure>
  <varray name="forces" >
   <v>       0.00000000       0.00000000      -0.18242049 </v>
   <v>      -0.00000000      -0.00000000       0.18242049 </v>
   <v>      -0.00000000      -0.00000000       0.01574847 </v>
   <v>       0.00000000       0.00000000      -0.01574847 </v>
   <v>       0.00000000       0.00000000      -0.01793110 </v>
   <v>      -0.00000000      -0.00000000       0.01793110 </v>
   <v>       0.00000000       0.00000000      -0.01727919 </v>
   <v>      -0.00000000      -0.00000000       0.01727919 </v>
   <v>      -0.00000000      -0.00000000       0.03254959 </v>
   <v>       0.00000000       0.00000000      -0.03254959 </v>
   <v>       0.00000000       0.00000000      -0.10106554 </v>
   <v>      -0.00000000      -0.00000000       0.10106554 </v>
   <v>       0.00000000       0.00000000      -0.10365301 </v>
   <v>      -0.00000000      -0.00000000       0.10365301 </v>
  </varray>
  <varray name="stress" >
   <v>      -0.89948107      -0.00000000       0.00000000 </v>
   <v>       0.00000000      -0.89948107      -0.00000000 </v>
   <v>       0.00000000      -0.00000000       2.11060063 </v>
  </varray>
  <energy>
   <i name="e_fr_energy">    -57.38677158 </i>
   <i name="e_wo_entrp">    -57.38661238 </i>
   <i name="e_0_energy">     -0.00031841 </i>
  </energy>
  <time name="totalsc">  232.02  232.86</time>
 </calculation>
 <calculation>
  <scstep>
   <time name="dav">   21.44   21.50</time>
   <time name="total">   24.05   24.13</time>
   <energy>
    <i name="alphaZ">    289.28596558 </i>
    <i name="ewald">  -7132.69711476 </i>
    <i name="hartreedc">  -4802.52331403 </i>
    <i name="XCdc">    381.52230417 </i>
    <i name="pawpsdc">  16208.30494769 </i>
    <i name="pawaedc"> -16499.29141517 </i>
    <i name="eentropy">     -0.00030238 </i>
    <i name="bandstr">   -517.33143288 </i>
    <i name="atom">  12019.53804467 </i>
    <i name="e_fr_energy">    -53.19231710 </i>
    <i name="e_wo_entrp">    -53.19201472 </i>
    <i name="e_0_energy">    -53.19216591 </i>
   </energy>
  </scstep>
  <scstep>
   <time name="dav">   27.30   27.38</time>
   <time name="total">   29.91   30.01</time>
   <energy>
    <i name="e_fr_energy">    -53.20299953 </i>
    <i name="e_wo_entrp">    -53.20259315 </i>
    <i name="e_0_energy">    -53.20279634 </i>
   </energy>
  </scstep>
  <scstep>
   <time name="dav">   25.91   25.99</time>
   <time name="total">   28.52   28.62</time>
   <energy>
    <i name="e_fr_energy">    -53.20262063 </i>
    <i name="e_wo_entrp">    -53.20228041 </i>
    <i name="e_0_energy">    -53.20245052 </i>
   </energy>
  </scstep>
  <scstep>
   <time name="dav">   26.68   26.76</time>
   <time name="total">   29.29   29.38</time>
   <energy>
    <i name="e_fr_energy">    -53.20246431 </i>
    <i name="e_wo_entrp">    -53.20212605 </i>
    <i name="e_0_energy">    -53.20229518 </i>
   </energy>
  </scstep>
  <scstep>
   <time name="dav">   26.32   26.40</time>
   <time name="total">   28.93   29.02</time>
   <energy>
    <i name="e_fr_energy">    -53.20239104 </i>
    <i name="e_wo_entrp">    -53.20206061 </i>
    <i name="e_0_energy">    -53.20222582 </i>
   </energy>
  </scstep>
  <scstep>
   <time name="dav">   27.16   27.25</time>
   <time name="total">   29.79   29.88</time>
   <energy>
    <i name="e_fr_energy">    -53.20237941 </i>
    <i name="e_wo_entrp">    -53.20205713 </i>
    <i name="e_0_energy">    -53.20221827 </i>
   </energy>
  </scstep>
  <scstep>
   <time name="dav">   24.21   24.28</time>
   <time name="total">   26.82   26.90</time>
   <energy>
    <i name="e_fr_energy">    -53.20238011 </i>
    <i name="e_wo_entrp">    -53.20206009 </i>
    <i name="e_0_energy">    -53.20222010 </i>
   </energy>
  </scstep>
  <scstep>
   <time name="dav">   16.79   16.84</time>
   <time name="total">   18.19   18.25</time>
   <energy>
    <i name="alphaZ">    289.28596558 </i>
    <i name="ewald">  -7132.69711476 </i>
    <i name="hartreedc">  -4804.41620750 </i>
    <i name="XCdc">    381.59621975 </i>
    <i name="pawpsdc">  16210.27872867 </i>
    <i name="pawaedc"> -16501.25918707 </i>
    <i name="eentropy">     -0.00031790 </i>
    <i name="bandstr">   -515.52851111 </i>
    <i name="atom">  12019.53804467 </i>
    <i name="e_fr_energy">    -53.20237967 </i>
    <i name="e_wo_entrp">    -53.20206177 </i>
    <i name="e_0_energy">    -53.20222072 </i>
   </energy>
  </scstep>
  <structure>
   <crystal>
    <varray name="basis" >
     <v>       3.91307803       0.00000000       0.00000000 </v>
     <v>      -1.95653902       3.38882498      -0.00000000 </v>
     <v>      -0.00000000      -0.00000000      24.16124864 </v>
    </varray>
    <i name="volume">    320.39595369 </i>
    <varray name="rec_basis" >
     <v>       0.25555330       0.14754377       0.00000000 </v>
     <v>      -0.00000000       0.29508753       0.00000000 </v>
     <v>      -0.00000000      -0.00000000       0.04138859 </v>
    </varray>
   </crystal>
   <varray name="positions" >
    <v>       0.00000000       0.00000000       0.27741652 </v>
    <v>      -0.00000000      -0.00000000       0.72258348 </v>
    <v>       0.33333334       0.66666669       0.11143871 </v>
    <v>       0.66666663       0.33333331       0.88856129 </v>
    <v>       0.33333334       0.66666669       0.21098883 </v>
    <v>       0.66666663       0.33333331       0.78901120 </v>
    <v>       0.33333334       0.66666669       0.93573554 </v>
    <v>       0.66666663       0.33333331       0.06426446 </v>
    <v>       0.33333334       0.66666669       0.67365556 </v>
    <v>       0.66666663       0.33333331       0.32634444 </v>
    <v>       0.33333334       0.66666669       0.43848533 </v>
    <v>       0.66666663       0.33333331       0.56151467 </v>
    <v>       0.33333334       0.66666669       0.54541289 </v>
    <v>       0.66666663       0.33333331       0.45458711 </v>
   </varray>
  </structure>
  <varray name="forces" >
   <v>       0.00000000       0.00000000      -0.10308910 </v>
   <v>      -0.00000000      -0.00000000       0.10308910 </v>
   <v>      -0.00000000      -0.00000000       0.02665125 </v>
   <v>       0.00000000       0.00000000      -0.02665125 </v>
   <v>       0.00000000       0.00000000      -0.07820959 </v>
   <v>      -0.00000000      -0.00000000       0.07820959 </v>
   <v>      -0.00000000      -0.00000000       0.00015206 </v>
   <v>       0.00000000       0.00000000      -0.00015206 </v>
   <v>      -0.00000000      -0.00000000       0.04238212 </v>
   <v>       0.00000000       0.00000000      -0.04238212 </v>
   <v>       0.00000000       0.00000000      -0.06492647 </v>
   <v>      -0.00000000      -0.00000000       0.06492647 </v>
   <v>       0.00000000       0.00000000      -0.09252654 </v>
   <v>      -0.00000000      -0.00000000       0.09252654 </v>
  </varray>
  <varray name="stress" >
   <v>      -1.49768811       0.00000000      -0.00000000 </v>
   <v>      -0.00000000      -1.49768811       0.00000000 </v>
   <v>       0.00000000       0.00000000       2.56561001 </v>
  </varray>
  <energy>
   <i name="e_fr_energy">    -57.39580410 </i>
   <i name="e_wo_entrp">    -57.39564515 </i>
   <i name="e_0_energy">     -0.00031790 </i>
  </energy>
  <time name="totalsc">  259.60  261.06</time>
 </calculation>
 <calculation>
  <scstep>
   <time name="dav">   21.55   21.62</time>
   <time name="total">   24.18   24.26</time>
   <energy>
    <i name="alphaZ">    288.93214933 </i>
    <i name="ewald">  -7139.41334145 </i>
    <i name="hartreedc">  -4792.35730346 </i>
    <i name="XCdc">    381.42906104 </i>
    <i name="pawpsdc">  16211.50820403 </i>
    <i name="pawaedc"> -16502.48107758 </i>
    <i name="eentropy">     -0.00028427 </i>
    <i name="bandstr">   -520.33124276 </i>
    <i name="atom">  12019.53804467 </i>
    <i name="e_fr_energy">    -53.17579044 </i>
    <i name="e_wo_entrp">    -53.17550617 </i>
    <i name="e_0_energy">    -53.17564830 </i>
   </energy>
  </scstep>
  <scstep>
   <time name="dav">   27.24   27.32</time>
   <time name="total">   29.86   29.95</time>
   <energy>
    <i name="e_fr_energy">    -53.22089868 </i>
    <i name="e_wo_entrp">    -53.22043232 </i>
    <i name="e_0_energy">    -53.22066550 </i>
   </energy>
  </scstep>
  <scstep>
   <time name="dav">   26.13   26.21</time>
   <time name="total">   28.77   28.86</time>
   <energy>
    <i name="e_fr_energy">    -53.21960186 </i>
    <i name="e_wo_entrp">    -53.21924138 </i>
    <i name="e_0_energy">    -53.21942162 </i>
   </energy>
  </scstep>
  <scstep>
   <time name="dav">   26.82   26.90</time>
   <time name="total">   29.47   29.58</time>
   <energy>
    <i name="e_fr_energy">    -53.21901737 </i>
    <i name="e_wo_entrp">    -53.21865876 </i>
    <i name="e_0_energy">    -53.21883807 </i>
   </energy>
  </scstep>
  <scstep>
   <time name="dav">   26.19   26.27</time>
   <time name="total">   28.82   28.91</time>
   <energy>
    <i name="e_fr_energy">    -53.21872978 </i>
    <i name="e_wo_entrp">    -53.21838698 </i>
    <i name="e_0_energy">    -53.21855838 </i>
   </energy>
  </scstep>
  <scstep>
   <time name="dav">   27.33   27.41</time>
   <time name="total">   29.95   30.04</time>
   <energy>
    <i name="e_fr_energy">    -53.21870924 </i>
    <i name="e_wo_entrp">    -53.21838099 </i>
    <i name="e_0_energy">    -53.21854512 </i>
   </energy>
  </scstep>
  <scstep>
   <time name="dav">   23.81   23.88</time>
   <time name="total">   26.42   26.50</time>
   <energy>
    <i name="e_fr_energy">    -53.21871221 </i>
    <i name="e_wo_entrp">    -53.21838670 </i>
    <i name="e_0_energy">    -53.21854946 </i>
   </energy>
  </scstep>
  <scstep>
   <time name="dav">   22.12   22.18</time>
   <time name="total">   24.73   24.80</time>
   <energy>
    <i name="e_fr_energy">    -53.21871099 </i>
    <i name="e_wo_entrp">    -53.21838928 </i>
    <i name="e_0_energy">    -53.21855014 </i>
   </energy>
  </scstep>
  <scstep>
   <time name="dav">   21.79   21.85</time>
   <time name="total">   22.77   22.84</time>
   <energy>
    <i name="alphaZ">    288.93214933 </i>
    <i name="ewald">  -7139.41334145 </i>
    <i name="hartreedc">  -4796.14093324 </i>
    <i name="XCdc">    381.57644023 </i>
    <i name="pawpsdc">  16218.58725437 </i>
    <i name="pawaedc"> -16509.53663580 </i>
    <i name="eentropy">     -0.00031989 </i>
    <i name="bandstr">   -516.76136839 </i>
    <i name="atom">  12019.53804467 </i>
    <i name="e_fr_energy">    -53.21871015 </i>
    <i name="e_wo_entrp">    -53.21839027 </i>
    <i name="e_0_energy">    -53.21855021 </i>
   </energy>
  </scstep>
  <structure>
   <crystal>
    <varray name="basis" >
     <v>       3.91324801       0.00000000       0.00000000 </v>
     <v>      -1.95662400       3.38897219      -0.00000000 </v>
     <v>      -0.00000000      -0.00000000      24.18873419 </v>
    </varray>
    <i name="volume">    320.78829942 </i>
    <varray name="rec_basis" >
     <v>       0.25554220       0.14753736       0.00000000 </v>
     <v>      -0.00000000       0.29507471       0.00000000 </v>
     <v>      -0.00000000      -0.00000000       0.04134156 </v>
    </varray>
   </crystal>
   <varray name="positions" >
    <v>       0.00000000       0.00000000       0.27633529 </v>
    <v>      -0.00000000      -0.00000000       0.72366471 </v>
    <v>       0.33333334       0.66666669       0.11154586 </v>
    <v>       0.66666663       0.33333331       0.88845414 </v>
    <v>       0.33333334       0.66666669       0.21103742 </v>
    <v>       0.66666663       0.33333331       0.78896261 </v>
    <v>       0.33333334       0.66666669       0.93538792 </v>
    <v>       0.66666663       0.33333331       0.06461208 </v>
    <v>       0.33333334       0.66666669       0.67443223 </v>
    <v>       0.66666663       0.33333331       0.32556777 </v>
    <v>       0.33333334       0.66666669       0.43765108 </v>
    <v>       0.66666663       0.33333331       0.56234892 </v>
    <v>       0.33333334       0.66666669       0.54433122 </v>
    <v>       0.66666663       0.33333331       0.45566878 </v>
   </varray>
  </structure>
  <varray name="forces" >
   <v>      -0.00000000      -0.00000000       0.05771411 </v>
   <v>       0.00000000       0.00000000      -0.05771411 </v>
   <v>      -0.00000000      -0.00000000       0.04697951 </v>
   <v>       0.00000000       0.00000000      -0.04697951 </v>
   <v>       0.00000000       0.00000000      -0.20036682 </v>
   <v>      -0.00000000      -0.00000000       0.20036682 </v>
   <v>      -0.00000000      -0.00000000       0.03389387 </v>
   <v>       0.00000000       0.00000000      -0.03389387 </v>
   <v>      -0.00000000      -0.00000000       0.06336126 </v>
   <v>       0.00000000       0.00000000      -0.06336126 </v>
   <v>      -0.00000000      -0.00000000       0.01352732 </v>
   <v>       0.00000000       0.00000000      -0.01352732 </v>
   <v>       0.00000000       0.00000000      -0.06487098 </v>
   <v>      -0.00000000      -0.00000000       0.06487098 </v>
  </varray>
  <varray name="stress" >
   <v>      -2.48721424       0.00000000      -0.00000000 </v>
   <v>       0.00000000      -2.48721424       0.00000000 </v>
   <v>      -0.00000000       0.00000000       3.51483652 </v>
  </varray>
  <energy>
   <i name="e_fr_energy">    -57.40452553 </i>
   <i name="e_wo_entrp">    -57.40436558 </i>
   <i name="e_0_energy">     -0.00031989 </i>
  </energy>
  <time name="totalsc">  288.90  290.05</time>
 </calculation>
 <calculation>
  <scstep>
   <time name="dav">   19.65   19.71</time>
   <time name="total">   22.26   22.32</time>
   <energy>
    <i name="alphaZ">    289.04608305 </i>
    <i name="ewald">  -7136.06844911 </i>
    <i name="hartreedc">  -4800.27742295 </i>
    <i name="XCdc">    381.64986602 </i>
    <i name="pawpsdc">  16217.87479546 </i>
    <i name="pawaedc"> -16508.82285148 </i>
    <i name="eentropy">     -0.00029762 </i>
    <i name="bandstr">   -516.16404036 </i>
    <i name="atom">  12019.53804467 </i>
    <i name="e_fr_energy">    -53.22427232 </i>
    <i name="e_wo_entrp">    -53.22397470 </i>
    <i name="e_0_energy">    -53.22412351 </i>
   </energy>
  </scstep>
  <scstep>
   <time name="dav">   26.96   27.04</time>
   <time name="total">   29.58   29.66</time>
   <energy>
    <i name="e_fr_energy">    -53.22444136 </i>
    <i name="e_wo_entrp">    -53.22424403 </i>
    <i name="e_0_energy">    -53.22434269 </i>
   </energy>
  </scstep>
  <scstep>
   <time name="dav">   25.07   25.15</time>
   <time name="total">   27.68   27.77</time>
   <energy>
    <i name="e_fr_energy">    -53.22351462 </i>
    <i name="e_wo_entrp">    -53.22334506 </i>
    <i name="e_0_energy">    -53.22342984 </i>
   </energy>
  </scstep>
  <scstep>
   <time name="dav">   26.01   26.09</time>
   <time name="total">   28.63   28.72</time>
   <energy>
    <i name="e_fr_energy">    -53.22298629 </i>
    <i name="e_wo_entrp">    -53.22281410 </i>
    <i name="e_0_energy">    -53.22290019 </i>
   </energy>
  </scstep>
  <scstep>
   <time name="dav">   23.97   24.04</time>
   <time name="total">   26.58   26.71</time>
   <energy>
    <i name="e_fr_energy">    -53.22292621 </i>
    <i name="e_wo_entrp">    -53.22275977 </i>
    <i name="e_0_energy">    -53.22284299 </i>
   </energy>
  </scstep>
  <scstep>
   <time name="dav">   22.17   22.24</time>
   <time name="total">   24.80   24.87</time>
   <energy>
    <i name="e_fr_energy">    -53.22292983 </i>
    <i name="e_wo_entrp">    -53.22276232 </i>
    <i name="e_0_energy">    -53.22284607 </i>
   </energy>
  </scstep>
  <scstep>
   <time name="dav">   21.60   21.66</time>
   <time name="total">   22.59   22.67</time>
   <energy>
    <i name="alphaZ">    289.04608305 </i>
    <i name="ewald">  -7136.06844911 </i>
    <i name="hartreedc">  -4799.50512304 </i>
    <i name="XCdc">    381.59932223 </i>
    <i name="pawpsdc">  16237.53111187 </i>
    <i name="pawaedc"> -16528.55779852 </i>
    <i name="eentropy">     -0.00016903 </i>
    <i name="bandstr">   -516.80595200 </i>
    <i name="atom">  12019.53804467 </i>
    <i name="e_fr_energy">    -53.22292988 </i>
    <i name="e_wo_entrp">    -53.22276085 </i>
    <i name="e_0_energy">    -53.22284537 </i>
   </energy>
  </scstep>
  <structure>
   <crystal>
    <varray name="basis" >
     <v>       3.90885542       0.00000000       0.00000000 </v>
     <v>      -1.95442771       3.38516809      -0.00000000 </v>
     <v>      -0.00000000      -0.00000000      24.23357313 </v>
    </varray>
    <i name="volume">    320.66185383 </i>
    <varray name="rec_basis" >
     <v>       0.25582937       0.14770315       0.00000000 </v>
     <v>      -0.00000000       0.29540631       0.00000000 </v>
     <v>      -0.00000000      -0.00000000       0.04126507 </v>
    </varray>
   </crystal>
   <varray name="positions" >
    <v>       0.00000000       0.00000000       0.27617050 </v>
    <v>      -0.00000000      -0.00000000       0.72382950 </v>
    <v>       0.33333334       0.66666669       0.11163153 </v>
    <v>       0.66666663       0.33333331       0.88836847 </v>
    <v>       0.33333334       0.66666669       0.21078458 </v>
    <v>       0.66666663       0.33333331       0.78921545 </v>
    <v>       0.33333334       0.66666669       0.93535512 </v>
    <v>       0.66666663       0.33333331       0.06464488 </v>
    <v>       0.33333334       0.66666669       0.67468853 </v>
    <v>       0.66666663       0.33333331       0.32531147 </v>
    <v>       0.33333334       0.66666669       0.43748314 </v>
    <v>       0.66666663       0.33333331       0.56251686 </v>
    <v>       0.33333334       0.66666669       0.54400503 </v>
    <v>       0.66666663       0.33333331       0.45599497 </v>
   </varray>
  </structure>
  <varray name="forces" >
   <v>      -0.00000000      -0.00000000       0.03619822 </v>
   <v>       0.00000000       0.00000000      -0.03619822 </v>
   <v>      -0.00000000      -0.00000000       0.01603289 </v>
   <v>       0.00000000       0.00000000      -0.01603289 </v>
   <v>       0.00000000       0.00000000      -0.15832201 </v>
   <v>      -0.00000000      -0.00000000       0.15832201 </v>
   <v>      -0.00000000      -0.00000000       0.03302469 </v>
   <v>       0.00000000       0.00000000      -0.03302469 </v>
   <v>      -0.00000000      -0.00000000       0.05067651 </v>
   <v>       0.00000000       0.00000000      -0.05067651 </v>
   <v>      -0.00000000      -0.00000000       0.02402439 </v>
   <v>       0.00000000       0.00000000      -0.02402439 </v>
   <v>       0.00000000       0.00000000      -0.06243228 </v>
   <v>      -0.00000000      -0.00000000       0.06243228 </v>
  </varray>
  <varray name="stress" >
   <v>      -1.71915758      -0.00000000      -0.00000000 </v>
   <v>      -0.00000000      -1.71915758       0.00000000 </v>
   <v>      -0.00000000       0.00000000       3.75088132 </v>
  </varray>
  <energy>
   <i name="e_fr_energy">    -57.41026695 </i>
   <i name="e_wo_entrp">    -57.41018244 </i>
   <i name="e_0_energy">     -0.00016903 </i>
  </energy>
  <time name="totalsc">  226.32  227.11</time>
 </calculation>
 <calculation>
  <scstep>
   <time name="dav">   19.91   19.97</time>
   <time name="total">   22.54   22.62</time>
   <energy>
    <i name="alphaZ">    289.39847575 </i>
    <i name="ewald">  -7125.39087291 </i>
    <i name="hartreedc">  -4812.61729372 </i>
    <i name="XCdc">    381.82458792 </i>
    <i name="pawpsdc">  16238.71286833 </i>
    <i name="pawaedc"> -16529.73602318 </i>
    <i name="eentropy">     -0.00011906 </i>
    <i name="bandstr">   -514.97055677 </i>
    <i name="atom">  12019.53804467 </i>
    <i name="e_fr_energy">    -53.24088895 </i>
    <i name="e_wo_entrp">    -53.24076990 </i>
    <i name="e_0_energy">    -53.24082943 </i>
   </energy>
  </scstep>
  <scstep>
   <time name="dav">   27.40   27.48</time>
   <time name="total">   30.03   30.12</time>
   <energy>
    <i name="e_fr_energy">    -53.24276388 </i>
    <i name="e_wo_entrp">    -53.24275100 </i>
    <i name="e_0_energy">    -53.24275744 </i>
   </energy>
  </scstep>
  <scstep>
   <time name="dav">   25.31   25.38</time>
   <time name="total">   27.93   28.24</time>
   <energy>
    <i name="e_fr_energy">    -53.23424951 </i>
    <i name="e_wo_entrp">    -53.23424559 </i>
    <i name="e_0_energy">    -53.23424755 </i>
   </energy>
  </scstep>
  <scstep>
   <time name="dav">   26.09   26.17</time>
   <time name="total">   28.70   28.79</time>
   <energy>
    <i name="e_fr_energy">    -53.22948237 </i>
    <i name="e_wo_entrp">    -53.22947913 </i>
    <i name="e_0_energy">    -53.22948075 </i>
   </energy>
  </scstep>
  <scstep>
   <time name="dav">   24.54   24.61</time>
   <time name="total">   27.15   27.24</time>
   <energy>
    <i name="e_fr_energy">    -53.22885545 </i>
    <i name="e_wo_entrp">    -53.22885294 </i>
    <i name="e_0_energy">    -53.22885419 </i>
   </energy>
  </scstep>
  <scstep>
   <time name="dav">   22.35   22.42</time>
   <time name="total">   24.95   25.03</time>
   <energy>
    <i name="e_fr_energy">    -53.22888420 </i>
    <i name="e_wo_entrp">    -53.22888165 </i>
    <i name="e_0_energy">    -53.22888292 </i>
   </energy>
  </scstep>
  <scstep>
   <time name="dav">   27.45   27.53</time>
   <time name="total">   30.27   30.36</time>
   <energy>
    <i name="e_fr_energy">    -53.22888067 </i>
    <i name="e_wo_entrp">    -53.22887795 </i>
    <i name="e_0_energy">    -53.22887931 </i>
   </energy>
  </scstep>
  <scstep>
   <time name="dav">   25.17   25.24</time>
   <time name="total">   27.77   27.86</time>
   <energy>
    <i name="e_fr_energy">    -53.22888522 </i>
    <i name="e_wo_entrp">    -53.22888236 </i>
    <i name="e_0_energy">    -53.22888379 </i>
   </energy>
  </scstep>
  <scstep>
   <time name="dav">   20.03   20.09</time>
   <time name="total">   22.63   22.70</time>
   <energy>
    <i name="e_fr_energy">    -53.22888398 </i>
    <i name="e_wo_entrp">    -53.22888116 </i>
    <i name="e_0_energy">    -53.22888257 </i>
   </energy>
  </scstep>
  <scstep>
   <time name="dav">   15.32   15.36</time>
   <time name="total">   16.30   16.35</time>
   <energy>
    <i name="alphaZ">    289.39847575 </i>
    <i name="ewald">  -7125.39087291 </i>
    <i name="hartreedc">  -4810.15663267 </i>
    <i name="XCdc">    381.66685605 </i>
    <i name="pawpsdc">  16300.07854799 </i>
    <i name="pawaedc"> -16591.33465051 </i>
    <i name="eentropy">     -0.00000281 </i>
    <i name="bandstr">   -517.02864942 </i>
    <i name="atom">  12019.53804467 </i>
    <i name="e_fr_energy">    -53.22888386 </i>
    <i name="e_wo_entrp">    -53.22888105 </i>
    <i name="e_0_energy">    -53.22888246 </i>
   </energy>
  </scstep>
  <structure>
   <crystal>
    <varray name="basis" >
     <v>       3.89567765       0.00000000       0.00000000 </v>
     <v>      -1.94783882       3.37375581      -0.00000000 </v>
     <v>      -0.00000000      -0.00000000      24.36808995 </v>
    </varray>
    <i name="volume">    320.27139256 </i>
    <varray name="rec_basis" >
     <v>       0.25669475       0.14820278       0.00000000 </v>
     <v>      -0.00000000       0.29640557       0.00000000 </v>
     <v>      -0.00000000      -0.00000000       0.04103727 </v>
    </varray>
   </crystal>
   <varray name="positions" >
    <v>       0.00000000       0.00000000       0.27567703 </v>
    <v>      -0.00000000      -0.00000000       0.72432297 </v>
    <v>       0.33333334       0.66666669       0.11188808 </v>
    <v>       0.66666663       0.33333331       0.88811192 </v>
    <v>       0.33333334       0.66666669       0.21002748 </v>
    <v>       0.66666663       0.33333331       0.78997255 </v>
    <v>       0.33333334       0.66666669       0.93525690 </v>
    <v>       0.66666663       0.33333331       0.06474310 </v>
    <v>       0.33333334       0.66666669       0.67545602 </v>
    <v>       0.66666663       0.33333331       0.32454398 </v>
    <v>       0.33333334       0.66666669       0.43698023 </v>
    <v>       0.66666663       0.33333331       0.56301977 </v>
    <v>       0.33333334       0.66666669       0.54302825 </v>
    <v>       0.66666663       0.33333331       0.45697175 </v>
   </varray>
  </structure>
  <varray name="forces" >
   <v>       0.00000000       0.00000000      -0.03334736 </v>
   <v>      -0.00000000      -0.00000000       0.03334736 </v>
   <v>       0.00000000       0.00000000      -0.08990302 </v>
   <v>      -0.00000000      -0.00000000       0.08990302 </v>
   <v>       0.00000000       0.00000000      -0.02173097 </v>
   <v>      -0.00000000      -0.00000000       0.02173097 </v>
   <v>      -0.00000000      -0.00000000       0.02734469 </v>
   <v>       0.00000000       0.00000000      -0.02734469 </v>
   <v>      -0.00000000      -0.00000000       0.00809547 </v>
   <v>       0.00000000       0.00000000      -0.00809547 </v>
   <v>      -0.00000000      -0.00000000       0.06202590 </v>
   <v>       0.00000000       0.00000000      -0.06202590 </v>
   <v>       0.00000000       0.00000000      -0.05075163 </v>
   <v>      -0.00000000      -0.00000000       0.05075163 </v>
  </varray>
  <varray name="stress" >
   <v>       0.90075873       0.00000000      -0.00000000 </v>
   <v>      -0.00000000       0.90075873       0.00000000 </v>
   <v>      -0.00000000       0.00000000       4.68611414 </v>
  </varray>
  <energy>
   <i name="e_fr_energy">    -57.42097663 </i>
   <i name="e_wo_entrp">    -57.42097522 </i>
   <i name="e_0_energy">     -0.00000281 </i>
  </energy>
  <time name="totalsc">  302.52  303.69</time>
 </calculation>
 <calculation>
  <scstep>
   <time name="dav">   19.81   19.86</time>
   <time name="total">   22.42   22.49</time>
   <energy>
    <i name="alphaZ">    290.15094086 </i>
    <i name="ewald">  -7101.11109837 </i>
    <i name="hartreedc">  -4839.73084359 </i>
    <i name="XCdc">    382.14344309 </i>
    <i name="pawpsdc">  16300.04945348 </i>
    <i name="pawaedc"> -16591.30457889 </i>
    <i name="eentropy">     -0.00000048 </i>
    <i name="bandstr">   -512.98566902 </i>
    <i name="atom">  12019.53804467 </i>
    <i name="e_fr_energy">    -53.25030825 </i>
    <i name="e_wo_entrp">    -53.25030777 </i>
    <i name="e_0_energy">    -53.25030801 </i>
   </energy>
  </scstep>
  <scstep>
   <time name="dav">   27.44   27.52</time>
   <time name="total">   30.06   30.17</time>
   <energy>
    <i name="e_fr_energy">    -53.26201503 </i>
    <i name="e_wo_entrp">    -53.26201503 </i>
    <i name="e_0_energy">    -53.26201503 </i>
   </energy>
  </scstep>
  <scstep>
   <time name="dav">   25.33   25.41</time>
   <time name="total">   27.94   28.03</time>
   <energy>
    <i name="e_fr_energy">    -53.22774896 </i>
    <i name="e_wo_entrp">    -53.22774896 </i>
    <i name="e_0_energy">    -53.22774896 </i>
   </energy>
  </scstep>
  <scstep>
   <time name="dav">   25.90   25.98</time>
   <time name="total">   28.52   28.61</time>
   <energy>
    <i name="e_fr_energy">    -53.20895177 </i>
    <i name="e_wo_entrp">    -53.20895177 </i>
    <i name="e_0_energy">    -53.20895177 </i>
   </energy>
  </scstep>
  <scstep>
   <time name="dav">   25.22   25.30</time>
   <time name="total">   27.86   28.15</time>
   <energy>
    <i name="e_fr_energy">    -53.20602942 </i>
    <i name="e_wo_entrp">    -53.20602942 </i>
    <i name="e_0_energy">    -53.20602942 </i>
   </energy>
  </scstep>
  <scstep>
   <time name="dav">   22.31   22.37</time>
   <time name="total">   24.94   25.01</time>
   <energy>
    <i name="e_fr_energy">    -53.20617136 </i>
    <i name="e_wo_entrp">    -53.20617136 </i>
    <i name="e_0_energy">    -53.20617136 </i>
   </energy>
  </scstep>
  <scstep>
   <time name="dav">   27.15   27.23</time>
   <time name="total">   29.77   29.86</time>
   <energy>
    <i name="e_fr_energy">    -53.20615948 </i>
    <i name="e_wo_entrp">    -53.20615948 </i>
    <i name="e_0_energy">    -53.20615948 </i>
   </energy>
  </scstep>
  <scstep>
   <time name="dav">   25.88   25.95</time>
   <time name="total">   28.49   28.58</time>
   <energy>
    <i name="e_fr_energy">    -53.20617113 </i>
    <i name="e_wo_entrp">    -53.20617113 </i>
    <i name="e_0_energy">    -53.20617113 </i>
   </energy>
  </scstep>
  <scstep>
   <time name="dav">   21.10   21.16</time>
   <time name="total">   23.72   23.79</time>
   <energy>
    <i name="e_fr_energy">    -53.20617029 </i>
    <i name="e_wo_entrp">    -53.20617029 </i>
    <i name="e_0_energy">    -53.20617029 </i>
   </energy>
  </scstep>
  <scstep>
   <time name="dav">   22.09   22.15</time>
   <time name="total">   24.70   24.78</time>
   <energy>
    <i name="e_fr_energy">    -53.20616863 </i>
    <i name="e_wo_entrp">    -53.20616863 </i>
    <i name="e_0_energy">    -53.20616863 </i>
   </energy>
  </scstep>
  <scstep>
   <time name="dav">   18.57   18.63</time>
   <time name="total">   19.56   19.63</time>
   <energy>
    <i name="alphaZ">    290.15094086 </i>
    <i name="ewald">  -7101.11109837 </i>
    <i name="hartreedc">  -4834.49887237 </i>
    <i name="XCdc">    381.80201761 </i>
    <i name="pawpsdc">  16425.83018718 </i>
    <i name="pawaedc"> -16717.56266748 </i>
    <i name="eentropy">     -0.00000000 </i>
    <i name="bandstr">   -517.35472099 </i>
    <i name="atom">  12019.53804467 </i>
    <i name="e_fr_energy">    -53.20616888 </i>
    <i name="e_wo_entrp">    -53.20616888 </i>
    <i name="e_0_energy">    -53.20616888 </i>
   </energy>
  </scstep>
  <structure>
   <crystal>
    <varray name="basis" >
     <v>       3.86932211       0.00000000       0.00000000 </v>
     <v>      -1.93466106       3.35093124       0.00000000 </v>
     <v>      -0.00000000      -0.00000000      24.63712360 </v>
    </varray>
    <i name="volume">    319.44081435 </i>
    <varray name="rec_basis" >
     <v>       0.25844320       0.14921225       0.00000000 </v>
     <v>      -0.00000000       0.29842451       0.00000000 </v>
     <v>      -0.00000000      -0.00000000       0.04058915 </v>
    </varray>
   </crystal>
   <varray name="positions" >
    <v>       0.00000000       0.00000000       0.27469554 </v>
    <v>      -0.00000000      -0.00000000       0.72530446 </v>
    <v>       0.33333334       0.66666669       0.11239835 </v>
    <v>       0.66666663       0.33333331       0.88760165 </v>
    <v>       0.33333334       0.66666669       0.20852163 </v>
    <v>       0.66666663       0.33333331       0.79147840 </v>
    <v>       0.33333334       0.66666669       0.93506156 </v>
    <v>       0.66666663       0.33333331       0.06493844 </v>
    <v>       0.33333334       0.66666669       0.67698250 </v>
    <v>       0.66666663       0.33333331       0.32301750 </v>
    <v>       0.33333334       0.66666669       0.43597997 </v>
    <v>       0.66666663       0.33333331       0.56402003 </v>
    <v>       0.33333334       0.66666669       0.54108548 </v>
    <v>       0.66666663       0.33333331       0.45891452 </v>
   </varray>
  </structure>
  <varray name="forces" >
   <v>       0.00000000       0.00000000      -0.18900701 </v>
   <v>      -0.00000000      -0.00000000       0.18900701 </v>
   <v>       0.00000000       0.00000000      -0.33473178 </v>
   <v>      -0.00000000      -0.00000000       0.33473178 </v>
   <v>      -0.00000000      -0.00000000       0.28815538 </v>
   <v>       0.00000000       0.00000000      -0.28815538 </v>
   <v>      -0.00000000      -0.00000000       0.01136486 </v>
   <v>       0.00000000       0.00000000      -0.01136486 </v>
   <v>       0.00000000       0.00000000      -0.08807439 </v>
   <v>      -0.00000000      -0.00000000       0.08807439 </v>
   <v>      -0.00000000      -0.00000000       0.16601640 </v>
   <v>       0.00000000       0.00000000      -0.16601640 </v>
   <v>       0.00000000       0.00000000      -0.00560870 </v>
   <v>      -0.00000000      -0.00000000       0.00560870 </v>
  </varray>
  <varray name="stress" >
   <v>       6.15139282      -0.00000000      -0.00000000 </v>
   <v>       0.00000000       6.15139282      -0.00000000 </v>
   <v>      -0.00000000       0.00000000       6.62318283 </v>
  </varray>
  <energy>
   <i name="e_fr_energy">    -57.40865585 </i>
   <i name="e_wo_entrp">    -57.40865585 </i>
   <i name="e_0_energy">     -0.00000000 </i>
  </energy>
  <time name="totalsc">  332.13  333.43</time>
 </calculation>
 <calculation>
  <scstep>
   <time name="dav">   20.10   20.16</time>
   <time name="total">   22.72   22.80</time>
   <energy>
    <i name="alphaZ">    289.56796632 </i>
    <i name="ewald">  -7120.14479963 </i>
    <i name="hartreedc">  -4811.03219627 </i>
    <i name="XCdc">    381.43067063 </i>
    <i name="pawpsdc">  16426.11109016 </i>
    <i name="pawaedc"> -16717.84249068 </i>
    <i name="eentropy">     -0.00000000 </i>
    <i name="bandstr">   -520.88477575 </i>
    <i name="atom">  12019.53804467 </i>
    <i name="e_fr_energy">    -53.25649056 </i>
    <i name="e_wo_entrp">    -53.25649056 </i>
    <i name="e_0_energy">    -53.25649056 </i>
   </energy>
  </scstep>
  <scstep>
   <time name="dav">   26.51   26.59</time>
   <time name="total">   29.13   29.21</time>
   <energy>
    <i name="e_fr_energy">    -53.25952036 </i>
    <i name="e_wo_entrp">    -53.25952036 </i>
    <i name="e_0_energy">    -53.25952036 </i>
   </energy>
  </scstep>
  <scstep>
   <time name="dav">   25.34   25.42</time>
   <time name="total">   27.97   28.06</time>
   <energy>
    <i name="e_fr_energy">    -53.23976674 </i>
    <i name="e_wo_entrp">    -53.23976668 </i>
    <i name="e_0_energy">    -53.23976671 </i>
   </energy>
  </scstep>
  <scstep>
   <time name="dav">   25.79   25.87</time>
   <time name="total">   28.41   28.50</time>
   <energy>
    <i name="e_fr_energy">    -53.22937853 </i>
    <i name="e_wo_entrp">    -53.22937843 </i>
    <i name="e_0_energy">    -53.22937848 </i>
   </energy>
  </scstep>
  <scstep>
   <time name="dav">   25.02   25.09</time>
   <time name="total">   27.66   27.76</time>
   <energy>
    <i name="e_fr_energy">    -53.22787145 </i>
    <i name="e_wo_entrp">    -53.22787131 </i>
    <i name="e_0_energy">    -53.22787138 </i>
   </energy>
  </scstep>
  <scstep>
   <time name="dav">   22.29   22.36</time>
   <time name="total">   24.92   25.00</time>
   <energy>
    <i name="e_fr_energy">    -53.22792919 </i>
    <i name="e_wo_entrp">    -53.22792905 </i>
    <i name="e_0_energy">    -53.22792912 </i>
   </energy>
  </scstep>
  <scstep>
   <time name="dav">   26.84   26.92</time>
   <time name="total">   29.47   29.56</time>
   <energy>
    <i name="e_fr_energy">    -53.22791389 </i>
    <i name="e_wo_entrp">    -53.22791377 </i>
    <i name="e_0_energy">    -53.22791383 </i>
   </energy>
  </scstep>
  <scstep>
   <time name="dav">   25.65   25.72</time>
   <time name="total">   28.26   28.34</time>
   <energy>
    <i name="e_fr_energy">    -53.22791536 </i>
    <i name="e_wo_entrp">    -53.22791525 </i>
    <i name="e_0_energy">    -53.22791530 </i>
   </energy>
  </scstep>
  <scstep>
   <time name="dav">   22.00   22.07</time>
   <time name="total">   24.61   24.70</time>
   <energy>
    <i name="e_fr_energy">    -53.22791575 </i>
    <i name="e_wo_entrp">    -53.22791564 </i>
    <i name="e_0_energy">    -53.22791569 </i>
   </energy>
  </scstep>
  <scstep>
   <time name="dav">   18.05   18.10</time>
   <time name="total">   19.24   19.31</time>
   <energy>
    <i name="alphaZ">    289.56796632 </i>
    <i name="ewald">  -7120.14479963 </i>
    <i name="hartreedc">  -4815.36709059 </i>
    <i name="XCdc">    381.69813486 </i>
    <i name="pawpsdc">  16330.35955084 </i>
    <i name="pawaedc"> -16621.72402286 </i>
    <i name="eentropy">     -0.00000011 </i>
    <i name="bandstr">   -517.15569918 </i>
    <i name="atom">  12019.53804467 </i>
    <i name="e_fr_energy">    -53.22791569 </i>
    <i name="e_wo_entrp">    -53.22791558 </i>
    <i name="e_0_energy">    -53.22791563 </i>
   </energy>
  </scstep>
  <structure>
   <crystal>
    <varray name="basis" >
     <v>       3.88954225       0.00000000       0.00000000 </v>
     <v>      -1.94477113       3.36844240      -0.00000000 </v>
     <v>      -0.00000000      -0.00000000      24.43071922 </v>
    </varray>
    <i name="volume">    320.08393059 </i>
    <varray name="rec_basis" >
     <v>       0.25709966       0.14843656       0.00000000 </v>
     <v>      -0.00000000       0.29687312       0.00000000 </v>
     <v>      -0.00000000      -0.00000000       0.04093207 </v>
    </varray>
   </crystal>
   <varray name="positions" >
    <v>       0.00000000       0.00000000       0.27544032 </v>
    <v>      -0.00000000      -0.00000000       0.72455968 </v>
    <v>       0.33333334       0.66666669       0.11201114 </v>
    <v>       0.66666663       0.33333331       0.88798886 </v>
    <v>       0.33333334       0.66666669       0.20966431 </v>
    <v>       0.66666663       0.33333331       0.79033572 </v>
    <v>       0.33333334       0.66666669       0.93520979 </v>
    <v>       0.66666663       0.33333331       0.06479021 </v>
    <v>       0.33333334       0.66666669       0.67582416 </v>
    <v>       0.66666663       0.33333331       0.32417584 </v>
    <v>       0.33333334       0.66666669       0.43673900 </v>
    <v>       0.66666663       0.33333331       0.56326100 </v>
    <v>       0.33333334       0.66666669       0.54255971 </v>
    <v>       0.66666663       0.33333331       0.45744029 </v>
   </varray>
  </structure>
  <varray name="forces" >
   <v>       0.00000000       0.00000000      -0.06877186 </v>
   <v>      -0.00000000      -0.00000000       0.06877186 </v>
   <v>       0.00000000       0.00000000      -0.14765376 </v>
   <v>      -0.00000000      -0.00000000       0.14765376 </v>
   <v>      -0.00000000      -0.00000000       0.05134098 </v>
   <v>       0.00000000       0.00000000      -0.05134098 </v>
   <v>      -0.00000000      -0.00000000       0.02412432 </v>
   <v>       0.00000000       0.00000000      -0.02412432 </v>
   <v>       0.00000000       0.00000000      -0.01458360 </v>
   <v>      -0.00000000      -0.00000000       0.01458360 </v>
   <v>      -0.00000000      -0.00000000       0.08453589 </v>
   <v>       0.00000000       0.00000000      -0.08453589 </v>
   <v>       0.00000000       0.00000000      -0.04192498 </v>
   <v>      -0.00000000      -0.00000000       0.04192498 </v>
  </varray>
  <varray name="stress" >
   <v>       2.22251152      -0.00000000      -0.00000000 </v>
   <v>       0.00000000       2.22251152      -0.00000000 </v>
   <v>      -0.00000000      -0.00000000       5.31445182 </v>
  </varray>
  <energy>
   <i name="e_fr_energy">    -57.42231127 </i>
   <i name="e_wo_entrp">    -57.42231122 </i>
   <i name="e_0_energy">     -0.00000011 </i>
  </energy>
  <time name="totalsc">  306.59  307.61</time>
 </calculation>
 <calculation>
  <scstep>
   <time name="dav">   24.10   24.17</time>
   <time name="total">   26.70   26.78</time>
   <energy>
    <i name="alphaZ">    288.25610300 </i>
    <i name="ewald">  -7102.86909430 </i>
    <i name="hartreedc">  -4813.18350222 </i>
    <i name="XCdc">    381.01875288 </i>
    <i name="pawpsdc">  16329.96669744 </i>
    <i name="pawaedc"> -16621.33536000 </i>
    <i name="eentropy">     -0.00000009 </i>
    <i name="bandstr">   -534.67428746 </i>
    <i name="atom">  12019.53804467 </i>
    <i name="e_fr_energy">    -53.28264607 </i>
    <i name="e_wo_entrp">    -53.28264599 </i>
    <i name="e_0_energy">    -53.28264603 </i>
   </energy>
  </scstep>
  <scstep>
   <time name="dav">   24.98   25.06</time>
   <time name="total">   27.58   27.66</time>
   <energy>
    <i name="e_fr_energy">    -53.26108027 </i>
    <i name="e_wo_entrp">    -53.26108004 </i>
    <i name="e_0_energy">    -53.26108016 </i>
   </energy>
  </scstep>
  <scstep>
   <time name="dav">   26.87   26.95</time>
   <time name="total">   29.47   29.56</time>
   <energy>
    <i name="e_fr_energy">    -53.25560275 </i>
    <i name="e_wo_entrp">    -53.25560268 </i>
    <i name="e_0_energy">    -53.25560272 </i>
   </energy>
  </scstep>
  <scstep>
   <time name="dav">   26.17   26.25</time>
   <time name="total">   28.78   28.88</time>
   <energy>
    <i name="e_fr_energy">    -53.25389148 </i>
    <i name="e_wo_entrp">    -53.25389142 </i>
    <i name="e_0_energy">    -53.25389145 </i>
   </energy>
  </scstep>
  <scstep>
   <time name="dav">   23.81   23.88</time>
   <time name="total">   26.41   26.50</time>
   <energy>
    <i name="e_fr_energy">    -53.25368489 </i>
    <i name="e_wo_entrp">    -53.25368483 </i>
    <i name="e_0_energy">    -53.25368486 </i>
   </energy>
  </scstep>
  <scstep>
   <time name="dav">   26.14   26.21</time>
   <time name="total">   28.74   28.82</time>
   <energy>
    <i name="e_fr_energy">    -53.25364904 </i>
    <i name="e_wo_entrp">    -53.25364899 </i>
    <i name="e_0_energy">    -53.25364901 </i>
   </energy>
  </scstep>
  <scstep>
   <time name="dav">   22.53   22.59</time>
   <time name="total">   25.13   25.21</time>
   <energy>
    <i name="e_fr_energy">    -53.25364816 </i>
    <i name="e_wo_entrp">    -53.25364811 </i>
    <i name="e_0_energy">    -53.25364813 </i>
   </energy>
  </scstep>
  <scstep>
   <time name="dav">   18.78   18.84</time>
   <time name="total">   19.77   19.83</time>
   <energy>
    <i name="alphaZ">    288.25610300 </i>
    <i name="ewald">  -7102.86909430 </i>
    <i name="hartreedc">  -4826.36471012 </i>
    <i name="XCdc">    381.57488061 </i>
    <i name="pawpsdc">  16267.72298085 </i>
    <i name="pawaedc"> -16558.90270909 </i>
    <i name="eentropy">     -0.00000005 </i>
    <i name="bandstr">   -522.20914428 </i>
    <i name="atom">  12019.53804467 </i>
    <i name="e_fr_energy">    -53.25364871 </i>
    <i name="e_wo_entrp">    -53.25364866 </i>
    <i name="e_0_energy">    -53.25364868 </i>
   </energy>
  </scstep>
  <structure>
   <crystal>
    <varray name="basis" >
     <v>       3.88854271       0.00000000       0.00000000 </v>
     <v>      -1.94427136       3.36757677      -0.00000000 </v>
     <v>      -0.00000000      -0.00000000      24.55452272 </v>
    </varray>
    <i name="volume">    321.54064343 </i>
    <varray name="rec_basis" >
     <v>       0.25716575       0.14847471       0.00000000 </v>
     <v>      -0.00000000       0.29694943       0.00000000 </v>
     <v>      -0.00000000      -0.00000000       0.04072569 </v>
    </varray>
   </crystal>
   <varray name="positions" >
    <v>       0.00000000       0.00000000       0.27513408 </v>
    <v>      -0.00000000      -0.00000000       0.72486592 </v>
    <v>       0.33333334       0.66666669       0.11189849 </v>
    <v>       0.66666663       0.33333331       0.88810151 </v>
    <v>       0.33333334       0.66666669       0.20942696 </v>
    <v>       0.66666663       0.33333331       0.79057307 </v>
    <v>       0.33333334       0.66666669       0.93520489 </v>
    <v>       0.66666663       0.33333331       0.06479511 </v>
    <v>       0.33333334       0.66666669       0.67612029 </v>
    <v>       0.66666663       0.33333331       0.32387971 </v>
    <v>       0.33333334       0.66666669       0.43665610 </v>
    <v>       0.66666663       0.33333331       0.56334390 </v>
    <v>       0.33333334       0.66666669       0.54209316 </v>
    <v>       0.66666663       0.33333331       0.45790684 </v>
   </varray>
  </structure>
  <varray name="forces" >
   <v>       0.00000000       0.00000000      -0.06753798 </v>
   <v>      -0.00000000      -0.00000000       0.06753798 </v>
   <v>       0.00000000       0.00000000      -0.06172073 </v>
   <v>      -0.00000000      -0.00000000       0.06172073 </v>
   <v>       0.00000000       0.00000000      -0.00508081 </v>
   <v>      -0.00000000      -0.00000000       0.00508081 </v>
   <v>      -0.00000000      -0.00000000       0.00936044 </v>
   <v>       0.00000000       0.00000000      -0.00936044 </v>
   <v>      -0.00000000      -0.00000000       0.01642004 </v>
   <v>       0.00000000       0.00000000      -0.01642004 </v>
   <v>      -0.00000000      -0.00000000       0.11715188 </v>
   <v>       0.00000000       0.00000000      -0.11715188 </v>
   <v>       0.00000000       0.00000000      -0.03175658 </v>
   <v>      -0.00000000      -0.00000000       0.03175658 </v>
  </varray>
  <varray name="stress" >
   <v>       0.51510549       0.00000000      -0.00000000 </v>
   <v>       0.00000000       0.51510549      -0.00000000 </v>
   <v>      -0.00000000      -0.00000000      -0.05761126 </v>
  </varray>
  <energy>
   <i name="e_fr_energy">    -57.42659872 </i>
   <i name="e_wo_entrp">    -57.42659870 </i>
   <i name="e_0_energy">     -0.00000005 </i>
  </energy>
  <time name="totalsc">  257.05  257.92</time>
 </calculation>
 <calculation>
  <scstep>
   <time name="dav">   24.57   24.64</time>
   <time name="total">   27.19   27.29</time>
   <energy>
    <i name="alphaZ">    287.79288031 </i>
    <i name="ewald">  -7096.67405542 </i>
    <i name="hartreedc">  -4825.66532217 </i>
    <i name="XCdc">    381.33403476 </i>
    <i name="pawpsdc">  16267.92840216 </i>
    <i name="pawaedc"> -16559.10520684 </i>
    <i name="eentropy">     -0.00000005 </i>
    <i name="bandstr">   -528.41401478 </i>
    <i name="atom">  12019.53804467 </i>
    <i name="e_fr_energy">    -53.26523736 </i>
    <i name="e_wo_entrp">    -53.26523731 </i>
    <i name="e_0_energy">    -53.26523734 </i>
   </energy>
  </scstep>
  <scstep>
   <time name="dav">   25.51   25.59</time>
   <time name="total">   28.12   28.21</time>
   <energy>
    <i name="e_fr_energy">    -53.26254494 </i>
    <i name="e_wo_entrp">    -53.26254487 </i>
    <i name="e_0_energy">    -53.26254490 </i>
   </energy>
  </scstep>
  <scstep>
   <time name="dav">   26.90   26.98</time>
   <time name="total">   29.50   29.59</time>
   <energy>
    <i name="e_fr_energy">    -53.26185295 </i>
    <i name="e_wo_entrp">    -53.26185291 </i>
    <i name="e_0_energy">    -53.26185293 </i>
   </energy>
  </scstep>
  <scstep>
   <time name="dav">   26.25   26.33</time>
   <time name="total">   28.86   28.95</time>
   <energy>
    <i name="e_fr_energy">    -53.26162419 </i>
    <i name="e_wo_entrp">    -53.26162415 </i>
    <i name="e_0_energy">    -53.26162417 </i>
   </energy>
  </scstep>
  <scstep>
   <time name="dav">   23.91   23.98</time>
   <time name="total">   26.51   26.59</time>
   <energy>
    <i name="e_fr_energy">    -53.26159540 </i>
    <i name="e_wo_entrp">    -53.26159536 </i>
    <i name="e_0_energy">    -53.26159538 </i>
   </energy>
  </scstep>
  <scstep>
   <time name="dav">   25.15   25.22</time>
   <time name="total">   27.75   27.83</time>
   <energy>
    <i name="e_fr_energy">    -53.26158884 </i>
    <i name="e_wo_entrp">    -53.26158880 </i>
    <i name="e_0_energy">    -53.26158882 </i>
   </energy>
  </scstep>
  <scstep>
   <time name="dav">   19.12   19.17</time>
   <time name="total">   20.10   20.17</time>
   <energy>
    <i name="alphaZ">    287.79288031 </i>
    <i name="ewald">  -7096.67405542 </i>
    <i name="hartreedc">  -4830.33148487 </i>
    <i name="XCdc">    381.53087982 </i>
    <i name="pawpsdc">  16246.99799008 </i>
    <i name="pawaedc"> -16538.10768738 </i>
    <i name="eentropy">     -0.00000004 </i>
    <i name="bandstr">   -524.00815517 </i>
    <i name="atom">  12019.53804467 </i>
    <i name="e_fr_energy">    -53.26158800 </i>
    <i name="e_wo_entrp">    -53.26158797 </i>
    <i name="e_0_energy">    -53.26158798 </i>
   </energy>
  </scstep>
  <structure>
   <crystal>
    <varray name="basis" >
     <v>       3.88818733       0.00000000       0.00000000 </v>
     <v>      -1.94409366       3.36726900       0.00000000 </v>
     <v>      -0.00000000      -0.00000000      24.59854099 </v>
    </varray>
    <i name="volume">    322.05818550 </i>
    <varray name="rec_basis" >
     <v>       0.25718925       0.14848829       0.00000000 </v>
     <v>      -0.00000000       0.29697657       0.00000000 </v>
     <v>      -0.00000000      -0.00000000       0.04065282 </v>
    </varray>
   </crystal>
   <varray name="positions" >
    <v>       0.00000000       0.00000000       0.27502574 </v>
    <v>      -0.00000000      -0.00000000       0.72497426 </v>
    <v>       0.33333334       0.66666669       0.11185863 </v>
    <v>       0.66666663       0.33333331       0.88814137 </v>
    <v>       0.33333334       0.66666669       0.20934300 </v>
    <v>       0.66666663       0.33333331       0.79065703 </v>
    <v>       0.33333334       0.66666669       0.93520315 </v>
    <v>       0.66666663       0.33333331       0.06479685 </v>
    <v>       0.33333334       0.66666669       0.67622505 </v>
    <v>       0.66666663       0.33333331       0.32377495 </v>
    <v>       0.33333334       0.66666669       0.43662677 </v>
    <v>       0.66666663       0.33333331       0.56337323 </v>
    <v>       0.33333334       0.66666669       0.54192812 </v>
    <v>       0.66666663       0.33333331       0.45807188 </v>
   </varray>
  </structure>
  <varray name="forces" >
   <v>       0.00000000       0.00000000      -0.06740276 </v>
   <v>      -0.00000000      -0.00000000       0.06740276 </v>
   <v>       0.00000000       0.00000000      -0.03205428 </v>
   <v>      -0.00000000      -0.00000000       0.03205428 </v>
   <v>       0.00000000       0.00000000      -0.02430308 </v>
   <v>      -0.00000000      -0.00000000       0.02430308 </v>
   <v>      -0.00000000      -0.00000000       0.00455992 </v>
   <v>       0.00000000       0.00000000      -0.00455992 </v>
   <v>      -0.00000000      -0.00000000       0.02739184 </v>
   <v>       0.00000000       0.00000000      -0.02739184 </v>
   <v>      -0.00000000      -0.00000000       0.12933290 </v>
   <v>       0.00000000       0.00000000      -0.12933290 </v>
   <v>       0.00000000       0.00000000      -0.02775866 </v>
   <v>      -0.00000000      -0.00000000       0.02775866 </v>
  </varray>
  <varray name="stress" >
   <v>       0.15525618      -0.00000000      -0.00000000 </v>
   <v>      -0.00000000       0.15525618       0.00000000 </v>
   <v>      -0.00000000      -0.00000000      -1.69396964 </v>
  </varray>
  <energy>
   <i name="e_fr_energy">    -57.42696528 </i>
   <i name="e_wo_entrp">    -57.42696527 </i>
   <i name="e_0_energy">     -0.00000004 </i>
  </energy>
  <time name="totalsc">  232.19  234.43</time>
 </calculation>
 <calculation>
  <scstep>
   <time name="dav">   20.04   20.10</time>
   <time name="total">   22.64   22.72</time>
   <energy>
    <i name="alphaZ">    287.70390547 </i>
    <i name="ewald">  -7096.13412610 </i>
    <i name="hartreedc">  -4829.36490300 </i>
    <i name="XCdc">    381.50517276 </i>
    <i name="pawpsdc">  16246.92304789 </i>
    <i name="pawaedc"> -16538.03308034 </i>
    <i name="eentropy">     -0.00000004 </i>
    <i name="bandstr">   -525.40190700 </i>
    <i name="atom">  12019.53804467 </i>
    <i name="e_fr_energy">    -53.26384569 </i>
    <i name="e_wo_entrp">    -53.26384565 </i>
    <i name="e_0_energy">    -53.26384567 </i>
   </energy>
  </scstep>
  <scstep>
   <time name="dav">   25.47   25.55</time>
   <time name="total">   28.08   28.17</time>
   <energy>
    <i name="e_fr_energy">    -53.26542397 </i>
    <i name="e_wo_entrp">    -53.26542390 </i>
    <i name="e_0_energy">    -53.26542393 </i>
   </energy>
  </scstep>
  <scstep>
   <time name="dav">   24.46   24.53</time>
   <time name="total">   27.08   27.16</time>
   <energy>
    <i name="e_fr_energy">    -53.26539045 </i>
    <i name="e_wo_entrp">    -53.26539039 </i>
    <i name="e_0_energy">    -53.26539042 </i>
   </energy>
  </scstep>
  <scstep>
   <time name="dav">   27.19   27.27</time>
   <time name="total">   29.81   29.91</time>
   <energy>
    <i name="e_fr_energy">    -53.26537451 </i>
    <i name="e_wo_entrp">    -53.26537445 </i>
    <i name="e_0_energy">    -53.26537448 </i>
   </energy>
  </scstep>
  <scstep>
   <time name="dav">   24.74   24.82</time>
   <time name="total">   27.36   27.45</time>
   <energy>
    <i name="e_fr_energy">    -53.26536603 </i>
    <i name="e_wo_entrp">    -53.26536596 </i>
    <i name="e_0_energy">    -53.26536599 </i>
   </energy>
  </scstep>
  <scstep>
   <time name="dav">   25.90   25.98</time>
   <time name="total">   28.51   28.60</time>
   <energy>
    <i name="e_fr_energy">    -53.26536347 </i>
    <i name="e_wo_entrp">    -53.26536340 </i>
    <i name="e_0_energy">    -53.26536343 </i>
   </energy>
  </scstep>
  <scstep>
   <time name="dav">   19.36   19.41</time>
   <time name="total">   20.35   20.41</time>
   <energy>
    <i name="alphaZ">    287.70390547 </i>
    <i name="ewald">  -7096.13412610 </i>
    <i name="hartreedc">  -4830.34005396 </i>
    <i name="XCdc">    381.53955371 </i>
    <i name="pawpsdc">  16249.06050004 </i>
    <i name="pawaedc"> -16540.19118511 </i>
    <i name="eentropy">     -0.00000007 </i>
    <i name="bandstr">   -524.44200206 </i>
    <i name="atom">  12019.53804467 </i>
    <i name="e_fr_energy">    -53.26536341 </i>
    <i name="e_wo_entrp">    -53.26536334 </i>
    <i name="e_0_energy">    -53.26536338 </i>
   </energy>
  </scstep>
  <structure>
   <crystal>
    <varray name="basis" >
     <v>       3.88828661       0.00000000       0.00000000 </v>
     <v>      -1.94414330       3.36735498       0.00000000 </v>
     <v>      -0.00000000      -0.00000000      24.60489181 </v>
    </varray>
    <i name="volume">    322.15778469 </i>
    <varray name="rec_basis" >
     <v>       0.25718269       0.14848449       0.00000000 </v>
     <v>      -0.00000000       0.29696899       0.00000000 </v>
     <v>      -0.00000000      -0.00000000       0.04064232 </v>
    </varray>
   </crystal>
   <varray name="positions" >
    <v>       0.00000000       0.00000000       0.27484733 </v>
    <v>      -0.00000000      -0.00000000       0.72515267 </v>
    <v>       0.33333334       0.66666669       0.11178156 </v>
    <v>       0.66666663       0.33333331       0.88821844 </v>
    <v>       0.33333334       0.66666669       0.20924878 </v>
    <v>       0.66666663       0.33333331       0.79075125 </v>
    <v>       0.33333334       0.66666669       0.93520919 </v>
    <v>       0.66666663       0.33333331       0.06479081 </v>
    <v>       0.33333334       0.66666669       0.67633799 </v>
    <v>       0.66666663       0.33333331       0.32366201 </v>
    <v>       0.33333334       0.66666669       0.43681119 </v>
    <v>       0.66666663       0.33333331       0.56318881 </v>
    <v>       0.33333334       0.66666669       0.54177447 </v>
    <v>       0.66666663       0.33333331       0.45822553 </v>
   </varray>
  </structure>
  <varray name="forces" >
   <v>       0.00000000       0.00000000      -0.04755183 </v>
   <v>      -0.00000000      -0.00000000       0.04755183 </v>
   <v>       0.00000000       0.00000000      -0.02241308 </v>
   <v>      -0.00000000      -0.00000000       0.02241308 </v>
   <v>       0.00000000       0.00000000      -0.03116554 </v>
   <v>      -0.00000000      -0.00000000       0.03116554 </v>
   <v>      -0.00000000      -0.00000000       0.01408724 </v>
   <v>       0.00000000       0.00000000      -0.01408724 </v>
   <v>      -0.00000000      -0.00000000       0.03384935 </v>
   <v>       0.00000000       0.00000000      -0.03384935 </v>
   <v>      -0.00000000      -0.00000000       0.10058465 </v>
   <v>       0.00000000       0.00000000      -0.10058465 </v>
   <v>       0.00000000       0.00000000      -0.01785673 </v>
   <v>      -0.00000000      -0.00000000       0.01785673 </v>
  </varray>
  <varray name="stress" >
   <v>       0.17350669      -0.00000000      -0.00000000 </v>
   <v>       0.00000000       0.17350669       0.00000000 </v>
   <v>      -0.00000000      -0.00000000      -1.44639216 </v>
  </varray>
  <energy>
   <i name="e_fr_energy">    -57.42902078 </i>
   <i name="e_wo_entrp">    -57.42902075 </i>
   <i name="e_0_energy">     -0.00000007 </i>
  </energy>
  <time name="totalsc">  228.43  229.16</time>
 </calculation>
 <calculation>
  <scstep>
   <time name="dav">   20.20   20.26</time>
   <time name="total">   22.84   22.91</time>
   <energy>
    <i name="alphaZ">    287.47168345 </i>
    <i name="ewald">  -7094.29813303 </i>
    <i name="hartreedc">  -4828.20395564 </i>
    <i name="XCdc">    381.47254943 </i>
    <i name="pawpsdc">  16249.66762288 </i>
    <i name="pawaedc"> -16540.79790670 </i>
    <i name="eentropy">     -0.00000007 </i>
    <i name="bandstr">   -528.11234872 </i>
    <i name="atom">  12019.53804467 </i>
    <i name="e_fr_energy">    -53.26244372 </i>
    <i name="e_wo_entrp">    -53.26244365 </i>
    <i name="e_0_energy">    -53.26244368 </i>
   </energy>
  </scstep>
  <scstep>
   <time name="dav">   25.68   25.76</time>
   <time name="total">   28.29   28.37</time>
   <energy>
    <i name="e_fr_energy">    -53.27342066 </i>
    <i name="e_wo_entrp">    -53.27342038 </i>
    <i name="e_0_energy">    -53.27342052 </i>
   </energy>
  </scstep>
  <scstep>
   <time name="dav">   24.50   24.57</time>
   <time name="total">   27.10   27.19</time>
   <energy>
    <i name="e_fr_energy">    -53.27322463 </i>
    <i name="e_wo_entrp">    -53.27322442 </i>
    <i name="e_0_energy">    -53.27322452 </i>
   </energy>
  </scstep>
  <scstep>
   <time name="dav">   27.16   27.24</time>
   <time name="total">   29.76   29.87</time>
   <energy>
    <i name="e_fr_energy">    -53.27311947 </i>
    <i name="e_wo_entrp">    -53.27311923 </i>
    <i name="e_0_energy">    -53.27311935 </i>
   </energy>
  </scstep>
  <scstep>
   <time name="dav">   24.50   24.57</time>
   <time name="total">   27.09   27.19</time>
   <energy>
    <i name="e_fr_energy">    -53.27306148 </i>
    <i name="e_wo_entrp">    -53.27306119 </i>
    <i name="e_0_energy">    -53.27306134 </i>
   </energy>
  </scstep>
  <scstep>
   <time name="dav">   26.30   26.38</time>
   <time name="total">   28.90   28.99</time>
   <energy>
    <i name="e_fr_energy">    -53.27304937 </i>
    <i name="e_wo_entrp">    -53.27304907 </i>
    <i name="e_0_energy">    -53.27304922 </i>
   </energy>
  </scstep>
  <scstep>
   <time name="dav">   21.70   21.76</time>
   <time name="total">   24.30   24.37</time>
   <energy>
    <i name="e_fr_energy">    -53.27305031 </i>
    <i name="e_wo_entrp">    -53.27305002 </i>
    <i name="e_0_energy">    -53.27305017 </i>
   </energy>
  </scstep>
  <scstep>
   <time name="dav">   15.27   15.32</time>
   <time name="total">   16.25   16.30</time>
   <energy>
    <i name="alphaZ">    287.47168345 </i>
    <i name="ewald">  -7094.29813303 </i>
    <i name="hartreedc">  -4830.75863218 </i>
    <i name="XCdc">    381.56231768 </i>
    <i name="pawpsdc">  16257.45551069 </i>
    <i name="pawaedc"> -16548.64177181 </i>
    <i name="eentropy">     -0.00000029 </i>
    <i name="bandstr">   -525.60206957 </i>
    <i name="atom">  12019.53804467 </i>
    <i name="e_fr_energy">    -53.27305039 </i>
    <i name="e_wo_entrp">    -53.27305010 </i>
    <i name="e_0_energy">    -53.27305024 </i>
   </energy>
  </scstep>
  <structure>
   <crystal>
    <varray name="basis" >
     <v>       3.88854597       0.00000000       0.00000000 </v>
     <v>      -1.94427298       3.36757959       0.00000000 </v>
     <v>      -0.00000000      -0.00000000      24.62148311 </v>
    </varray>
    <i name="volume">    322.41802643 </i>
    <varray name="rec_basis" >
     <v>       0.25716553       0.14847459       0.00000000 </v>
     <v>      -0.00000000       0.29694918       0.00000000 </v>
     <v>      -0.00000000      -0.00000000       0.04061494 </v>
    </varray>
   </crystal>
   <varray name="positions" >
    <v>       0.00000000       0.00000000       0.27438136 </v>
    <v>      -0.00000000      -0.00000000       0.72561864 </v>
    <v>       0.33333334       0.66666669       0.11158025 </v>
    <v>       0.66666663       0.33333331       0.88841975 </v>
    <v>       0.33333334       0.66666669       0.20900270 </v>
    <v>       0.66666663       0.33333331       0.79099733 </v>
    <v>       0.33333334       0.66666669       0.93522496 </v>
    <v>       0.66666663       0.33333331       0.06477504 </v>
    <v>       0.33333334       0.66666669       0.67663295 </v>
    <v>       0.66666663       0.33333331       0.32336705 </v>
    <v>       0.33333334       0.66666669       0.43729286 </v>
    <v>       0.66666663       0.33333331       0.56270714 </v>
    <v>       0.33333334       0.66666669       0.54137318 </v>
    <v>       0.66666663       0.33333331       0.45862682 </v>
   </varray>
  </structure>
  <varray name="forces" >
   <v>      -0.00000000      -0.00000000       0.00412700 </v>
   <v>       0.00000000       0.00000000      -0.00412700 </v>
   <v>      -0.00000000      -0.00000000       0.00221729 </v>
   <v>       0.00000000       0.00000000      -0.00221729 </v>
   <v>       0.00000000       0.00000000      -0.04902516 </v>
   <v>      -0.00000000      -0.00000000       0.04902516 </v>
   <v>      -0.00000000      -0.00000000       0.03836029 </v>
   <v>       0.00000000       0.00000000      -0.03836029 </v>
   <v>      -0.00000000      -0.00000000       0.05239492 </v>
   <v>       0.00000000       0.00000000      -0.05239492 </v>
   <v>      -0.00000000      -0.00000000       0.02349499 </v>
   <v>       0.00000000       0.00000000      -0.02349499 </v>
   <v>      -0.00000000      -0.00000000       0.01085270 </v>
   <v>       0.00000000       0.00000000      -0.01085270 </v>
  </varray>
  <varray name="stress" >
   <v>       0.25435009       0.00000000      -0.00000000 </v>
   <v>      -0.00000000       0.25435009       0.00000000 </v>
   <v>      -0.00000000       0.00000000      -0.74690646 </v>
  </varray>
  <energy>
   <i name="e_fr_energy">    -57.43224329 </i>
   <i name="e_wo_entrp">    -57.43224314 </i>
   <i name="e_0_energy">     -0.00000029 </i>
  </energy>
  <time name="totalsc">  248.68  249.75</time>
 </calculation>
 <calculation>
  <scstep>
   <time name="dav">   20.01   20.07</time>
   <time name="total">   22.61   22.70</time>
   <energy>
    <i name="alphaZ">    287.36257253 </i>
    <i name="ewald">  -7093.22152310 </i>
    <i name="hartreedc">  -4829.92207666 </i>
    <i name="XCdc">    381.52995523 </i>
    <i name="pawpsdc">  16258.96315745 </i>
    <i name="pawaedc"> -16550.14474909 </i>
    <i name="eentropy">     -0.00000028 </i>
    <i name="bandstr">   -527.37859860 </i>
    <i name="atom">  12019.53804467 </i>
    <i name="e_fr_energy">    -53.27321783 </i>
    <i name="e_wo_entrp">    -53.27321755 </i>
    <i name="e_0_energy">    -53.27321769 </i>
   </energy>
  </scstep>
  <scstep>
   <time name="dav">   25.43   25.51</time>
   <time name="total">   28.03   28.12</time>
   <energy>
    <i name="e_fr_energy">    -53.27563303 </i>
    <i name="e_wo_entrp">    -53.27563250 </i>
    <i name="e_0_energy">    -53.27563277 </i>
   </energy>
  </scstep>
  <scstep>
   <time name="dav">   24.50   24.58</time>
   <time name="total">   27.11   27.19</time>
   <energy>
    <i name="e_fr_energy">    -53.27558357 </i>
    <i name="e_wo_entrp">    -53.27558310 </i>
    <i name="e_0_energy">    -53.27558334 </i>
   </energy>
  </scstep>
  <scstep>
   <time name="dav">   27.17   27.25</time>
   <time name="total">   29.78   29.87</time>
   <energy>
    <i name="e_fr_energy">    -53.27555962 </i>
    <i name="e_wo_entrp">    -53.27555912 </i>
    <i name="e_0_energy">    -53.27555937 </i>
   </energy>
  </scstep>
  <scstep>
   <time name="dav">   24.73   24.80</time>
   <time name="total">   27.33   27.41</time>
   <energy>
    <i name="e_fr_energy">    -53.27554662 </i>
    <i name="e_wo_entrp">    -53.27554609 </i>
    <i name="e_0_energy">    -53.27554635 </i>
   </energy>
  </scstep>
  <scstep>
   <time name="dav">   26.24   26.31</time>
   <time name="total">   28.86   28.94</time>
   <energy>
    <i name="e_fr_energy">    -53.27554321 </i>
    <i name="e_wo_entrp">    -53.27554266 </i>
    <i name="e_0_energy">    -53.27554293 </i>
   </energy>
  </scstep>
  <scstep>
   <time name="dav">   20.67   20.74</time>
   <time name="total">   21.67   21.74</time>
   <energy>
    <i name="alphaZ">    287.36257253 </i>
    <i name="ewald">  -7093.22152310 </i>
    <i name="hartreedc">  -4831.12104659 </i>
    <i name="XCdc">    381.57211166 </i>
    <i name="pawpsdc">  16262.68346158 </i>
    <i name="pawaedc"> -16553.89263394 </i>
    <i name="eentropy">     -0.00000054 </i>
    <i name="bandstr">   -526.19652951 </i>
    <i name="atom">  12019.53804467 </i>
    <i name="e_fr_energy">    -53.27554323 </i>
    <i name="e_wo_entrp">    -53.27554268 </i>
    <i name="e_0_energy">    -53.27554296 </i>
   </energy>
  </scstep>
  <structure>
   <crystal>
    <varray name="basis" >
     <v>       3.88866795       0.00000000       0.00000000 </v>
     <v>      -1.94433397       3.36768523       0.00000000 </v>
     <v>      -0.00000000      -0.00000000      24.62928655 </v>
    </varray>
    <i name="volume">    322.54044782 </i>
    <varray name="rec_basis" >
     <v>       0.25715747       0.14846993       0.00000000 </v>
     <v>      -0.00000000       0.29693987       0.00000000 </v>
     <v>      -0.00000000      -0.00000000       0.04060207 </v>
    </varray>
   </crystal>
   <varray name="positions" >
    <v>       0.00000000       0.00000000       0.27416235 </v>
    <v>      -0.00000000      -0.00000000       0.72583765 </v>
    <v>       0.33333334       0.66666669       0.11148563 </v>
    <v>       0.66666663       0.33333331       0.88851437 </v>
    <v>       0.33333334       0.66666669       0.20888703 </v>
    <v>       0.66666663       0.33333331       0.79111300 </v>
    <v>       0.33333334       0.66666669       0.93523237 </v>
    <v>       0.66666663       0.33333331       0.06476763 </v>
    <v>       0.33333334       0.66666669       0.67677158 </v>
    <v>       0.66666663       0.33333331       0.32322842 </v>
    <v>       0.33333334       0.66666669       0.43751926 </v>
    <v>       0.66666663       0.33333331       0.56248074 </v>
    <v>       0.33333334       0.66666669       0.54118456 </v>
    <v>       0.66666663       0.33333331       0.45881544 </v>
   </varray>
  </structure>
  <varray name="forces" >
   <v>      -0.00000000      -0.00000000       0.02746006 </v>
   <v>       0.00000000       0.00000000      -0.02746006 </v>
   <v>      -0.00000000      -0.00000000       0.01353694 </v>
   <v>       0.00000000       0.00000000      -0.01353694 </v>
   <v>       0.00000000       0.00000000      -0.05786599 </v>
   <v>      -0.00000000      -0.00000000       0.05786599 </v>
   <v>      -0.00000000      -0.00000000       0.04998276 </v>
   <v>       0.00000000       0.00000000      -0.04998276 </v>
   <v>      -0.00000000      -0.00000000       0.06063925 </v>
   <v>       0.00000000       0.00000000      -0.06063925 </v>
   <v>       0.00000000       0.00000000      -0.01355417 </v>
   <v>      -0.00000000      -0.00000000       0.01355417 </v>
   <v>      -0.00000000      -0.00000000       0.02592428 </v>
   <v>       0.00000000       0.00000000      -0.02592428 </v>
  </varray>
  <varray name="stress" >
   <v>       0.66360210       0.00000000      -0.00000000 </v>
   <v>      -0.00000000       0.66360210       0.00000000 </v>
   <v>      -0.00000000      -0.00000000       0.01911331 </v>
  </varray>
  <energy>
   <i name="e_fr_energy">    -57.43265146 </i>
   <i name="e_wo_entrp">    -57.43265119 </i>
   <i name="e_0_energy">     -0.00000054 </i>
  </energy>
  <time name="totalsc">  229.80  230.77</time>
 </calculation>
 <calculation>
  <scstep>
   <time name="dav">   22.89   22.96</time>
   <time name="total">   25.51   25.59</time>
   <energy>
    <i name="alphaZ">    286.90576902 </i>
    <i name="ewald">  -7094.48058055 </i>
    <i name="hartreedc">  -4823.41956760 </i>
    <i name="XCdc">    381.34719701 </i>
    <i name="pawpsdc">  16263.37334297 </i>
    <i name="pawaedc"> -16554.58224971 </i>
    <i name="eentropy">     -0.00000031 </i>
    <i name="bandstr">   -531.96662653 </i>
    <i name="atom">  12019.53804467 </i>
    <i name="e_fr_energy">    -53.28467104 </i>
    <i name="e_wo_entrp">    -53.28467073 </i>
    <i name="e_0_energy">    -53.28467088 </i>
   </energy>
  </scstep>
  <scstep>
   <time name="dav">   26.30   26.38</time>
   <time name="total">   28.90   28.99</time>
   <energy>
    <i name="e_fr_energy">    -53.28435616 </i>
    <i name="e_wo_entrp">    -53.28435598 </i>
    <i name="e_0_energy">    -53.28435607 </i>
   </energy>
  </scstep>
  <scstep>
   <time name="dav">   26.02   26.09</time>
   <time name="total">   28.61   28.70</time>
   <energy>
    <i name="e_fr_energy">    -53.28413040 </i>
    <i name="e_wo_entrp">    -53.28413027 </i>
    <i name="e_0_energy">    -53.28413034 </i>
   </energy>
  </scstep>
  <scstep>
   <time name="dav">   25.26   25.33</time>
   <time name="total">   27.85   27.93</time>
   <energy>
    <i name="e_fr_energy">    -53.28402451 </i>
    <i name="e_wo_entrp">    -53.28402435 </i>
    <i name="e_0_energy">    -53.28402443 </i>
   </energy>
  </scstep>
  <scstep>
   <time name="dav">   25.81   25.89</time>
   <time name="total">   28.41   28.49</time>
   <energy>
    <i name="e_fr_energy">    -53.28400448 </i>
    <i name="e_wo_entrp">    -53.28400433 </i>
    <i name="e_0_energy">    -53.28400441 </i>
   </energy>
  </scstep>
  <scstep>
   <time name="dav">   25.85   25.93</time>
   <time name="total">   28.44   28.52</time>
   <energy>
    <i name="e_fr_energy">    -53.28399796 </i>
    <i name="e_wo_entrp">    -53.28399781 </i>
    <i name="e_0_energy">    -53.28399788 </i>
   </energy>
  </scstep>
  <scstep>
   <time name="dav">   18.36   18.42</time>
   <time name="total">   20.97   21.03</time>
   <energy>
    <i name="e_fr_energy">    -53.28399437 </i>
    <i name="e_wo_entrp">    -53.28399422 </i>
    <i name="e_0_energy">    -53.28399429 </i>
   </energy>
  </scstep>
  <scstep>
   <time name="dav">   15.18   15.22</time>
   <time name="total">   17.78   17.83</time>
   <energy>
    <i name="e_fr_energy">    -53.28399293 </i>
    <i name="e_wo_entrp">    -53.28399278 </i>
    <i name="e_0_energy">    -53.28399286 </i>
   </energy>
  </scstep>
  <scstep>
   <time name="dav">   14.79   14.83</time>
   <time name="total">   15.77   15.82</time>
   <energy>
    <i name="alphaZ">    286.90576902 </i>
    <i name="ewald">  -7094.48058055 </i>
    <i name="hartreedc">  -4827.47994466 </i>
    <i name="XCdc">    381.53995196 </i>
    <i name="pawpsdc">  16250.90548311 </i>
    <i name="pawaedc"> -16542.06603550 </i>
    <i name="eentropy">     -0.00000015 </i>
    <i name="bandstr">   -528.14668081 </i>
    <i name="atom">  12019.53804467 </i>
    <i name="e_fr_energy">    -53.28399291 </i>
    <i name="e_wo_entrp">    -53.28399276 </i>
    <i name="e_0_energy">    -53.28399283 </i>
   </energy>
  </scstep>
  <structure>
   <crystal>
    <varray name="basis" >
     <v>       3.89129770       0.00000000       0.00000000 </v>
     <v>      -1.94564885       3.36996266       0.00000000 </v>
     <v>      -0.00000000      -0.00000000      24.63516985 </v>
    </varray>
    <i name="volume">    323.05398790 </i>
    <varray name="rec_basis" >
     <v>       0.25698368       0.14836960       0.00000000 </v>
     <v>      -0.00000000       0.29673919       0.00000000 </v>
     <v>      -0.00000000      -0.00000000       0.04059237 </v>
    </varray>
   </crystal>
   <varray name="positions" >
    <v>       0.00000000       0.00000000       0.27408697 </v>
    <v>      -0.00000000      -0.00000000       0.72591303 </v>
    <v>       0.33333334       0.66666669       0.11145772 </v>
    <v>       0.66666663       0.33333331       0.88854228 </v>
    <v>       0.33333334       0.66666669       0.20864569 </v>
    <v>       0.66666663       0.33333331       0.79135434 </v>
    <v>       0.33333334       0.66666669       0.93537670 </v>
    <v>       0.66666663       0.33333331       0.06462330 </v>
    <v>       0.33333334       0.66666669       0.67703658 </v>
    <v>       0.66666663       0.33333331       0.32296342 </v>
    <v>       0.33333334       0.66666669       0.43763848 </v>
    <v>       0.66666663       0.33333331       0.56236152 </v>
    <v>       0.33333334       0.66666669       0.54112598 </v>
    <v>       0.66666663       0.33333331       0.45887402 </v>
   </varray>
  </structure>
  <varray name="forces" >
   <v>       0.00000000       0.00000000      -0.00873142 </v>
   <v>      -0.00000000      -0.00000000       0.00873142 </v>
   <v>       0.00000000       0.00000000      -0.06176405 </v>
   <v>      -0.00000000      -0.00000000       0.06176405 </v>
   <v>      -0.00000000      -0.00000000       0.00808019 </v>
   <v>       0.00000000       0.00000000      -0.00808019 </v>
   <v>      -0.00000000      -0.00000000       0.01791821 </v>
   <v>       0.00000000       0.00000000      -0.01791821 </v>
   <v>      -0.00000000      -0.00000000       0.03971359 </v>
   <v>       0.00000000       0.00000000      -0.03971359 </v>
   <v>       0.00000000       0.00000000      -0.02682357 </v>
   <v>      -0.00000000      -0.00000000       0.02682357 </v>
   <v>      -0.00000000      -0.00000000       0.03361313 </v>
   <v>       0.00000000       0.00000000      -0.03361313 </v>
  </varray>
  <varray name="stress" >
   <v>      -0.49201725      -0.00000000      -0.00000000 </v>
   <v>      -0.00000000      -0.49201725       0.00000000 </v>
   <v>      -0.00000000       0.00000000       0.62970754 </v>
  </varray>
  <energy>
   <i name="e_fr_energy">    -57.43370540 </i>
   <i name="e_wo_entrp">    -57.43370532 </i>
   <i name="e_0_energy">     -0.00000015 </i>
  </energy>
  <time name="totalsc">  266.44  268.76</time>
 </calculation>
 <calculation>
  <scstep>
   <time name="dav">   22.80   22.87</time>
   <time name="total">   25.40   25.48</time>
   <energy>
    <i name="alphaZ">    286.81983338 </i>
    <i name="ewald">  -7094.70738096 </i>
    <i name="hartreedc">  -4826.04017615 </i>
    <i name="XCdc">    381.49768439 </i>
    <i name="pawpsdc">  16250.80614110 </i>
    <i name="pawaedc"> -16541.96710239 </i>
    <i name="eentropy">     -0.00000013 </i>
    <i name="bandstr">   -529.23248548 </i>
    <i name="atom">  12019.53804467 </i>
    <i name="e_fr_energy">    -53.28544157 </i>
    <i name="e_wo_entrp">    -53.28544144 </i>
    <i name="e_0_energy">    -53.28544151 </i>
   </energy>
  </scstep>
  <scstep>
   <time name="dav">   26.32   26.40</time>
   <time name="total">   28.92   29.01</time>
   <energy>
    <i name="e_fr_energy">    -53.28543281 </i>
    <i name="e_wo_entrp">    -53.28543269 </i>
    <i name="e_0_energy">    -53.28543275 </i>
   </energy>
  </scstep>
  <scstep>
   <time name="dav">   26.13   26.21</time>
   <time name="total">   28.75   29.27</time>
   <energy>
    <i name="e_fr_energy">    -53.28542403 </i>
    <i name="e_wo_entrp">    -53.28542392 </i>
    <i name="e_0_energy">    -53.28542397 </i>
   </energy>
  </scstep>
  <scstep>
   <time name="dav">   24.75   24.83</time>
   <time name="total">   27.38   27.47</time>
   <energy>
    <i name="e_fr_energy">    -53.28541895 </i>
    <i name="e_wo_entrp">    -53.28541884 </i>
    <i name="e_0_energy">    -53.28541890 </i>
   </energy>
  </scstep>
  <scstep>
   <time name="dav">   16.82   16.87</time>
   <time name="total">   19.43   19.49</time>
   <energy>
    <i name="e_fr_energy">    -53.28541721 </i>
    <i name="e_wo_entrp">    -53.28541709 </i>
    <i name="e_0_energy">    -53.28541715 </i>
   </energy>
  </scstep>
  <scstep>
   <time name="dav">   14.91   14.96</time>
   <time name="total">   17.52   17.57</time>
   <energy>
    <i name="e_fr_energy">    -53.28541619 </i>
    <i name="e_wo_entrp">    -53.28541608 </i>
    <i name="e_0_energy">    -53.28541614 </i>
   </energy>
  </scstep>
  <scstep>
   <time name="dav">   14.83   14.88</time>
   <time name="total">   15.83   16.13</time>
   <energy>
    <i name="alphaZ">    286.81983338 </i>
    <i name="ewald">  -7094.70738096 </i>
    <i name="hartreedc">  -4826.80542774 </i>
    <i name="XCdc">    381.53410860 </i>
    <i name="pawpsdc">  16247.75239736 </i>
    <i name="pawaedc"> -16538.90609014 </i>
    <i name="eentropy">     -0.00000011 </i>
    <i name="bandstr">   -528.51090089 </i>
    <i name="atom">  12019.53804467 </i>
    <i name="e_fr_energy">    -53.28541583 </i>
    <i name="e_wo_entrp">    -53.28541571 </i>
    <i name="e_0_energy">    -53.28541577 </i>
   </energy>
  </scstep>
  <structure>
   <crystal>
    <varray name="basis" >
     <v>       3.89179306       0.00000000       0.00000000 </v>
     <v>      -1.94589653       3.37039166       0.00000000 </v>
     <v>      -0.00000000      -0.00000000      24.63627809 </v>
    </varray>
    <i name="volume">    323.15077984 </i>
    <varray name="rec_basis" >
     <v>       0.25695097       0.14835071       0.00000000 </v>
     <v>      -0.00000000       0.29670142       0.00000000 </v>
     <v>      -0.00000000      -0.00000000       0.04059055 </v>
    </varray>
   </crystal>
   <varray name="positions" >
    <v>       0.00000000       0.00000000       0.27407277 </v>
    <v>      -0.00000000      -0.00000000       0.72592723 </v>
    <v>       0.33333334       0.66666669       0.11145247 </v>
    <v>       0.66666663       0.33333331       0.88854753 </v>
    <v>       0.33333334       0.66666669       0.20860024 </v>
    <v>       0.66666663       0.33333331       0.79139979 </v>
    <v>       0.33333334       0.66666669       0.93540388 </v>
    <v>       0.66666663       0.33333331       0.06459612 </v>
    <v>       0.33333334       0.66666669       0.67708649 </v>
    <v>       0.66666663       0.33333331       0.32291351 </v>
    <v>       0.33333334       0.66666669       0.43766093 </v>
    <v>       0.66666663       0.33333331       0.56233907 </v>
    <v>       0.33333334       0.66666669       0.54111495 </v>
    <v>       0.66666663       0.33333331       0.45888505 </v>
   </varray>
  </structure>
  <varray name="forces" >
   <v>       0.00000000       0.00000000      -0.01539257 </v>
   <v>      -0.00000000      -0.00000000       0.01539257 </v>
   <v>       0.00000000       0.00000000      -0.07592809 </v>
   <v>      -0.00000000      -0.00000000       0.07592809 </v>
   <v>      -0.00000000      -0.00000000       0.02025474 </v>
   <v>       0.00000000       0.00000000      -0.02025474 </v>
   <v>      -0.00000000      -0.00000000       0.01231595 </v>
   <v>       0.00000000       0.00000000      -0.01231595 </v>
   <v>      -0.00000000      -0.00000000       0.03614283 </v>
   <v>       0.00000000       0.00000000      -0.03614283 </v>
   <v>       0.00000000       0.00000000      -0.02913854 </v>
   <v>      -0.00000000      -0.00000000       0.02913854 </v>
   <v>      -0.00000000      -0.00000000       0.03502817 </v>
   <v>       0.00000000       0.00000000      -0.03502817 </v>
  </varray>
  <varray name="stress" >
   <v>      -0.72123101       0.00000000      -0.00000000 </v>
   <v>       0.00000000      -0.72123101       0.00000000 </v>
   <v>      -0.00000000       0.00000000       0.73200942 </v>
  </varray>
  <energy>
   <i name="e_fr_energy">    -57.43373680 </i>
   <i name="e_wo_entrp">    -57.43373674 </i>
   <i name="e_0_energy">     -0.00000011 </i>
  </energy>
  <time name="totalsc">  207.36  208.93</time>
 </calculation>
 <calculation>
  <scstep>
   <time name="dav">   21.82   21.89</time>
   <time name="total">   24.41   24.49</time>
   <energy>
    <i name="alphaZ">    286.65173890 </i>
    <i name="ewald">  -7100.57692771 </i>
    <i name="hartreedc">  -4818.31621597 </i>
    <i name="XCdc">    381.45480926 </i>
    <i name="pawpsdc">  16247.83829185 </i>
    <i name="pawaedc"> -16538.99162762 </i>
    <i name="eentropy">     -0.00000011 </i>
    <i name="bandstr">   -530.88614219 </i>
    <i name="atom">  12019.53804467 </i>
    <i name="e_fr_energy">    -53.28802891 </i>
    <i name="e_wo_entrp">    -53.28802880 </i>
    <i name="e_0_energy">    -53.28802886 </i>
   </energy>
  </scstep>
  <scstep>
   <time name="dav">   24.92   24.99</time>
   <time name="total">   27.52   27.60</time>
   <energy>
    <i name="e_fr_energy">    -53.28962024 </i>
    <i name="e_wo_entrp">    -53.28962013 </i>
    <i name="e_0_energy">    -53.28962019 </i>
   </energy>
  </scstep>
  <scstep>
   <time name="dav">   26.12   26.20</time>
   <time name="total">   28.72   28.82</time>
   <energy>
    <i name="e_fr_energy">    -53.28953330 </i>
    <i name="e_wo_entrp">    -53.28953322 </i>
    <i name="e_0_energy">    -53.28953326 </i>
   </energy>
  </scstep>
  <scstep>
   <time name="dav">   23.73   23.80</time>
   <time name="total">   26.33   26.43</time>
   <energy>
    <i name="e_fr_energy">    -53.28950491 </i>
    <i name="e_wo_entrp">    -53.28950483 </i>
    <i name="e_0_energy">    -53.28950487 </i>
   </energy>
  </scstep>
  <scstep>
   <time name="dav">   26.50   26.58</time>
   <time name="total">   29.11   29.21</time>
   <energy>
    <i name="e_fr_energy">    -53.28947562 </i>
    <i name="e_wo_entrp">    -53.28947553 </i>
    <i name="e_0_energy">    -53.28947557 </i>
   </energy>
  </scstep>
  <scstep>
   <time name="dav">   27.06   27.14</time>
   <time name="total">   29.66   29.75</time>
   <energy>
    <i name="e_fr_energy">    -53.28946961 </i>
    <i name="e_wo_entrp">    -53.28946953 </i>
    <i name="e_0_energy">    -53.28946957 </i>
   </energy>
  </scstep>
  <scstep>
   <time name="dav">   19.35   19.41</time>
   <time name="total">   20.33   20.61</time>
   <energy>
    <i name="alphaZ">    286.65173890 </i>
    <i name="ewald">  -7100.57692771 </i>
    <i name="hartreedc">  -4820.00401770 </i>
    <i name="XCdc">    381.52635999 </i>
    <i name="pawpsdc">  16243.99680649 </i>
    <i name="pawaedc"> -16535.14439552 </i>
    <i name="eentropy">     -0.00000009 </i>
    <i name="bandstr">   -529.27707821 </i>
    <i name="atom">  12019.53804467 </i>
    <i name="e_fr_energy">    -53.28946916 </i>
    <i name="e_wo_entrp">    -53.28946907 </i>
    <i name="e_0_energy">    -53.28946911 </i>
   </energy>
  </scstep>
  <structure>
   <crystal>
    <varray name="basis" >
     <v>       3.89162246       0.00000000       0.00000000 </v>
     <v>      -1.94581123       3.37024391       0.00000000 </v>
     <v>      -0.00000000      -0.00000000      24.65288628 </v>
    </varray>
    <i name="volume">    323.34027760 </i>
    <varray name="rec_basis" >
     <v>       0.25696223       0.14835721       0.00000000 </v>
     <v>      -0.00000000       0.29671443       0.00000000 </v>
     <v>      -0.00000000      -0.00000000       0.04056320 </v>
    </varray>
   </crystal>
   <varray name="positions" >
    <v>       0.00000000       0.00000000       0.27399118 </v>
    <v>      -0.00000000      -0.00000000       0.72600882 </v>
    <v>       0.33333334       0.66666669       0.11128398 </v>
    <v>       0.66666663       0.33333331       0.88871602 </v>
    <v>       0.33333334       0.66666669       0.20847593 </v>
    <v>       0.66666663       0.33333331       0.79152410 </v>
    <v>       0.33333334       0.66666669       0.93552632 </v>
    <v>       0.66666663       0.33333331       0.06447368 </v>
    <v>       0.33333334       0.66666669       0.67733794 </v>
    <v>       0.66666663       0.33333331       0.32266206 </v>
    <v>       0.33333334       0.66666669       0.43768467 </v>
    <v>       0.66666663       0.33333331       0.56231533 </v>
    <v>       0.33333334       0.66666669       0.54114407 </v>
    <v>       0.66666663       0.33333331       0.45885593 </v>
   </varray>
  </structure>
  <varray name="forces" >
   <v>       0.00000000       0.00000000      -0.04663403 </v>
   <v>      -0.00000000      -0.00000000       0.04663403 </v>
   <v>       0.00000000       0.00000000      -0.04261150 </v>
   <v>      -0.00000000      -0.00000000       0.04261150 </v>
   <v>       0.00000000       0.00000000      -0.00139957 </v>
   <v>      -0.00000000      -0.00000000       0.00139957 </v>
   <v>      -0.00000000      -0.00000000       0.01356724 </v>
   <v>       0.00000000       0.00000000      -0.01356724 </v>
   <v>      -0.00000000      -0.00000000       0.00878318 </v>
   <v>       0.00000000       0.00000000      -0.00878318 </v>
   <v>       0.00000000       0.00000000      -0.03074971 </v>
   <v>      -0.00000000      -0.00000000       0.03074971 </v>
   <v>      -0.00000000      -0.00000000       0.03136669 </v>
   <v>       0.00000000       0.00000000      -0.03136669 </v>
  </varray>
  <varray name="stress" >
   <v>      -0.55290427      -0.00000000      -0.00000000 </v>
   <v>      -0.00000000      -0.55290427       0.00000000 </v>
   <v>       0.00000000       0.00000000      -0.05405354 </v>
  </varray>
  <energy>
   <i name="e_fr_energy">    -57.43472895 </i>
   <i name="e_wo_entrp">    -57.43472890 </i>
   <i name="e_0_energy">     -0.00000009 </i>
  </energy>
  <time name="totalsc">  230.29  231.71</time>
 </calculation>
 <calculation>
  <scstep>
   <time name="dav">   22.03   22.10</time>
   <time name="total">   24.65   24.73</time>
   <energy>
    <i name="alphaZ">    286.42729990 </i>
    <i name="ewald">  -7108.31097576 </i>
    <i name="hartreedc">  -4808.77405595 </i>
    <i name="XCdc">    381.42081224 </i>
    <i name="pawpsdc">  16245.46434859 </i>
    <i name="pawaedc"> -16536.61068912 </i>
    <i name="eentropy">     -0.00000008 </i>
    <i name="bandstr">   -532.44635019 </i>
    <i name="atom">  12019.53804467 </i>
    <i name="e_fr_energy">    -53.29156569 </i>
    <i name="e_wo_entrp">    -53.29156561 </i>
    <i name="e_0_energy">    -53.29156565 </i>
   </energy>
  </scstep>
  <scstep>
   <time name="dav">   25.02   25.10</time>
   <time name="total">   27.63   27.72</time>
   <energy>
    <i name="e_fr_energy">    -53.29440331 </i>
    <i name="e_wo_entrp">    -53.29440323 </i>
    <i name="e_0_energy">    -53.29440327 </i>
   </energy>
  </scstep>
  <scstep>
   <time name="dav">   26.40   26.48</time>
   <time name="total">   29.01   29.10</time>
   <energy>
    <i name="e_fr_energy">    -53.29425068 </i>
    <i name="e_wo_entrp">    -53.29425063 </i>
    <i name="e_0_energy">    -53.29425065 </i>
   </energy>
  </scstep>
  <scstep>
   <time name="dav">   23.62   23.69</time>
   <time name="total">   26.22   26.30</time>
   <energy>
    <i name="e_fr_energy">    -53.29420063 </i>
    <i name="e_wo_entrp">    -53.29420057 </i>
    <i name="e_0_energy">    -53.29420060 </i>
   </energy>
  </scstep>
  <scstep>
   <time name="dav">   26.33   26.41</time>
   <time name="total">   28.93   29.02</time>
   <energy>
    <i name="e_fr_energy">    -53.29414899 </i>
    <i name="e_wo_entrp">    -53.29414893 </i>
    <i name="e_0_energy">    -53.29414896 </i>
   </energy>
  </scstep>
  <scstep>
   <time name="dav">   26.99   27.07</time>
   <time name="total">   29.59   29.68</time>
   <energy>
    <i name="e_fr_energy">    -53.29413881 </i>
    <i name="e_wo_entrp">    -53.29413875 </i>
    <i name="e_0_energy">    -53.29413878 </i>
   </energy>
  </scstep>
  <scstep>
   <time name="dav">   22.23   22.29</time>
   <time name="total">   23.22   23.29</time>
   <energy>
    <i name="alphaZ">    286.42729990 </i>
    <i name="ewald">  -7108.31097576 </i>
    <i name="hartreedc">  -4811.03421426 </i>
    <i name="XCdc">    381.51659658 </i>
    <i name="pawpsdc">  16240.65178729 </i>
    <i name="pawaedc"> -16531.78841211 </i>
    <i name="eentropy">     -0.00000006 </i>
    <i name="bandstr">   -530.29426457 </i>
    <i name="atom">  12019.53804467 </i>
    <i name="e_fr_energy">    -53.29413832 </i>
    <i name="e_wo_entrp">    -53.29413826 </i>
    <i name="e_0_energy">    -53.29413829 </i>
   </energy>
  </scstep>
  <structure>
   <crystal>
    <varray name="basis" >
     <v>       3.89139431       0.00000000       0.00000000 </v>
     <v>      -1.94569716       3.37004633       0.00000000 </v>
     <v>      -0.00000000      -0.00000000      24.67509692 </v>
    </varray>
    <i name="volume">    323.59364091 </i>
    <varray name="rec_basis" >
     <v>       0.25697730       0.14836591       0.00000000 </v>
     <v>      -0.00000000       0.29673183       0.00000000 </v>
     <v>      -0.00000000      -0.00000000       0.04052669 </v>
    </varray>
   </crystal>
   <varray name="positions" >
    <v>       0.00000000       0.00000000       0.27388214 </v>
    <v>      -0.00000000      -0.00000000       0.72611786 </v>
    <v>       0.33333334       0.66666669       0.11105880 </v>
    <v>       0.66666663       0.33333331       0.88894120 </v>
    <v>       0.33333334       0.66666669       0.20830979 </v>
    <v>       0.66666663       0.33333331       0.79169024 </v>
    <v>       0.33333334       0.66666669       0.93568996 </v>
    <v>       0.66666663       0.33333331       0.06431004 </v>
    <v>       0.33333334       0.66666669       0.67767398 </v>
    <v>       0.66666663       0.33333331       0.32232602 </v>
    <v>       0.33333334       0.66666669       0.43771639 </v>
    <v>       0.66666663       0.33333331       0.56228361 </v>
    <v>       0.33333334       0.66666669       0.54118298 </v>
    <v>       0.66666663       0.33333331       0.45881702 </v>
   </varray>
  </structure>
  <varray name="forces" >
   <v>       0.00000000       0.00000000      -0.08862036 </v>
   <v>      -0.00000000      -0.00000000       0.08862036 </v>
   <v>      -0.00000000      -0.00000000       0.00189413 </v>
   <v>       0.00000000       0.00000000      -0.00189413 </v>
   <v>       0.00000000       0.00000000      -0.03011245 </v>
   <v>      -0.00000000      -0.00000000       0.03011245 </v>
   <v>      -0.00000000      -0.00000000       0.01564550 </v>
   <v>       0.00000000       0.00000000      -0.01564550 </v>
   <v>       0.00000000       0.00000000      -0.02759321 </v>
   <v>      -0.00000000      -0.00000000       0.02759321 </v>
   <v>       0.00000000       0.00000000      -0.03253100 </v>
   <v>      -0.00000000      -0.00000000       0.03253100 </v>
   <v>      -0.00000000      -0.00000000       0.02645748 </v>
   <v>       0.00000000       0.00000000      -0.02645748 </v>
  </varray>
  <varray name="stress" >
   <v>      -0.27916677       0.00000000      -0.00000000 </v>
   <v>       0.00000000      -0.27916677       0.00000000 </v>
   <v>      -0.00000000       0.00000000      -1.13585844 </v>
  </varray>
  <energy>
   <i name="e_fr_energy">    -57.43531567 </i>
   <i name="e_wo_entrp">    -57.43531564 </i>
   <i name="e_0_energy">     -0.00000006 </i>
  </energy>
  <time name="totalsc">  233.27  234.83</time>
 </calculation>
 <calculation>
  <scstep>
   <time name="dav">   20.71   20.77</time>
   <time name="total">   23.31   23.39</time>
   <energy>
    <i name="alphaZ">    286.56611804 </i>
    <i name="ewald">  -7121.65225912 </i>
    <i name="hartreedc">  -4799.57038740 </i>
    <i name="XCdc">    381.58985637 </i>
    <i name="pawpsdc">  16242.28375755 </i>
    <i name="pawaedc"> -16533.41925444 </i>
    <i name="eentropy">     -0.00000006 </i>
    <i name="bandstr">   -528.62708905 </i>
    <i name="atom">  12019.53804467 </i>
    <i name="e_fr_energy">    -53.29121343 </i>
    <i name="e_wo_entrp">    -53.29121337 </i>
    <i name="e_0_energy">    -53.29121340 </i>
   </energy>
  </scstep>
  <scstep>
   <time name="dav">   26.29   26.37</time>
   <time name="total">   28.89   28.98</time>
   <energy>
    <i name="e_fr_energy">    -53.29363405 </i>
    <i name="e_wo_entrp">    -53.29363399 </i>
    <i name="e_0_energy">    -53.29363402 </i>
   </energy>
  </scstep>
  <scstep>
   <time name="dav">   25.15   25.23</time>
   <time name="total">   27.76   27.86</time>
   <energy>
    <i name="e_fr_energy">    -53.29353662 </i>
    <i name="e_wo_entrp">    -53.29353656 </i>
    <i name="e_0_energy">    -53.29353659 </i>
   </energy>
  </scstep>
  <scstep>
   <time name="dav">   27.46   27.54</time>
   <time name="total">   30.06   30.15</time>
   <energy>
    <i name="e_fr_energy">    -53.29350722 </i>
    <i name="e_wo_entrp">    -53.29350716 </i>
    <i name="e_0_energy">    -53.29350719 </i>
   </energy>
  </scstep>
  <scstep>
   <time name="dav">   27.37   27.45</time>
   <time name="total">   29.97   30.08</time>
   <energy>
    <i name="e_fr_energy">    -53.29349951 </i>
    <i name="e_wo_entrp">    -53.29349944 </i>
    <i name="e_0_energy">    -53.29349947 </i>
   </energy>
  </scstep>
  <scstep>
   <time name="dav">   24.81   24.88</time>
   <time name="total">   25.79   26.08</time>
   <energy>
    <i name="alphaZ">    286.56611804 </i>
    <i name="ewald">  -7121.65225912 </i>
    <i name="hartreedc">  -4798.37288736 </i>
    <i name="XCdc">    381.53165369 </i>
    <i name="pawpsdc">  16254.13537129 </i>
    <i name="pawaedc"> -16545.28435626 </i>
    <i name="eentropy">     -0.00000007 </i>
    <i name="bandstr">   -529.75518404 </i>
    <i name="atom">  12019.53804467 </i>
    <i name="e_fr_energy">    -53.29349916 </i>
    <i name="e_wo_entrp">    -53.29349909 </i>
    <i name="e_0_energy">    -53.29349913 </i>
   </energy>
  </scstep>
  <structure>
   <crystal>
    <varray name="basis" >
     <v>       3.89061649       0.00000000       0.00000000 </v>
     <v>      -1.94530825       3.36937272       0.00000000 </v>
     <v>      -0.00000000      -0.00000000      24.67300624 </v>
    </varray>
    <i name="volume">    323.43688593 </i>
    <varray name="rec_basis" >
     <v>       0.25702867       0.14839557       0.00000000 </v>
     <v>      -0.00000000       0.29679115       0.00000000 </v>
     <v>      -0.00000000      -0.00000000       0.04053012 </v>
    </varray>
   </crystal>
   <varray name="positions" >
    <v>       0.00000000       0.00000000       0.27366768 </v>
    <v>      -0.00000000      -0.00000000       0.72633232 </v>
    <v>       0.33333334       0.66666669       0.11091813 </v>
    <v>       0.66666663       0.33333331       0.88908187 </v>
    <v>       0.33333334       0.66666669       0.20815451 </v>
    <v>       0.66666663       0.33333331       0.79184552 </v>
    <v>       0.33333334       0.66666669       0.93582001 </v>
    <v>       0.66666663       0.33333331       0.06417999 </v>
    <v>       0.33333334       0.66666669       0.67784344 </v>
    <v>       0.66666663       0.33333331       0.32215656 </v>
    <v>       0.33333334       0.66666669       0.43768348 </v>
    <v>       0.66666663       0.33333331       0.56231652 </v>
    <v>       0.33333334       0.66666669       0.54125107 </v>
    <v>       0.66666663       0.33333331       0.45874893 </v>
   </varray>
  </structure>
  <varray name="forces" >
   <v>       0.00000000       0.00000000      -0.07682659 </v>
   <v>      -0.00000000      -0.00000000       0.07682659 </v>
   <v>      -0.00000000      -0.00000000       0.00087047 </v>
   <v>       0.00000000       0.00000000      -0.00087047 </v>
   <v>       0.00000000       0.00000000      -0.03275449 </v>
   <v>      -0.00000000      -0.00000000       0.03275449 </v>
   <v>      -0.00000000      -0.00000000       0.01985017 </v>
   <v>       0.00000000       0.00000000      -0.01985017 </v>
   <v>       0.00000000       0.00000000      -0.02741672 </v>
   <v>      -0.00000000      -0.00000000       0.02741672 </v>
   <v>       0.00000000       0.00000000      -0.03129982 </v>
   <v>      -0.00000000      -0.00000000       0.03129982 </v>
   <v>      -0.00000000      -0.00000000       0.02131943 </v>
   <v>       0.00000000       0.00000000      -0.02131943 </v>
  </varray>
  <varray name="stress" >
   <v>      -0.03574199       0.00000000      -0.00000000 </v>
   <v>       0.00000000      -0.03574199      -0.00000000 </v>
   <v>      -0.00000000      -0.00000000      -1.06057501 </v>
  </varray>
  <energy>
   <i name="e_fr_energy">    -57.43646721 </i>
   <i name="e_wo_entrp">    -57.43646718 </i>
   <i name="e_0_energy">     -0.00000007 </i>
  </energy>
  <time name="totalsc">  210.12  211.25</time>
 </calculation>
 <calculation>
  <scstep>
   <time name="dav">   20.66   20.72</time>
   <time name="total">   23.28   23.35</time>
   <energy>
    <i name="alphaZ">    286.98312631 </i>
    <i name="ewald">  -7161.06238259 </i>
    <i name="hartreedc">  -4764.51317497 </i>
    <i name="XCdc">    381.74895103 </i>
    <i name="pawpsdc">  16252.66266583 </i>
    <i name="pawaedc"> -16543.81567142 </i>
    <i name="eentropy">     -0.00000007 </i>
    <i name="bandstr">   -524.81305905 </i>
    <i name="atom">  12019.53804467 </i>
    <i name="e_fr_energy">    -53.27150025 </i>
    <i name="e_wo_entrp">    -53.27150019 </i>
    <i name="e_0_energy">    -53.27150022 </i>
   </energy>
  </scstep>
  <scstep>
   <time name="dav">   26.80   26.88</time>
   <time name="total">   29.42   29.50</time>
   <energy>
    <i name="e_fr_energy">    -53.29219929 </i>
    <i name="e_wo_entrp">    -53.29219921 </i>
    <i name="e_0_energy">    -53.29219925 </i>
   </energy>
  </scstep>
  <scstep>
   <time name="dav">   24.67   24.75</time>
   <time name="total">   27.29   27.37</time>
   <energy>
    <i name="e_fr_energy">    -53.29120341 </i>
    <i name="e_wo_entrp">    -53.29120335 </i>
    <i name="e_0_energy">    -53.29120338 </i>
   </energy>
  </scstep>
  <scstep>
   <time name="dav">   27.16   27.24</time>
   <time name="total">   29.76   29.85</time>
   <energy>
    <i name="e_fr_energy">    -53.29092449 </i>
    <i name="e_wo_entrp">    -53.29092441 </i>
    <i name="e_0_energy">    -53.29092445 </i>
   </energy>
  </scstep>
  <scstep>
   <time name="dav">   27.46   27.54</time>
   <time name="total">   30.06   30.36</time>
   <energy>
    <i name="e_fr_energy">    -53.29086066 </i>
    <i name="e_wo_entrp">    -53.29086056 </i>
    <i name="e_0_energy">    -53.29086061 </i>
   </energy>
  </scstep>
  <scstep>
   <time name="dav">   25.32   25.39</time>
   <time name="total">   27.92   29.28</time>
   <energy>
    <i name="e_fr_energy">    -53.29084392 </i>
    <i name="e_wo_entrp">    -53.29084382 </i>
    <i name="e_0_energy">    -53.29084387 </i>
   </energy>
  </scstep>
  <scstep>
   <time name="dav">   24.65   24.72</time>
   <time name="total">   27.24   27.32</time>
   <energy>
    <i name="e_fr_energy">    -53.29084765 </i>
    <i name="e_wo_entrp">    -53.29084755 </i>
    <i name="e_0_energy">    -53.29084760 </i>
   </energy>
  </scstep>
  <scstep>
   <time name="dav">   20.71   20.77</time>
   <time name="total">   23.30   23.37</time>
   <energy>
    <i name="e_fr_energy">    -53.29084867 </i>
    <i name="e_wo_entrp">    -53.29084857 </i>
    <i name="e_0_energy">    -53.29084862 </i>
   </energy>
  </scstep>
  <scstep>
   <time name="dav">   14.77   14.81</time>
   <time name="total">   15.76   15.81</time>
   <energy>
    <i name="alphaZ">    286.98312631 </i>
    <i name="ewald">  -7161.06238259 </i>
    <i name="hartreedc">  -4760.73310671 </i>
    <i name="XCdc">    381.56748953 </i>
    <i name="pawpsdc">  16275.71349411 </i>
    <i name="pawaedc"> -16566.95265868 </i>
    <i name="eentropy">     -0.00000010 </i>
    <i name="bandstr">   -528.34485537 </i>
    <i name="atom">  12019.53804467 </i>
    <i name="e_fr_energy">    -53.29084883 </i>
    <i name="e_wo_entrp">    -53.29084873 </i>
    <i name="e_0_energy">    -53.29084878 </i>
   </energy>
  </scstep>
  <structure>
   <crystal>
    <varray name="basis" >
     <v>       3.88828303       0.00000000       0.00000000 </v>
     <v>      -1.94414151       3.36735188       0.00000000 </v>
     <v>      -0.00000000      -0.00000000      24.66673422 </v>
    </varray>
    <i name="volume">    322.96690758 </i>
    <varray name="rec_basis" >
     <v>       0.25718292       0.14848463       0.00000000 </v>
     <v>      -0.00000000       0.29696926       0.00000000 </v>
     <v>      -0.00000000      -0.00000000       0.04054043 </v>
    </varray>
   </crystal>
   <varray name="positions" >
    <v>       0.00000000       0.00000000       0.27302424 </v>
    <v>      -0.00000000      -0.00000000       0.72697576 </v>
    <v>       0.33333334       0.66666669       0.11049609 </v>
    <v>       0.66666663       0.33333331       0.88950391 </v>
    <v>       0.33333334       0.66666669       0.20768861 </v>
    <v>       0.66666663       0.33333331       0.79231142 </v>
    <v>       0.33333334       0.66666669       0.93621018 </v>
    <v>       0.66666663       0.33333331       0.06378982 </v>
    <v>       0.33333334       0.66666669       0.67835184 </v>
    <v>       0.66666663       0.33333331       0.32164816 </v>
    <v>       0.33333334       0.66666669       0.43758473 </v>
    <v>       0.66666663       0.33333331       0.56241527 </v>
    <v>       0.33333334       0.66666669       0.54145534 </v>
    <v>       0.66666663       0.33333331       0.45854466 </v>
   </varray>
  </structure>
  <varray name="forces" >
   <v>       0.00000000       0.00000000      -0.03869975 </v>
   <v>      -0.00000000      -0.00000000       0.03869975 </v>
   <v>       0.00000000       0.00000000      -0.00341301 </v>
   <v>      -0.00000000      -0.00000000       0.00341301 </v>
   <v>       0.00000000       0.00000000      -0.04096814 </v>
   <v>      -0.00000000      -0.00000000       0.04096814 </v>
   <v>      -0.00000000      -0.00000000       0.03295058 </v>
   <v>       0.00000000       0.00000000      -0.03295058 </v>
   <v>       0.00000000       0.00000000      -0.02445308 </v>
   <v>      -0.00000000      -0.00000000       0.02445308 </v>
   <v>       0.00000000       0.00000000      -0.02892655 </v>
   <v>      -0.00000000      -0.00000000       0.02892655 </v>
   <v>      -0.00000000      -0.00000000       0.00623024 </v>
   <v>       0.00000000       0.00000000      -0.00623024 </v>
  </varray>
  <varray name="stress" >
   <v>       1.00829521       0.00000000       0.00000000 </v>
   <v>       0.00000000       1.00829521      -0.00000000 </v>
   <v>      -0.00000000       0.00000000      -0.30440153 </v>
  </varray>
  <energy>
   <i name="e_fr_energy">    -57.43922954 </i>
   <i name="e_wo_entrp">    -57.43922949 </i>
   <i name="e_0_energy">     -0.00000010 </i>
  </energy>
  <time name="totalsc">  278.22  280.58</time>
 </calculation>
 <calculation>
  <scstep>
   <time name="dav">   20.62   20.68</time>
   <time name="total">   23.23   23.30</time>
   <energy>
    <i name="alphaZ">    287.81964225 </i>
    <i name="ewald">  -7237.11472520 </i>
    <i name="hartreedc">  -4695.79355471 </i>
    <i name="XCdc">    382.00413821 </i>
    <i name="pawpsdc">  16275.51766502 </i>
    <i name="pawaedc"> -16566.75551286 </i>
    <i name="eentropy">     -0.00000010 </i>
    <i name="bandstr">   -518.42726916 </i>
    <i name="atom">  12019.53804467 </i>
    <i name="e_fr_energy">    -53.21157187 </i>
    <i name="e_wo_entrp">    -53.21157177 </i>
    <i name="e_0_energy">    -53.21157182 </i>
   </energy>
  </scstep>
  <scstep>
   <time name="dav">   26.27   26.34</time>
   <time name="total">   28.87   28.95</time>
   <energy>
    <i name="e_fr_energy">    -53.28628544 </i>
    <i name="e_wo_entrp">    -53.28628527 </i>
    <i name="e_0_energy">    -53.28628535 </i>
   </energy>
  </scstep>
  <scstep>
   <time name="dav">   24.75   24.82</time>
   <time name="total">   27.36   27.44</time>
   <energy>
    <i name="e_fr_energy">    -53.28337959 </i>
    <i name="e_wo_entrp">    -53.28337953 </i>
    <i name="e_0_energy">    -53.28337956 </i>
   </energy>
  </scstep>
  <scstep>
   <time name="dav">   26.87   26.95</time>
   <time name="total">   29.48   29.56</time>
   <energy>
    <i name="e_fr_energy">    -53.28246952 </i>
    <i name="e_wo_entrp">    -53.28246940 </i>
    <i name="e_0_energy">    -53.28246946 </i>
   </energy>
  </scstep>
  <scstep>
   <time name="dav">   27.25   27.33</time>
   <time name="total">   29.86   29.96</time>
   <energy>
    <i name="e_fr_energy">    -53.28218535 </i>
    <i name="e_wo_entrp">    -53.28218515 </i>
    <i name="e_0_energy">    -53.28218525 </i>
   </energy>
  </scstep>
  <scstep>
   <time name="dav">   24.85   24.92</time>
   <time name="total">   27.47   27.55</time>
   <energy>
    <i name="e_fr_energy">    -53.28217842 </i>
    <i name="e_wo_entrp">    -53.28217822 </i>
    <i name="e_0_energy">    -53.28217832 </i>
   </energy>
  </scstep>
  <scstep>
   <time name="dav">   26.05   26.12</time>
   <time name="total">   28.67   28.78</time>
   <energy>
    <i name="e_fr_energy">    -53.28218144 </i>
    <i name="e_wo_entrp">    -53.28218123 </i>
    <i name="e_0_energy">    -53.28218133 </i>
   </energy>
  </scstep>
  <scstep>
   <time name="dav">   24.48   24.55</time>
   <time name="total">   27.09   27.17</time>
   <energy>
    <i name="e_fr_energy">    -53.28218729 </i>
    <i name="e_wo_entrp">    -53.28218708 </i>
    <i name="e_0_energy">    -53.28218719 </i>
   </energy>
  </scstep>
  <scstep>
   <time name="dav">   19.49   19.55</time>
   <time name="total">   20.48   20.55</time>
   <energy>
    <i name="alphaZ">    287.81964225 </i>
    <i name="ewald">  -7237.11472520 </i>
    <i name="hartreedc">  -4688.27892140 </i>
    <i name="XCdc">    381.64382291 </i>
    <i name="pawpsdc">  16325.18498207 </i>
    <i name="pawaedc"> -16616.59056680 </i>
    <i name="eentropy">     -0.00000021 </i>
    <i name="bandstr">   -525.48446577 </i>
    <i name="atom">  12019.53804467 </i>
    <i name="e_fr_energy">    -53.28218748 </i>
    <i name="e_wo_entrp">    -53.28218727 </i>
    <i name="e_0_energy">    -53.28218737 </i>
   </energy>
  </scstep>
  <structure>
   <crystal>
    <varray name="basis" >
     <v>       3.88361610       0.00000000      -0.00000000 </v>
     <v>      -1.94180805       3.36331020       0.00000000 </v>
     <v>      -0.00000000      -0.00000000      24.65419018 </v>
    </varray>
    <i name="volume">    322.02824000 </i>
    <varray name="rec_basis" >
     <v>       0.25749198       0.14866306       0.00000000 </v>
     <v>      -0.00000000       0.29732613       0.00000000 </v>
     <v>       0.00000000      -0.00000000       0.04056106 </v>
    </varray>
   </crystal>
   <varray name="positions" >
    <v>       0.00000000       0.00000000       0.27173705 </v>
    <v>      -0.00000000      -0.00000000       0.72826295 </v>
    <v>       0.33333334       0.66666669       0.10965178 </v>
    <v>       0.66666663       0.33333331       0.89034822 </v>
    <v>       0.33333334       0.66666669       0.20675659 </v>
    <v>       0.66666663       0.33333331       0.79324344 </v>
    <v>       0.33333334       0.66666669       0.93699073 </v>
    <v>       0.66666663       0.33333331       0.06300927 </v>
    <v>       0.33333334       0.66666669       0.67936891 </v>
    <v>       0.66666663       0.33333331       0.32063109 </v>
    <v>       0.33333334       0.66666669       0.43738717 </v>
    <v>       0.66666663       0.33333331       0.56261283 </v>
    <v>       0.33333334       0.66666669       0.54186400 </v>
    <v>       0.66666663       0.33333331       0.45813600 </v>
   </varray>
  </structure>
  <varray name="forces" >
   <v>      -0.00000000      -0.00000000       0.03772203 </v>
   <v>       0.00000000       0.00000000      -0.03772203 </v>
   <v>       0.00000000       0.00000000      -0.01178061 </v>
   <v>      -0.00000000      -0.00000000       0.01178061 </v>
   <v>       0.00000000       0.00000000      -0.05809020 </v>
   <v>      -0.00000000      -0.00000000       0.05809020 </v>
   <v>      -0.00000000      -0.00000000       0.05726229 </v>
   <v>       0.00000000       0.00000000      -0.05726229 </v>
   <v>       0.00000000       0.00000000      -0.01840379 </v>
   <v>      -0.00000000      -0.00000000       0.01840379 </v>
   <v>       0.00000000       0.00000000      -0.02432815 </v>
   <v>      -0.00000000      -0.00000000       0.02432815 </v>
   <v>       0.00000000       0.00000000      -0.02252336 </v>
   <v>      -0.00000000      -0.00000000       0.02252336 </v>
  </varray>
  <varray name="stress" >
   <v>       3.07937079      -0.00000000      -0.00000000 </v>
   <v>      -0.00000000       3.07937079       0.00000000 </v>
   <v>      -0.00000000      -0.00000000       1.27519344 </v>
  </varray>
  <energy>
   <i name="e_fr_energy">    -57.44157640 </i>
   <i name="e_wo_entrp">    -57.44157629 </i>
   <i name="e_0_energy">     -0.00000021 </i>
  </energy>
  <time name="totalsc">  286.68  289.04</time>
 </calculation>
 <calculation>
  <scstep>
   <time name="dav">   21.96   22.02</time>
   <time name="total">   24.56   25.05</time>
   <energy>
    <i name="alphaZ">    287.62233532 </i>
    <i name="ewald">  -7245.28574359 </i>
    <i name="hartreedc">  -4677.39534507 </i>
    <i name="XCdc">    381.53433422 </i>
    <i name="pawpsdc">  16325.21905823 </i>
    <i name="pawaedc"> -16616.62235175 </i>
    <i name="eentropy">     -0.00000018 </i>
    <i name="bandstr">   -527.89534260 </i>
    <i name="atom">  12019.53804467 </i>
    <i name="e_fr_energy">    -53.28501075 </i>
    <i name="e_wo_entrp">    -53.28501057 </i>
    <i name="e_0_energy">    -53.28501066 </i>
   </energy>
  </scstep>
  <scstep>
   <time name="dav">   23.32   23.39</time>
   <time name="total">   25.91   25.99</time>
   <energy>
    <i name="e_fr_energy">    -53.28637656 </i>
    <i name="e_wo_entrp">    -53.28637636 </i>
    <i name="e_0_energy">    -53.28637646 </i>
   </energy>
  </scstep>
  <scstep>
   <time name="dav">   25.02   25.10</time>
   <time name="total">   27.62   27.73</time>
   <energy>
    <i name="e_fr_energy">    -53.28636908 </i>
    <i name="e_wo_entrp">    -53.28636890 </i>
    <i name="e_0_energy">    -53.28636899 </i>
   </energy>
  </scstep>
  <scstep>
   <time name="dav">   26.29   26.37</time>
   <time name="total">   28.89   28.98</time>
   <energy>
    <i name="e_fr_energy">    -53.28634757 </i>
    <i name="e_wo_entrp">    -53.28634737 </i>
    <i name="e_0_energy">    -53.28634747 </i>
   </energy>
  </scstep>
  <scstep>
   <time name="dav">   25.73   25.81</time>
   <time name="total">   28.34   28.42</time>
   <energy>
    <i name="e_fr_energy">    -53.28633082 </i>
    <i name="e_wo_entrp">    -53.28633062 </i>
    <i name="e_0_energy">    -53.28633072 </i>
   </energy>
  </scstep>
  <scstep>
   <time name="dav">   26.76   26.84</time>
   <time name="total">   29.38   29.46</time>
   <energy>
    <i name="e_fr_energy">    -53.28632601 </i>
    <i name="e_wo_entrp">    -53.28632580 </i>
    <i name="e_0_energy">    -53.28632590 </i>
   </energy>
  </scstep>
  <scstep>
   <time name="dav">   15.23   15.28</time>
   <time name="total">   17.84   17.90</time>
   <energy>
    <i name="e_fr_energy">    -53.28632451 </i>
    <i name="e_wo_entrp">    -53.28632430 </i>
    <i name="e_0_energy">    -53.28632440 </i>
   </energy>
  </scstep>
  <scstep>
   <time name="dav">   14.55   14.59</time>
   <time name="total">   15.53   15.58</time>
   <energy>
    <i name="alphaZ">    287.62233532 </i>
    <i name="ewald">  -7245.28574359 </i>
    <i name="hartreedc">  -4679.22398470 </i>
    <i name="XCdc">    381.61864736 </i>
    <i name="pawpsdc">  16313.91800829 </i>
    <i name="pawaedc"> -16605.27530813 </i>
    <i name="eentropy">     -0.00000021 </i>
    <i name="bandstr">   -526.19832268 </i>
    <i name="atom">  12019.53804467 </i>
    <i name="e_fr_energy">    -53.28632367 </i>
    <i name="e_wo_entrp">    -53.28632346 </i>
    <i name="e_0_energy">    -53.28632357 </i>
   </energy>
  </scstep>
  <structure>
   <crystal>
    <varray name="basis" >
     <v>       3.88472197       0.00000000      -0.00000000 </v>
     <v>      -1.94236098       3.36426791       0.00000000 </v>
     <v>      -0.00000000      -0.00000000      24.65705848 </v>
    </varray>
    <i name="volume">    322.24914915 </i>
    <varray name="rec_basis" >
     <v>       0.25741868       0.14862074       0.00000000 </v>
     <v>      -0.00000000       0.29724149       0.00000000 </v>
     <v>       0.00000000      -0.00000000       0.04055634 </v>
    </varray>
   </crystal>
   <varray name="positions" >
    <v>       0.00000000       0.00000000       0.27157933 </v>
    <v>      -0.00000000      -0.00000000       0.72842067 </v>
    <v>       0.33333334       0.66666669       0.10953339 </v>
    <v>       0.66666663       0.33333331       0.89046661 </v>
    <v>       0.33333334       0.66666669       0.20660744 </v>
    <v>       0.66666663       0.33333331       0.79339259 </v>
    <v>       0.33333334       0.66666669       0.93711916 </v>
    <v>       0.66666663       0.33333331       0.06288084 </v>
    <v>       0.33333334       0.66666669       0.67949820 </v>
    <v>       0.66666663       0.33333331       0.32050180 </v>
    <v>       0.33333334       0.66666669       0.43735064 </v>
    <v>       0.66666663       0.33333331       0.56264936 </v>
    <v>       0.33333334       0.66666669       0.54190976 </v>
    <v>       0.66666663       0.33333331       0.45809024 </v>
   </varray>
  </structure>
  <varray name="forces" >
   <v>      -0.00000000      -0.00000000       0.04502918 </v>
   <v>       0.00000000       0.00000000      -0.04502918 </v>
   <v>       0.00000000       0.00000000      -0.02405894 </v>
   <v>      -0.00000000      -0.00000000       0.02405894 </v>
   <v>       0.00000000       0.00000000      -0.04949483 </v>
   <v>      -0.00000000      -0.00000000       0.04949483 </v>
   <v>      -0.00000000      -0.00000000       0.04849142 </v>
   <v>       0.00000000       0.00000000      -0.04849142 </v>
   <v>       0.00000000       0.00000000      -0.00973359 </v>
   <v>      -0.00000000      -0.00000000       0.00973359 </v>
   <v>       0.00000000       0.00000000      -0.01587469 </v>
   <v>      -0.00000000      -0.00000000       0.01587469 </v>
   <v>       0.00000000       0.00000000      -0.02486621 </v>
   <v>      -0.00000000      -0.00000000       0.02486621 </v>
  </varray>
  <varray name="stress" >
   <v>       2.46908097      -0.00000000       0.00000000 </v>
   <v>      -0.00000000       2.46908097      -0.00000000 </v>
   <v>       0.00000000      -0.00000000       1.00835709 </v>
  </varray>
  <energy>
   <i name="e_fr_energy">    -57.44233864 </i>
   <i name="e_wo_entrp">    -57.44233854 </i>
   <i name="e_0_energy">     -0.00000021 </i>
  </energy>
  <time name="totalsc">  242.54  243.98</time>
 </calculation>
 <calculation>
  <scstep>
   <time name="dav">   22.25   22.31</time>
   <time name="total">   24.87   24.95</time>
   <energy>
    <i name="alphaZ">    287.23908333 </i>
    <i name="ewald">  -7260.94287189 </i>
    <i name="hartreedc">  -4658.30447521 </i>
    <i name="XCdc">    381.40623126 </i>
    <i name="pawpsdc">  16313.79785451 </i>
    <i name="pawaedc"> -16605.15493638 </i>
    <i name="eentropy">     -0.00000016 </i>
    <i name="bandstr">   -530.86787233 </i>
    <i name="atom">  12019.53804467 </i>
    <i name="e_fr_energy">    -53.28894220 </i>
    <i name="e_wo_entrp">    -53.28894204 </i>
    <i name="e_0_energy">    -53.28894212 </i>
   </energy>
  </scstep>
  <scstep>
   <time name="dav">   23.57   23.64</time>
   <time name="total">   26.18   26.26</time>
   <energy>
    <i name="e_fr_energy">    -53.29407665 </i>
    <i name="e_wo_entrp">    -53.29407645 </i>
    <i name="e_0_energy">    -53.29407655 </i>
   </energy>
  </scstep>
  <scstep>
   <time name="dav">   25.22   25.29</time>
   <time name="total">   27.82   27.91</time>
   <energy>
    <i name="e_fr_energy">    -53.29405823 </i>
    <i name="e_wo_entrp">    -53.29405807 </i>
    <i name="e_0_energy">    -53.29405815 </i>
   </energy>
  </scstep>
  <scstep>
   <time name="dav">   26.14   26.22</time>
   <time name="total">   28.74   29.05</time>
   <energy>
    <i name="e_fr_energy">    -53.29397814 </i>
    <i name="e_wo_entrp">    -53.29397795 </i>
    <i name="e_0_energy">    -53.29397805 </i>
   </energy>
  </scstep>
  <scstep>
   <time name="dav">   25.64   25.72</time>
   <time name="total">   28.25   28.33</time>
   <energy>
    <i name="e_fr_energy">    -53.29391767 </i>
    <i name="e_wo_entrp">    -53.29391746 </i>
    <i name="e_0_energy">    -53.29391757 </i>
   </energy>
  </scstep>
  <scstep>
   <time name="dav">   28.05   28.13</time>
   <time name="total">   30.64   30.74</time>
   <energy>
    <i name="e_fr_energy">    -53.29390541 </i>
    <i name="e_wo_entrp">    -53.29390520 </i>
    <i name="e_0_energy">    -53.29390531 </i>
   </energy>
  </scstep>
  <scstep>
   <time name="dav">   20.68   20.75</time>
   <time name="total">   23.28   23.35</time>
   <energy>
    <i name="e_fr_energy">    -53.29390248 </i>
    <i name="e_wo_entrp">    -53.29390226 </i>
    <i name="e_0_energy">    -53.29390237 </i>
   </energy>
  </scstep>
  <scstep>
   <time name="dav">   14.80   14.84</time>
   <time name="total">   17.41   17.46</time>
   <energy>
    <i name="e_fr_energy">    -53.29390075 </i>
    <i name="e_wo_entrp">    -53.29390053 </i>
    <i name="e_0_energy">    -53.29390064 </i>
   </energy>
  </scstep>
  <scstep>
   <time name="dav">   14.61   14.65</time>
   <time name="total">   15.60   15.67</time>
   <energy>
    <i name="alphaZ">    287.23908333 </i>
    <i name="ewald">  -7260.94287189 </i>
    <i name="hartreedc">  -4661.87057184 </i>
    <i name="XCdc">    381.57051615 </i>
    <i name="pawpsdc">  16290.53391913 </i>
    <i name="pawaedc"> -16581.80786958 </i>
    <i name="eentropy">     -0.00000021 </i>
    <i name="bandstr">   -527.55415046 </i>
    <i name="atom">  12019.53804467 </i>
    <i name="e_fr_energy">    -53.29390071 </i>
    <i name="e_wo_entrp">    -53.29390050 </i>
    <i name="e_0_energy">    -53.29390060 </i>
   </energy>
  </scstep>
  <structure>
   <crystal>
    <varray name="basis" >
     <v>       3.88687300       0.00000000      -0.00000000 </v>
     <v>      -1.94343650       3.36613076       0.00000000 </v>
     <v>      -0.00000000      -0.00000000      24.66263763 </v>
    </varray>
    <i name="volume">    322.67911372 </i>
    <varray name="rec_basis" >
     <v>       0.25727622       0.14853850       0.00000000 </v>
     <v>      -0.00000000       0.29707699       0.00000000 </v>
     <v>       0.00000000      -0.00000000       0.04054716 </v>
    </varray>
   </crystal>
   <varray name="positions" >
    <v>       0.00000000       0.00000000       0.27127259 </v>
    <v>      -0.00000000      -0.00000000       0.72872741 </v>
    <v>       0.33333334       0.66666669       0.10930312 </v>
    <v>       0.66666663       0.33333331       0.89069688 </v>
    <v>       0.33333334       0.66666669       0.20631737 </v>
    <v>       0.66666663       0.33333331       0.79368266 </v>
    <v>       0.33333334       0.66666669       0.93736895 </v>
    <v>       0.66666663       0.33333331       0.06263105 </v>
    <v>       0.33333334       0.66666669       0.67974965 </v>
    <v>       0.66666663       0.33333331       0.32025035 </v>
    <v>       0.33333334       0.66666669       0.43727959 </v>
    <v>       0.66666663       0.33333331       0.56272041 </v>
    <v>       0.33333334       0.66666669       0.54199875 </v>
    <v>       0.66666663       0.33333331       0.45800125 </v>
   </varray>
  </structure>
  <varray name="forces" >
   <v>      -0.00000000      -0.00000000       0.06004461 </v>
   <v>       0.00000000       0.00000000      -0.06004461 </v>
   <v>       0.00000000       0.00000000      -0.04803273 </v>
   <v>      -0.00000000      -0.00000000       0.04803273 </v>
   <v>       0.00000000       0.00000000      -0.03348508 </v>
   <v>      -0.00000000      -0.00000000       0.03348508 </v>
   <v>      -0.00000000      -0.00000000       0.03228472 </v>
   <v>       0.00000000       0.00000000      -0.03228472 </v>
   <v>      -0.00000000      -0.00000000       0.00744433 </v>
   <v>       0.00000000       0.00000000      -0.00744433 </v>
   <v>      -0.00000000      -0.00000000       0.00028739 </v>
   <v>       0.00000000       0.00000000      -0.00028739 </v>
   <v>       0.00000000       0.00000000      -0.02942737 </v>
   <v>      -0.00000000      -0.00000000       0.02942737 </v>
  </varray>
  <varray name="stress" >
   <v>       1.22936252      -0.00000000       0.00000000 </v>
   <v>       0.00000000       1.22936252       0.00000000 </v>
   <v>       0.00000000       0.00000000       0.41646833 </v>
  </varray>
  <energy>
   <i name="e_fr_energy">    -57.44337418 </i>
   <i name="e_wo_entrp">    -57.44337408 </i>
   <i name="e_0_energy">     -0.00000021 </i>
  </energy>
  <time name="totalsc">  266.98  268.07</time>
 </calculation>
 <calculation>
  <scstep>
   <time name="dav">   22.24   22.31</time>
   <time name="total">   24.85   24.92</time>
   <energy>
    <i name="alphaZ">    286.47468089 </i>
    <i name="ewald">  -7291.32384791 </i>
    <i name="hartreedc">  -4620.97487150 </i>
    <i name="XCdc">    381.14654517 </i>
    <i name="pawpsdc">  16290.51265527 </i>
    <i name="pawaedc"> -16581.78660272 </i>
    <i name="eentropy">     -0.00000012 </i>
    <i name="bandstr">   -536.87448882 </i>
    <i name="atom">  12019.53804467 </i>
    <i name="e_fr_energy">    -53.28788507 </i>
    <i name="e_wo_entrp">    -53.28788495 </i>
    <i name="e_0_energy">    -53.28788501 </i>
   </energy>
  </scstep>
  <scstep>
   <time name="dav">   23.55   23.62</time>
   <time name="total">   26.15   26.23</time>
   <energy>
    <i name="e_fr_energy">    -53.30798369 </i>
    <i name="e_wo_entrp">    -53.30798350 </i>
    <i name="e_0_energy">    -53.30798360 </i>
   </energy>
  </scstep>
  <scstep>
   <time name="dav">   25.80   25.87</time>
   <time name="total">   28.60   28.70</time>
   <energy>
    <i name="e_fr_energy">    -53.30790325 </i>
    <i name="e_wo_entrp">    -53.30790312 </i>
    <i name="e_0_energy">    -53.30790318 </i>
   </energy>
  </scstep>
  <scstep>
   <time name="dav">   26.26   26.34</time>
   <time name="total">   28.87   28.97</time>
   <energy>
    <i name="e_fr_energy">    -53.30757909 </i>
    <i name="e_wo_entrp">    -53.30757891 </i>
    <i name="e_0_energy">    -53.30757900 </i>
   </energy>
  </scstep>
  <scstep>
   <time name="dav">   25.69   25.76</time>
   <time name="total">   28.32   28.42</time>
   <energy>
    <i name="e_fr_energy">    -53.30733877 </i>
    <i name="e_wo_entrp">    -53.30733857 </i>
    <i name="e_0_energy">    -53.30733867 </i>
   </energy>
  </scstep>
  <scstep>
   <time name="dav">   28.11   28.19</time>
   <time name="total">   30.73   30.83</time>
   <energy>
    <i name="e_fr_energy">    -53.30730948 </i>
    <i name="e_wo_entrp">    -53.30730926 </i>
    <i name="e_0_energy">    -53.30730937 </i>
   </energy>
  </scstep>
  <scstep>
   <time name="dav">   23.34   23.41</time>
   <time name="total">   25.96   26.05</time>
   <energy>
    <i name="e_fr_energy">    -53.30730362 </i>
    <i name="e_wo_entrp">    -53.30730340 </i>
    <i name="e_0_energy">    -53.30730351 </i>
   </energy>
  </scstep>
  <scstep>
   <time name="dav">   21.83   21.90</time>
   <time name="total">   24.44   24.51</time>
   <energy>
    <i name="e_fr_energy">    -53.30729918 </i>
    <i name="e_wo_entrp">    -53.30729896 </i>
    <i name="e_0_energy">    -53.30729907 </i>
   </energy>
  </scstep>
  <scstep>
   <time name="dav">   15.46   15.50</time>
   <time name="total">   16.44   17.11</time>
   <energy>
    <i name="alphaZ">    286.47468089 </i>
    <i name="ewald">  -7291.32384791 </i>
    <i name="hartreedc">  -4628.10187281 </i>
    <i name="XCdc">    381.47506324 </i>
    <i name="pawpsdc">  16244.79207920 </i>
    <i name="pawaedc"> -16535.90126393 </i>
    <i name="eentropy">     -0.00000022 </i>
    <i name="bandstr">   -530.26018213 </i>
    <i name="atom">  12019.53804467 </i>
    <i name="e_fr_energy">    -53.30729899 </i>
    <i name="e_wo_entrp">    -53.30729877 </i>
    <i name="e_0_energy">    -53.30729888 </i>
   </energy>
  </scstep>
  <structure>
   <crystal>
    <varray name="basis" >
     <v>       3.89117508       0.00000000      -0.00000000 </v>
     <v>      -1.94558754       3.36985647       0.00000000 </v>
     <v>      -0.00000000      -0.00000000      24.67379594 </v>
    </varray>
    <i name="volume">    323.54012069 </i>
    <varray name="rec_basis" >
     <v>       0.25699178       0.14837427       0.00000000 </v>
     <v>      -0.00000000       0.29674854       0.00000000 </v>
     <v>       0.00000000      -0.00000000       0.04052883 </v>
    </varray>
   </crystal>
   <varray name="positions" >
    <v>       0.00000000       0.00000000       0.27065924 </v>
    <v>      -0.00000000      -0.00000000       0.72934076 </v>
    <v>       0.33333334       0.66666669       0.10884269 </v>
    <v>       0.66666663       0.33333331       0.89115731 </v>
    <v>       0.33333334       0.66666669       0.20573735 </v>
    <v>       0.66666663       0.33333331       0.79426267 </v>
    <v>       0.33333334       0.66666669       0.93786840 </v>
    <v>       0.66666663       0.33333331       0.06213160 </v>
    <v>       0.33333334       0.66666669       0.68025242 </v>
    <v>       0.66666663       0.33333331       0.31974758 </v>
    <v>       0.33333334       0.66666669       0.43713753 </v>
    <v>       0.66666663       0.33333331       0.56286247 </v>
    <v>       0.33333334       0.66666669       0.54217669 </v>
    <v>       0.66666663       0.33333331       0.45782331 </v>
   </varray>
  </structure>
  <varray name="forces" >
   <v>      -0.00000000      -0.00000000       0.08902854 </v>
   <v>       0.00000000       0.00000000      -0.08902854 </v>
   <v>       0.00000000       0.00000000      -0.09585358 </v>
   <v>      -0.00000000      -0.00000000       0.09585358 </v>
   <v>       0.00000000       0.00000000      -0.00030103 </v>
   <v>      -0.00000000      -0.00000000       0.00030103 </v>
   <v>       0.00000000       0.00000000      -0.00060577 </v>
   <v>      -0.00000000      -0.00000000       0.00060577 </v>
   <v>      -0.00000000      -0.00000000       0.04090862 </v>
   <v>       0.00000000       0.00000000      -0.04090862 </v>
   <v>      -0.00000000      -0.00000000       0.03169334 </v>
   <v>       0.00000000       0.00000000      -0.03169334 </v>
   <v>       0.00000000       0.00000000      -0.03793116 </v>
   <v>      -0.00000000      -0.00000000       0.03793116 </v>
  </varray>
  <varray name="stress" >
   <v>      -1.34164197      -0.00000000       0.00000000 </v>
   <v>       0.00000000      -1.34164197      -0.00000000 </v>
   <v>       0.00000000       0.00000000      -0.87806344 </v>
  </varray>
  <energy>
   <i name="e_fr_energy">    -57.44376828 </i>
   <i name="e_wo_entrp">    -57.44376817 </i>
   <i name="e_0_energy">     -0.00000022 </i>
  </energy>
  <time name="totalsc">  278.45  279.96</time>
 </calculation>
 <calculation>
  <scstep>
   <time name="dav">   21.84   21.91</time>
   <time name="total">   24.45   24.52</time>
   <energy>
    <i name="alphaZ">    286.72349539 </i>
    <i name="ewald">  -7281.56298989 </i>
    <i name="hartreedc">  -4641.29024087 </i>
    <i name="XCdc">    381.61292727 </i>
    <i name="pawpsdc">  16244.68981480 </i>
    <i name="pawaedc"> -16535.79885693 </i>
    <i name="eentropy">     -0.00000026 </i>
    <i name="bandstr">   -527.21323140 </i>
    <i name="atom">  12019.53804467 </i>
    <i name="e_fr_energy">    -53.30103722 </i>
    <i name="e_wo_entrp">    -53.30103696 </i>
    <i name="e_0_energy">    -53.30103709 </i>
   </energy>
  </scstep>
  <scstep>
   <time name="dav">   24.10   24.17</time>
   <time name="total">   26.70   26.79</time>
   <energy>
    <i name="e_fr_energy">    -53.30328640 </i>
    <i name="e_wo_entrp">    -53.30328618 </i>
    <i name="e_0_energy">    -53.30328629 </i>
   </energy>
  </scstep>
  <scstep>
   <time name="dav">   24.60   24.68</time>
   <time name="total">   27.20   27.28</time>
   <energy>
    <i name="e_fr_energy">    -53.30324104 </i>
    <i name="e_wo_entrp">    -53.30324079 </i>
    <i name="e_0_energy">    -53.30324091 </i>
   </energy>
  </scstep>
  <scstep>
   <time name="dav">   26.25   26.33</time>
   <time name="total">   28.84   28.93</time>
   <energy>
    <i name="e_fr_energy">    -53.30320437 </i>
    <i name="e_wo_entrp">    -53.30320415 </i>
    <i name="e_0_energy">    -53.30320426 </i>
   </energy>
  </scstep>
  <scstep>
   <time name="dav">   25.86   25.94</time>
   <time name="total">   28.46   28.57</time>
   <energy>
    <i name="e_fr_energy">    -53.30318938 </i>
    <i name="e_wo_entrp">    -53.30318917 </i>
    <i name="e_0_energy">    -53.30318927 </i>
   </energy>
  </scstep>
  <scstep>
   <time name="dav">   25.74   25.81</time>
   <time name="total">   28.34   28.42</time>
   <energy>
    <i name="e_fr_energy">    -53.30319004 </i>
    <i name="e_wo_entrp">    -53.30318983 </i>
    <i name="e_0_energy">    -53.30318993 </i>
   </energy>
  </scstep>
  <scstep>
   <time name="dav">   15.14   15.19</time>
   <time name="total">   17.74   17.82</time>
   <energy>
    <i name="e_fr_energy">    -53.30319131 </i>
    <i name="e_wo_entrp">    -53.30319110 </i>
    <i name="e_0_energy">    -53.30319121 </i>
   </energy>
  </scstep>
  <scstep>
   <time name="dav">   14.26   14.31</time>
   <time name="total">   16.86   16.93</time>
   <energy>
    <i name="e_fr_energy">    -53.30319233 </i>
    <i name="e_wo_entrp">    -53.30319212 </i>
    <i name="e_0_energy">    -53.30319222 </i>
   </energy>
  </scstep>
  <scstep>
   <time name="dav">   14.01   14.05</time>
   <time name="total">   14.99   15.24</time>
   <energy>
    <i name="alphaZ">    286.72349539 </i>
    <i name="ewald">  -7281.56298989 </i>
    <i name="hartreedc">  -4638.97065758 </i>
    <i name="XCdc">    381.50624914 </i>
    <i name="pawpsdc">  16259.07612189 </i>
    <i name="pawaedc"> -16550.23918221 </i>
    <i name="eentropy">     -0.00000021 </i>
    <i name="bandstr">   -529.37427354 </i>
    <i name="atom">  12019.53804467 </i>
    <i name="e_fr_energy">    -53.30319234 </i>
    <i name="e_wo_entrp">    -53.30319213 </i>
    <i name="e_0_energy">    -53.30319223 </i>
   </energy>
  </scstep>
  <structure>
   <crystal>
    <varray name="basis" >
     <v>       3.88977301       0.00000000      -0.00000000 </v>
     <v>      -1.94488651       3.36864224       0.00000000 </v>
     <v>      -0.00000000      -0.00000000      24.67015940 </v>
    </varray>
    <i name="volume">    323.25935726 </i>
    <varray name="rec_basis" >
     <v>       0.25708441       0.14842775       0.00000000 </v>
     <v>      -0.00000000       0.29685551       0.00000000 </v>
     <v>       0.00000000      -0.00000000       0.04053480 </v>
    </varray>
   </crystal>
   <varray name="positions" >
    <v>       0.00000000       0.00000000       0.27085904 </v>
    <v>      -0.00000000      -0.00000000       0.72914096 </v>
    <v>       0.33333334       0.66666669       0.10899268 </v>
    <v>       0.66666663       0.33333331       0.89100732 </v>
    <v>       0.33333334       0.66666669       0.20592630 </v>
    <v>       0.66666663       0.33333331       0.79407373 </v>
    <v>       0.33333334       0.66666669       0.93770570 </v>
    <v>       0.66666663       0.33333331       0.06229430 </v>
    <v>       0.33333334       0.66666669       0.68008864 </v>
    <v>       0.66666663       0.33333331       0.31991136 </v>
    <v>       0.33333334       0.66666669       0.43718381 </v>
    <v>       0.66666663       0.33333331       0.56281619 </v>
    <v>       0.33333334       0.66666669       0.54211873 </v>
    <v>       0.66666663       0.33333331       0.45788127 </v>
   </varray>
  </structure>
  <varray name="forces" >
   <v>      -0.00000000      -0.00000000       0.07897753 </v>
   <v>       0.00000000       0.00000000      -0.07897753 </v>
   <v>       0.00000000       0.00000000      -0.08082403 </v>
   <v>      -0.00000000      -0.00000000       0.08082403 </v>
   <v>       0.00000000       0.00000000      -0.01068030 </v>
   <v>      -0.00000000      -0.00000000       0.01068030 </v>
   <v>      -0.00000000      -0.00000000       0.01024915 </v>
   <v>       0.00000000       0.00000000      -0.01024915 </v>
   <v>      -0.00000000      -0.00000000       0.02957209 </v>
   <v>       0.00000000       0.00000000      -0.02957209 </v>
   <v>      -0.00000000      -0.00000000       0.02181640 </v>
   <v>       0.00000000       0.00000000      -0.02181640 </v>
   <v>       0.00000000       0.00000000      -0.03514046 </v>
   <v>      -0.00000000      -0.00000000       0.03514046 </v>
  </varray>
  <varray name="stress" >
   <v>      -0.52797269       0.00000000      -0.00000000 </v>
   <v>      -0.00000000      -0.52797269      -0.00000000 </v>
   <v>      -0.00000000      -0.00000000      -0.48795452 </v>
  </varray>
  <energy>
   <i name="e_fr_energy">    -57.44388819 </i>
   <i name="e_wo_entrp">    -57.44388808 </i>
   <i name="e_0_energy">     -0.00000021 </i>
  </energy>
  <time name="totalsc">  257.61  259.52</time>
 </calculation>
 <calculation>
  <scstep>
   <time name="dav">   21.06   21.12</time>
   <time name="total">   23.67   23.75</time>
   <energy>
    <i name="alphaZ">    286.67948861 </i>
    <i name="ewald">  -7288.68195426 </i>
    <i name="hartreedc">  -4631.22390899 </i>
    <i name="XCdc">    381.48308920 </i>
    <i name="pawpsdc">  16259.11538187 </i>
    <i name="pawaedc"> -16550.27838340 </i>
    <i name="eentropy">     -0.00000020 </i>
    <i name="bandstr">   -529.93535831 </i>
    <i name="atom">  12019.53804467 </i>
    <i name="e_fr_energy">    -53.30360081 </i>
    <i name="e_wo_entrp">    -53.30360061 </i>
    <i name="e_0_energy">    -53.30360071 </i>
   </energy>
  </scstep>
  <scstep>
   <time name="dav">   25.57   25.64</time>
   <time name="total">   28.18   28.27</time>
   <energy>
    <i name="e_fr_energy">    -53.30477192 </i>
    <i name="e_wo_entrp">    -53.30477173 </i>
    <i name="e_0_energy">    -53.30477182 </i>
   </energy>
  </scstep>
  <scstep>
   <time name="dav">   26.89   26.97</time>
   <time name="total">   29.51   29.60</time>
   <energy>
    <i name="e_fr_energy">    -53.30473823 </i>
    <i name="e_wo_entrp">    -53.30473807 </i>
    <i name="e_0_energy">    -53.30473815 </i>
   </energy>
  </scstep>
  <scstep>
   <time name="dav">   25.56   25.64</time>
   <time name="total">   28.16   28.25</time>
   <energy>
    <i name="e_fr_energy">    -53.30473011 </i>
    <i name="e_wo_entrp">    -53.30472993 </i>
    <i name="e_0_energy">    -53.30473002 </i>
   </energy>
  </scstep>
  <scstep>
   <time name="dav">   25.45   25.53</time>
   <time name="total">   28.05   28.14</time>
   <energy>
    <i name="e_fr_energy">    -53.30472514 </i>
    <i name="e_wo_entrp">    -53.30472495 </i>
    <i name="e_0_energy">    -53.30472504 </i>
   </energy>
  </scstep>
  <scstep>
   <time name="dav">   23.80   23.87</time>
   <time name="total">   26.40   26.48</time>
   <energy>
    <i name="e_fr_energy">    -53.30472334 </i>
    <i name="e_wo_entrp">    -53.30472315 </i>
    <i name="e_0_energy">    -53.30472325 </i>
   </energy>
  </scstep>
  <scstep>
   <time name="dav">   16.80   16.85</time>
   <time name="total">   17.78   17.85</time>
   <energy>
    <i name="alphaZ">    286.67948861 </i>
    <i name="ewald">  -7288.68195426 </i>
    <i name="hartreedc">  -4631.59528955 </i>
    <i name="XCdc">    381.50195161 </i>
    <i name="pawpsdc">  16257.20117117 </i>
    <i name="pawaedc"> -16548.35597217 </i>
    <i name="eentropy">     -0.00000019 </i>
    <i name="bandstr">   -529.59216308 </i>
    <i name="atom">  12019.53804467 </i>
    <i name="e_fr_energy">    -53.30472318 </i>
    <i name="e_wo_entrp">    -53.30472299 </i>
    <i name="e_0_energy">    -53.30472309 </i>
   </energy>
  </scstep>
  <structure>
   <crystal>
    <varray name="basis" >
     <v>       3.89014323       0.00000000      -0.00000000 </v>
     <v>      -1.94507162       3.36896286       0.00000000 </v>
     <v>      -0.00000000      -0.00000000      24.66925028 </v>
    </varray>
    <i name="volume">    323.30897924 </i>
    <varray name="rec_basis" >
     <v>       0.25705994       0.14841363       0.00000000 </v>
     <v>      -0.00000000       0.29682726       0.00000000 </v>
     <v>       0.00000000      -0.00000000       0.04053629 </v>
    </varray>
   </crystal>
   <varray name="positions" >
    <v>       0.00000000       0.00000000       0.27078686 </v>
    <v>      -0.00000000      -0.00000000       0.72921314 </v>
    <v>       0.33333334       0.66666669       0.10882885 </v>
    <v>       0.66666663       0.33333331       0.89117115 </v>
    <v>       0.33333334       0.66666669       0.20579124 </v>
    <v>       0.66666663       0.33333331       0.79420879 </v>
    <v>       0.33333334       0.66666669       0.93782282 </v>
    <v>       0.66666663       0.33333331       0.06217718 </v>
    <v>       0.33333334       0.66666669       0.68022161 </v>
    <v>       0.66666663       0.33333331       0.31977839 </v>
    <v>       0.33333334       0.66666669       0.43716985 </v>
    <v>       0.66666663       0.33333331       0.56283015 </v>
    <v>       0.33333334       0.66666669       0.54213010 </v>
    <v>       0.66666663       0.33333331       0.45786990 </v>
   </varray>
  </structure>
  <varray name="forces" >
   <v>      -0.00000000      -0.00000000       0.06416793 </v>
   <v>       0.00000000       0.00000000      -0.06416793 </v>
   <v>       0.00000000       0.00000000      -0.06620057 </v>
   <v>      -0.00000000      -0.00000000       0.06620057 </v>
   <v>       0.00000000       0.00000000      -0.01156101 </v>
   <v>      -0.00000000      -0.00000000       0.01156101 </v>
   <v>      -0.00000000      -0.00000000       0.01486903 </v>
   <v>       0.00000000       0.00000000      -0.01486903 </v>
   <v>      -0.00000000      -0.00000000       0.02089824 </v>
   <v>       0.00000000       0.00000000      -0.02089824 </v>
   <v>      -0.00000000      -0.00000000       0.02288779 </v>
   <v>       0.00000000       0.00000000      -0.02288779 </v>
   <v>       0.00000000       0.00000000      -0.03540040 </v>
   <v>      -0.00000000      -0.00000000       0.03540040 </v>
  </varray>
  <varray name="stress" >
   <v>      -0.55937770       0.00000000       0.00000000 </v>
   <v>      -0.00000000      -0.55937770       0.00000000 </v>
   <v>       0.00000000      -0.00000000      -0.68484744 </v>
  </varray>
  <energy>
   <i name="e_fr_energy">    -57.44448721 </i>
   <i name="e_wo_entrp">    -57.44448711 </i>
   <i name="e_0_energy">     -0.00000019 </i>
  </energy>
  <time name="totalsc">  225.72  226.45</time>
 </calculation>
 <calculation>
  <scstep>
   <time name="dav">   20.86   20.92</time>
   <time name="total">   23.45   23.73</time>
   <energy>
    <i name="alphaZ">    286.54754226 </i>
    <i name="ewald">  -7309.66835022 </i>
    <i name="hartreedc">  -4608.72584371 </i>
    <i name="XCdc">    381.43247443 </i>
    <i name="pawpsdc">  16257.64011211 </i>
    <i name="pawaedc"> -16548.79517094 </i>
    <i name="eentropy">     -0.00000017 </i>
    <i name="bandstr">   -531.26690902 </i>
    <i name="atom">  12019.53804467 </i>
    <i name="e_fr_energy">    -53.29810057 </i>
    <i name="e_wo_entrp">    -53.29810041 </i>
    <i name="e_0_energy">    -53.29810049 </i>
   </energy>
  </scstep>
  <scstep>
   <time name="dav">   25.26   25.34</time>
   <time name="total">   27.85   27.93</time>
   <energy>
    <i name="e_fr_energy">    -53.30920680 </i>
    <i name="e_wo_entrp">    -53.30920667 </i>
    <i name="e_0_energy">    -53.30920674 </i>
   </energy>
  </scstep>
  <scstep>
   <time name="dav">   26.55   26.63</time>
   <time name="total">   29.15   29.26</time>
   <energy>
    <i name="e_fr_energy">    -53.30886932 </i>
    <i name="e_wo_entrp">    -53.30886923 </i>
    <i name="e_0_energy">    -53.30886927 </i>
   </energy>
  </scstep>
  <scstep>
   <time name="dav">   25.52   25.59</time>
   <time name="total">   28.11   28.20</time>
   <energy>
    <i name="e_fr_energy">    -53.30878938 </i>
    <i name="e_wo_entrp">    -53.30878927 </i>
    <i name="e_0_energy">    -53.30878932 </i>
   </energy>
  </scstep>
  <scstep>
   <time name="dav">   25.94   26.01</time>
   <time name="total">   28.53   28.62</time>
   <energy>
    <i name="e_fr_energy">    -53.30874296 </i>
    <i name="e_wo_entrp">    -53.30874284 </i>
    <i name="e_0_energy">    -53.30874290 </i>
   </energy>
  </scstep>
  <scstep>
   <time name="dav">   26.37   26.44</time>
   <time name="total">   28.96   29.04</time>
   <energy>
    <i name="e_fr_energy">    -53.30872490 </i>
    <i name="e_wo_entrp">    -53.30872477 </i>
    <i name="e_0_energy">    -53.30872484 </i>
   </energy>
  </scstep>
  <scstep>
   <time name="dav">   26.85   26.93</time>
   <time name="total">   29.44   29.54</time>
   <energy>
    <i name="e_fr_energy">    -53.30872491 </i>
    <i name="e_wo_entrp">    -53.30872477 </i>
    <i name="e_0_energy">    -53.30872484 </i>
   </energy>
  </scstep>
  <scstep>
   <time name="dav">   19.62   19.68</time>
   <time name="total">   20.60   20.66</time>
   <energy>
    <i name="alphaZ">    286.54754226 </i>
    <i name="ewald">  -7309.66835022 </i>
    <i name="hartreedc">  -4609.83654923 </i>
    <i name="XCdc">    381.48889972 </i>
    <i name="pawpsdc">  16253.63078446 </i>
    <i name="pawaedc"> -16544.76352481 </i>
    <i name="eentropy">     -0.00000013 </i>
    <i name="bandstr">   -530.24557161 </i>
    <i name="atom">  12019.53804467 </i>
    <i name="e_fr_energy">    -53.30872490 </i>
    <i name="e_wo_entrp">    -53.30872476 </i>
    <i name="e_0_energy">    -53.30872483 </i>
   </energy>
  </scstep>
  <structure>
   <crystal>
    <varray name="basis" >
     <v>       3.89125388       0.00000000      -0.00000000 </v>
     <v>      -1.94562694       3.36992471       0.00000000 </v>
     <v>      -0.00000000      -0.00000000      24.66652291 </v>
    </varray>
    <i name="volume">    323.45785310 </i>
    <varray name="rec_basis" >
     <v>       0.25698657       0.14837127       0.00000000 </v>
     <v>      -0.00000000       0.29674253       0.00000000 </v>
     <v>       0.00000000      -0.00000000       0.04054078 </v>
    </varray>
   </crystal>
   <varray name="positions" >
    <v>       0.00000000       0.00000000       0.27057029 </v>
    <v>      -0.00000000      -0.00000000       0.72942971 </v>
    <v>       0.33333334       0.66666669       0.10833736 </v>
    <v>       0.66666663       0.33333331       0.89166264 </v>
    <v>       0.33333334       0.66666669       0.20538604 </v>
    <v>       0.66666663       0.33333331       0.79461399 </v>
    <v>       0.33333334       0.66666669       0.93817421 </v>
    <v>       0.66666663       0.33333331       0.06182579 </v>
    <v>       0.33333334       0.66666669       0.68062054 </v>
    <v>       0.66666663       0.33333331       0.31937946 </v>
    <v>       0.33333334       0.66666669       0.43712796 </v>
    <v>       0.66666663       0.33333331       0.56287204 </v>
    <v>       0.33333334       0.66666669       0.54216423 </v>
    <v>       0.66666663       0.33333331       0.45783577 </v>
   </varray>
  </structure>
  <varray name="forces" >
   <v>      -0.00000000      -0.00000000       0.01774174 </v>
   <v>       0.00000000       0.00000000      -0.01774174 </v>
   <v>       0.00000000       0.00000000      -0.02518532 </v>
   <v>      -0.00000000      -0.00000000       0.02518532 </v>
   <v>       0.00000000       0.00000000      -0.01141308 </v>
   <v>      -0.00000000      -0.00000000       0.01141308 </v>
   <v>      -0.00000000      -0.00000000       0.02734914 </v>
   <v>       0.00000000       0.00000000      -0.02734914 </v>
   <v>       0.00000000       0.00000000      -0.00731213 </v>
   <v>      -0.00000000      -0.00000000       0.00731213 </v>
   <v>      -0.00000000      -0.00000000       0.02725354 </v>
   <v>       0.00000000       0.00000000      -0.02725354 </v>
   <v>       0.00000000       0.00000000      -0.03602170 </v>
   <v>      -0.00000000      -0.00000000       0.03602170 </v>
  </varray>
  <varray name="stress" >
   <v>      -0.62731745       0.00000000       0.00000000 </v>
   <v>       0.00000000      -0.62731745       0.00000000 </v>
   <v>       0.00000000       0.00000000      -1.24342439 </v>
  </varray>
  <energy>
   <i name="e_fr_energy">    -57.44571660 </i>
   <i name="e_wo_entrp">    -57.44571653 </i>
   <i name="e_0_energy">     -0.00000013 </i>
  </energy>
  <time name="totalsc">  260.28  261.53</time>
 </calculation>
 <calculation>
  <scstep>
   <time name="dav">   21.11   21.17</time>
   <time name="total">   23.71   23.98</time>
   <energy>
    <i name="alphaZ">    286.28398214 </i>
    <i name="ewald">  -7349.97845038 </i>
    <i name="hartreedc">  -4565.77278816 </i>
    <i name="XCdc">    381.35117131 </i>
    <i name="pawpsdc">  16254.02916205 </i>
    <i name="pawaedc"> -16545.16041258 </i>
    <i name="eentropy">     -0.00000010 </i>
    <i name="bandstr">   -533.55985611 </i>
    <i name="atom">  12019.53804467 </i>
    <i name="e_fr_energy">    -53.26914716 </i>
    <i name="e_wo_entrp">    -53.26914706 </i>
    <i name="e_0_energy">    -53.26914711 </i>
   </energy>
  </scstep>
  <scstep>
   <time name="dav">   25.31   25.39</time>
   <time name="total">   27.90   27.99</time>
   <energy>
    <i name="e_fr_energy">    -53.31586900 </i>
    <i name="e_wo_entrp">    -53.31586893 </i>
    <i name="e_0_energy">    -53.31586896 </i>
   </energy>
  </scstep>
  <scstep>
   <time name="dav">   25.98   26.06</time>
   <time name="total">   28.57   28.66</time>
   <energy>
    <i name="e_fr_energy">    -53.31461407 </i>
    <i name="e_wo_entrp">    -53.31461405 </i>
    <i name="e_0_energy">    -53.31461406 </i>
   </energy>
  </scstep>
  <scstep>
   <time name="dav">   25.67   25.74</time>
   <time name="total">   28.26   28.35</time>
   <energy>
    <i name="e_fr_energy">    -53.31427987 </i>
    <i name="e_wo_entrp">    -53.31427982 </i>
    <i name="e_0_energy">    -53.31427984 </i>
   </energy>
  </scstep>
  <scstep>
   <time name="dav">   26.17   26.25</time>
   <time name="total">   28.76   28.86</time>
   <energy>
    <i name="e_fr_energy">    -53.31411698 </i>
    <i name="e_wo_entrp">    -53.31411692 </i>
    <i name="e_0_energy">    -53.31411695 </i>
   </energy>
  </scstep>
  <scstep>
   <time name="dav">   26.27   26.35</time>
   <time name="total">   28.86   28.95</time>
   <energy>
    <i name="e_fr_energy">    -53.31404100 </i>
    <i name="e_wo_entrp">    -53.31404093 </i>
    <i name="e_0_energy">    -53.31404097 </i>
   </energy>
  </scstep>
  <scstep>
   <time name="dav">   26.65   26.73</time>
   <time name="total">   29.24   29.36</time>
   <energy>
    <i name="e_fr_energy">    -53.31403978 </i>
    <i name="e_wo_entrp">    -53.31403971 </i>
    <i name="e_0_energy">    -53.31403974 </i>
   </energy>
  </scstep>
  <scstep>
   <time name="dav">   23.96   24.03</time>
   <time name="total">   26.56   26.64</time>
   <energy>
    <i name="e_fr_energy">    -53.31404035 </i>
    <i name="e_wo_entrp">    -53.31404029 </i>
    <i name="e_0_energy">    -53.31404032 </i>
   </energy>
  </scstep>
  <scstep>
   <time name="dav">   17.08   17.13</time>
   <time name="total">   18.06   18.13</time>
   <energy>
    <i name="alphaZ">    286.28398214 </i>
    <i name="ewald">  -7349.97845038 </i>
    <i name="hartreedc">  -4568.00423829 </i>
    <i name="XCdc">    381.46514559 </i>
    <i name="pawpsdc">  16246.17026288 </i>
    <i name="pawaedc"> -16537.25604870 </i>
    <i name="eentropy">     -0.00000006 </i>
    <i name="bandstr">   -531.53273806 </i>
    <i name="atom">  12019.53804467 </i>
    <i name="e_fr_energy">    -53.31404021 </i>
    <i name="e_wo_entrp">    -53.31404015 </i>
    <i name="e_0_energy">    -53.31404018 </i>
   </energy>
  </scstep>
  <structure>
   <crystal>
    <varray name="basis" >
     <v>       3.89347519       0.00000000      -0.00000000 </v>
     <v>      -1.94673759       3.37184842       0.00000000 </v>
     <v>      -0.00000000      -0.00000000      24.66106818 </v>
    </varray>
    <i name="volume">    323.75563641 </i>
    <varray name="rec_basis" >
     <v>       0.25683996       0.14828662       0.00000000 </v>
     <v>      -0.00000000       0.29657324       0.00000000 </v>
     <v>       0.00000000      -0.00000000       0.04054974 </v>
    </varray>
   </crystal>
   <varray name="positions" >
    <v>       0.00000000       0.00000000       0.27013711 </v>
    <v>      -0.00000000      -0.00000000       0.72986289 </v>
    <v>       0.33333334       0.66666669       0.10735428 </v>
    <v>       0.66666663       0.33333331       0.89264572 </v>
    <v>       0.33333334       0.66666669       0.20457556 </v>
    <v>       0.66666663       0.33333331       0.79542447 </v>
    <v>       0.33333334       0.66666669       0.93887706 </v>
    <v>       0.66666663       0.33333331       0.06112294 </v>
    <v>       0.33333334       0.66666669       0.68141848 </v>
    <v>       0.66666663       0.33333331       0.31858152 </v>
    <v>       0.33333334       0.66666669       0.43704417 </v>
    <v>       0.66666663       0.33333331       0.56295583 </v>
    <v>       0.33333334       0.66666669       0.54223248 </v>
    <v>       0.66666663       0.33333331       0.45776752 </v>
   </varray>
  </structure>
  <varray name="forces" >
   <v>       0.00000000       0.00000000      -0.07465458 </v>
   <v>      -0.00000000      -0.00000000       0.07465458 </v>
   <v>      -0.00000000      -0.00000000       0.06014030 </v>
   <v>       0.00000000       0.00000000      -0.06014030 </v>
   <v>       0.00000000       0.00000000      -0.01263718 </v>
   <v>      -0.00000000      -0.00000000       0.01263718 </v>
   <v>      -0.00000000      -0.00000000       0.05252479 </v>
   <v>       0.00000000       0.00000000      -0.05252479 </v>
   <v>       0.00000000       0.00000000      -0.06179951 </v>
   <v>      -0.00000000      -0.00000000       0.06179951 </v>
   <v>      -0.00000000      -0.00000000       0.03566856 </v>
   <v>       0.00000000       0.00000000      -0.03566856 </v>
   <v>       0.00000000       0.00000000      -0.03733485 </v>
   <v>      -0.00000000      -0.00000000       0.03733485 </v>
  </varray>
  <varray name="stress" >
   <v>      -0.92776934       0.00000000       0.00000000 </v>
   <v>      -0.00000000      -0.92776934      -0.00000000 </v>
   <v>       0.00000000      -0.00000000      -2.49390008 </v>
  </varray>
  <energy>
   <i name="e_fr_energy">    -57.44558864 </i>
   <i name="e_wo_entrp">    -57.44558860 </i>
   <i name="e_0_energy">     -0.00000006 </i>
  </energy>
  <time name="totalsc">  283.96  285.11</time>
 </calculation>
 <calculation>
  <scstep>
   <time name="dav">   21.00   21.06</time>
   <time name="total">   23.61   23.68</time>
   <energy>
    <i name="alphaZ">    286.42212053 </i>
    <i name="ewald">  -7329.11461006 </i>
    <i name="hartreedc">  -4590.84475019 </i>
    <i name="XCdc">    381.53661483 </i>
    <i name="pawpsdc">  16246.10299019 </i>
    <i name="pawaedc"> -16537.18949260 </i>
    <i name="eentropy">     -0.00000007 </i>
    <i name="bandstr">   -529.75197236 </i>
    <i name="atom">  12019.53804467 </i>
    <i name="e_fr_energy">    -53.30105506 </i>
    <i name="e_wo_entrp">    -53.30105499 </i>
    <i name="e_0_energy">    -53.30105502 </i>
   </energy>
  </scstep>
  <scstep>
   <time name="dav">   25.33   25.41</time>
   <time name="total">   27.95   28.25</time>
   <energy>
    <i name="e_fr_energy">    -53.31208650 </i>
    <i name="e_wo_entrp">    -53.31208641 </i>
    <i name="e_0_energy">    -53.31208645 </i>
   </energy>
  </scstep>
  <scstep>
   <time name="dav">   25.17   25.25</time>
   <time name="total">   27.78   27.88</time>
   <energy>
    <i name="e_fr_energy">    -53.31183191 </i>
    <i name="e_wo_entrp">    -53.31183177 </i>
    <i name="e_0_energy">    -53.31183184 </i>
   </energy>
  </scstep>
  <scstep>
   <time name="dav">   25.85   25.93</time>
   <time name="total">   28.45   28.54</time>
   <energy>
    <i name="e_fr_energy">    -53.31174939 </i>
    <i name="e_wo_entrp">    -53.31174930 </i>
    <i name="e_0_energy">    -53.31174935 </i>
   </energy>
  </scstep>
  <scstep>
   <time name="dav">   25.73   25.81</time>
   <time name="total">   28.33   28.41</time>
   <energy>
    <i name="e_fr_energy">    -53.31172932 </i>
    <i name="e_wo_entrp">    -53.31172922 </i>
    <i name="e_0_energy">    -53.31172927 </i>
   </energy>
  </scstep>
  <scstep>
   <time name="dav">   25.50   25.57</time>
   <time name="total">   28.09   28.17</time>
   <energy>
    <i name="e_fr_energy">    -53.31172071 </i>
    <i name="e_wo_entrp">    -53.31172062 </i>
    <i name="e_0_energy">    -53.31172067 </i>
   </energy>
  </scstep>
  <scstep>
   <time name="dav">   25.79   25.87</time>
   <time name="total">   28.39   28.47</time>
   <energy>
    <i name="e_fr_energy">    -53.31172112 </i>
    <i name="e_wo_entrp">    -53.31172103 </i>
    <i name="e_0_energy">    -53.31172108 </i>
   </energy>
  </scstep>
  <scstep>
   <time name="dav">   19.61   19.67</time>
   <time name="total">   20.60   20.87</time>
   <energy>
    <i name="alphaZ">    286.42212053 </i>
    <i name="ewald">  -7329.11461006 </i>
    <i name="hartreedc">  -4589.67520621 </i>
    <i name="XCdc">    381.47782698 </i>
    <i name="pawpsdc">  16251.17915452 </i>
    <i name="pawaedc"> -16542.28747053 </i>
    <i name="eentropy">     -0.00000009 </i>
    <i name="bandstr">   -530.85158168 </i>
    <i name="atom">  12019.53804467 </i>
    <i name="e_fr_energy">    -53.31172186 </i>
    <i name="e_wo_entrp">    -53.31172176 </i>
    <i name="e_0_energy">    -53.31172181 </i>
   </energy>
  </scstep>
  <structure>
   <crystal>
    <varray name="basis" >
     <v>       3.89231048       0.00000000      -0.00000000 </v>
     <v>      -1.94615524       3.37083976       0.00000000 </v>
     <v>      -0.00000000      -0.00000000      24.66392829 </v>
    </varray>
    <i name="volume">    323.59949246 </i>
    <varray name="rec_basis" >
     <v>       0.25691681       0.14833099       0.00000000 </v>
     <v>      -0.00000000       0.29666198       0.00000000 </v>
     <v>       0.00000000      -0.00000000       0.04054504 </v>
    </varray>
   </crystal>
   <varray name="positions" >
    <v>       0.00000000       0.00000000       0.27036429 </v>
    <v>      -0.00000000      -0.00000000       0.72963571 </v>
    <v>       0.33333334       0.66666669       0.10786986 </v>
    <v>       0.66666663       0.33333331       0.89213014 </v>
    <v>       0.33333334       0.66666669       0.20500062 </v>
    <v>       0.66666663       0.33333331       0.79499941 </v>
    <v>       0.33333334       0.66666669       0.93850845 </v>
    <v>       0.66666663       0.33333331       0.06149155 </v>
    <v>       0.33333334       0.66666669       0.68100000 </v>
    <v>       0.66666663       0.33333331       0.31900000 </v>
    <v>       0.33333334       0.66666669       0.43708812 </v>
    <v>       0.66666663       0.33333331       0.56291188 </v>
    <v>       0.33333334       0.66666669       0.54219668 </v>
    <v>       0.66666663       0.33333331       0.45780332 </v>
   </varray>
  </structure>
  <varray name="forces" >
   <v>       0.00000000       0.00000000      -0.02690270 </v>
   <v>      -0.00000000      -0.00000000       0.02690270 </v>
   <v>      -0.00000000      -0.00000000       0.01603401 </v>
   <v>       0.00000000       0.00000000      -0.01603401 </v>
   <v>       0.00000000       0.00000000      -0.01170285 </v>
   <v>      -0.00000000      -0.00000000       0.01170285 </v>
   <v>      -0.00000000      -0.00000000       0.03991257 </v>
   <v>       0.00000000       0.00000000      -0.03991257 </v>
   <v>       0.00000000       0.00000000      -0.03344762 </v>
   <v>      -0.00000000      -0.00000000       0.03344762 </v>
   <v>      -0.00000000      -0.00000000       0.03147757 </v>
   <v>       0.00000000       0.00000000      -0.03147757 </v>
   <v>       0.00000000       0.00000000      -0.03660097 </v>
   <v>      -0.00000000      -0.00000000       0.03660097 </v>
  </varray>
  <varray name="stress" >
   <v>      -0.80359110       0.00000000      -0.00000000 </v>
   <v>      -0.00000000      -0.80359110       0.00000000 </v>
   <v>      -0.00000000       0.00000000      -1.86748799 </v>
  </varray>
  <energy>
   <i name="e_fr_energy">    -57.44610761 </i>
   <i name="e_wo_entrp">    -57.44610757 </i>
   <i name="e_0_energy">     -0.00000009 </i>
  </energy>
  <time name="totalsc">  257.10  259.22</time>
 </calculation>
 <calculation>
  <scstep>
   <time name="dav">   24.55   24.62</time>
   <time name="total">   27.14   27.23</time>
   <energy>
    <i name="alphaZ">    286.95340855 </i>
    <i name="ewald">  -7345.31101698 </i>
    <i name="hartreedc">  -4580.99799914 </i>
    <i name="XCdc">    381.75887261 </i>
    <i name="pawpsdc">  16250.74223281 </i>
    <i name="pawaedc"> -16541.85166482 </i>
    <i name="eentropy">     -0.00000010 </i>
    <i name="bandstr">   -524.13782763 </i>
    <i name="atom">  12019.53804467 </i>
    <i name="e_fr_energy">    -53.30595003 </i>
    <i name="e_wo_entrp">    -53.30594993 </i>
    <i name="e_0_energy">    -53.30594998 </i>
   </energy>
  </scstep>
  <scstep>
   <time name="dav">   25.82   25.90</time>
   <time name="total">   28.43   28.51</time>
   <energy>
    <i name="e_fr_energy">    -53.30493124 </i>
    <i name="e_wo_entrp">    -53.30493119 </i>
    <i name="e_0_energy">    -53.30493121 </i>
   </energy>
  </scstep>
  <scstep>
   <time name="dav">   25.99   26.07</time>
   <time name="total">   28.59   28.68</time>
   <energy>
    <i name="e_fr_energy">    -53.30458836 </i>
    <i name="e_wo_entrp">    -53.30458832 </i>
    <i name="e_0_energy">    -53.30458834 </i>
   </energy>
  </scstep>
  <scstep>
   <time name="dav">   24.92   24.99</time>
   <time name="total">   27.53   27.67</time>
   <energy>
    <i name="e_fr_energy">    -53.30439558 </i>
    <i name="e_wo_entrp">    -53.30439552 </i>
    <i name="e_0_energy">    -53.30439555 </i>
   </energy>
  </scstep>
  <scstep>
   <time name="dav">   26.96   27.04</time>
   <time name="total">   29.56   29.65</time>
   <energy>
    <i name="e_fr_energy">    -53.30438896 </i>
    <i name="e_wo_entrp">    -53.30438889 </i>
    <i name="e_0_energy">    -53.30438892 </i>
   </energy>
  </scstep>
  <scstep>
   <time name="dav">   21.49   21.55</time>
   <time name="total">   24.08   24.17</time>
   <energy>
    <i name="e_fr_energy">    -53.30439007 </i>
    <i name="e_wo_entrp">    -53.30439000 </i>
    <i name="e_0_energy">    -53.30439004 </i>
   </energy>
  </scstep>
  <scstep>
   <time name="dav">   17.97   18.02</time>
   <time name="total">   20.55   20.62</time>
   <energy>
    <i name="e_fr_energy">    -53.30439203 </i>
    <i name="e_wo_entrp">    -53.30439196 </i>
    <i name="e_0_energy">    -53.30439200 </i>
   </energy>
  </scstep>
  <scstep>
   <time name="dav">   16.11   16.16</time>
   <time name="total">   17.08   17.14</time>
   <energy>
    <i name="alphaZ">    286.95340855 </i>
    <i name="ewald">  -7345.31101698 </i>
    <i name="hartreedc">  -4575.77146652 </i>
    <i name="XCdc">    381.52819690 </i>
    <i name="pawpsdc">  16276.33291329 </i>
    <i name="pawaedc"> -16567.53222391 </i>
    <i name="eentropy">     -0.00000007 </i>
    <i name="bandstr">   -529.04224883 </i>
    <i name="atom">  12019.53804467 </i>
    <i name="e_fr_energy">    -53.30439290 </i>
    <i name="e_wo_entrp">    -53.30439283 </i>
    <i name="e_0_energy">    -53.30439286 </i>
   </energy>
  </scstep>
  <structure>
   <crystal>
    <varray name="basis" >
     <v>       3.89101865       0.00000000      -0.00000000 </v>
     <v>      -1.94550932       3.36972100       0.00000000 </v>
     <v>      -0.00000000      -0.00000000      24.63461297 </v>
    </varray>
    <i name="volume">    323.00035501 </i>
    <varray name="rec_basis" >
     <v>       0.25700211       0.14838024       0.00000000 </v>
     <v>      -0.00000000       0.29676047       0.00000000 </v>
     <v>       0.00000000      -0.00000000       0.04059329 </v>
    </varray>
   </crystal>
   <varray name="positions" >
    <v>       0.00000000       0.00000000       0.27020181 </v>
    <v>      -0.00000000      -0.00000000       0.72979819 </v>
    <v>       0.33333334       0.66666669       0.10763210 </v>
    <v>       0.66666663       0.33333331       0.89236790 </v>
    <v>       0.33333334       0.66666669       0.20476226 </v>
    <v>       0.66666663       0.33333331       0.79523777 </v>
    <v>       0.33333334       0.66666669       0.93876572 </v>
    <v>       0.66666663       0.33333331       0.06123428 </v>
    <v>       0.33333334       0.66666669       0.68115826 </v>
    <v>       0.66666663       0.33333331       0.31884174 </v>
    <v>       0.33333334       0.66666669       0.43711901 </v>
    <v>       0.66666663       0.33333331       0.56288099 </v>
    <v>       0.33333334       0.66666669       0.54215290 </v>
    <v>       0.66666663       0.33333331       0.45784710 </v>
   </varray>
  </structure>
  <varray name="forces" >
   <v>       0.00000000       0.00000000      -0.03335014 </v>
   <v>      -0.00000000      -0.00000000       0.03335014 </v>
   <v>       0.00000000       0.00000000      -0.00188915 </v>
   <v>      -0.00000000      -0.00000000       0.00188915 </v>
   <v>      -0.00000000      -0.00000000       0.01140517 </v>
   <v>       0.00000000       0.00000000      -0.01140517 </v>
   <v>      -0.00000000      -0.00000000       0.04557440 </v>
   <v>       0.00000000       0.00000000      -0.04557440 </v>
   <v>       0.00000000       0.00000000      -0.04793833 </v>
   <v>      -0.00000000      -0.00000000       0.04793833 </v>
   <v>      -0.00000000      -0.00000000       0.01238791 </v>
   <v>       0.00000000       0.00000000      -0.01238791 </v>
   <v>       0.00000000       0.00000000      -0.03177049 </v>
   <v>      -0.00000000      -0.00000000       0.03177049 </v>
  </varray>
  <varray name="stress" >
   <v>       0.04540961       0.00000000       0.00000000 </v>
   <v>      -0.00000000       0.04540961       0.00000000 </v>
   <v>      -0.00000000       0.00000000      -0.34942306 </v>
  </varray>
  <energy>
   <i name="e_fr_energy">    -57.44689900 </i>
   <i name="e_wo_entrp">    -57.44689896 </i>
   <i name="e_0_energy">     -0.00000007 </i>
  </energy>
  <time name="totalsc">  246.81  247.65</time>
 </calculation>
 <calculation>
  <scstep>
   <time name="dav">   24.52   24.59</time>
   <time name="total">   27.11   27.20</time>
   <energy>
    <i name="alphaZ">    287.44453776 </i>
    <i name="ewald">  -7360.10179827 </i>
    <i name="hartreedc">  -4567.91839838 </i>
    <i name="XCdc">    381.78764540 </i>
    <i name="pawpsdc">  16276.33218822 </i>
    <i name="pawaedc"> -16567.53143044 </i>
    <i name="eentropy">     -0.00000008 </i>
    <i name="bandstr">   -522.84923621 </i>
    <i name="atom">  12019.53804467 </i>
    <i name="e_fr_energy">    -53.29844733 </i>
    <i name="e_wo_entrp">    -53.29844725 </i>
    <i name="e_0_energy">    -53.29844729 </i>
   </energy>
  </scstep>
  <scstep>
   <time name="dav">   25.80   25.88</time>
   <time name="total">   28.40   28.50</time>
   <energy>
    <i name="e_fr_energy">    -53.29756747 </i>
    <i name="e_wo_entrp">    -53.29756743 </i>
    <i name="e_0_energy">    -53.29756745 </i>
   </energy>
  </scstep>
  <scstep>
   <time name="dav">   25.95   26.03</time>
   <time name="total">   28.55   28.63</time>
   <energy>
    <i name="e_fr_energy">    -53.29727523 </i>
    <i name="e_wo_entrp">    -53.29727519 </i>
    <i name="e_0_energy">    -53.29727521 </i>
   </energy>
  </scstep>
  <scstep>
   <time name="dav">   24.87   24.95</time>
   <time name="total">   27.47   28.18</time>
   <energy>
    <i name="e_fr_energy">    -53.29711197 </i>
    <i name="e_wo_entrp">    -53.29711192 </i>
    <i name="e_0_energy">    -53.29711194 </i>
   </energy>
  </scstep>
  <scstep>
   <time name="dav">   26.90   26.98</time>
   <time name="total">   29.51   29.59</time>
   <energy>
    <i name="e_fr_energy">    -53.29710717 </i>
    <i name="e_wo_entrp">    -53.29710712 </i>
    <i name="e_0_energy">    -53.29710714 </i>
   </energy>
  </scstep>
  <scstep>
   <time name="dav">   21.37   21.44</time>
   <time name="total">   23.98   24.05</time>
   <energy>
    <i name="e_fr_energy">    -53.29710838 </i>
    <i name="e_wo_entrp">    -53.29710833 </i>
    <i name="e_0_energy">    -53.29710836 </i>
   </energy>
  </scstep>
  <scstep>
   <time name="dav">   17.12   17.17</time>
   <time name="total">   19.72   19.79</time>
   <energy>
    <i name="e_fr_energy">    -53.29711022 </i>
    <i name="e_wo_entrp">    -53.29711016 </i>
    <i name="e_0_energy">    -53.29711019 </i>
   </energy>
  </scstep>
  <scstep>
   <time name="dav">   15.55   15.60</time>
   <time name="total">   16.53   16.58</time>
   <energy>
    <i name="alphaZ">    287.44453776 </i>
    <i name="ewald">  -7360.10179827 </i>
    <i name="hartreedc">  -4563.09352094 </i>
    <i name="XCdc">    381.57469358 </i>
    <i name="pawpsdc">  16300.42525246 </i>
    <i name="pawaedc"> -16591.70702585 </i>
    <i name="eentropy">     -0.00000005 </i>
    <i name="bandstr">   -527.37729440 </i>
    <i name="atom">  12019.53804467 </i>
    <i name="e_fr_energy">    -53.29711105 </i>
    <i name="e_wo_entrp">    -53.29711099 </i>
    <i name="e_0_energy">    -53.29711102 </i>
   </energy>
  </scstep>
  <structure>
   <crystal>
    <varray name="basis" >
     <v>       3.88982760       0.00000000      -0.00000000 </v>
     <v>      -1.94491380       3.36868952       0.00000000 </v>
     <v>      -0.00000000      -0.00000000      24.60758470 </v>
    </varray>
    <i name="volume">    322.44847495 </i>
    <varray name="rec_basis" >
     <v>       0.25708080       0.14842567       0.00000000 </v>
     <v>      -0.00000000       0.29685134       0.00000000 </v>
     <v>       0.00000000      -0.00000000       0.04063788 </v>
    </varray>
   </crystal>
   <varray name="positions" >
    <v>       0.00000000       0.00000000       0.27005183 </v>
    <v>      -0.00000000      -0.00000000       0.72994817 </v>
    <v>       0.33333334       0.66666669       0.10741263 </v>
    <v>       0.66666663       0.33333331       0.89258737 </v>
    <v>       0.33333334       0.66666669       0.20454224 </v>
    <v>       0.66666663       0.33333331       0.79545779 </v>
    <v>       0.33333334       0.66666669       0.93900321 </v>
    <v>       0.66666663       0.33333331       0.06099679 </v>
    <v>       0.33333334       0.66666669       0.68130436 </v>
    <v>       0.66666663       0.33333331       0.31869564 </v>
    <v>       0.33333334       0.66666669       0.43714753 </v>
    <v>       0.66666663       0.33333331       0.56285247 </v>
    <v>       0.33333334       0.66666669       0.54211248 </v>
    <v>       0.66666663       0.33333331       0.45788752 </v>
   </varray>
  </structure>
  <varray name="forces" >
   <v>       0.00000000       0.00000000      -0.03985982 </v>
   <v>      -0.00000000      -0.00000000       0.03985982 </v>
   <v>       0.00000000       0.00000000      -0.01846408 </v>
   <v>      -0.00000000      -0.00000000       0.01846408 </v>
   <v>      -0.00000000      -0.00000000       0.03310157 </v>
   <v>       0.00000000       0.00000000      -0.03310157 </v>
   <v>      -0.00000000      -0.00000000       0.05096586 </v>
   <v>       0.00000000       0.00000000      -0.05096586 </v>
   <v>       0.00000000       0.00000000      -0.06099972 </v>
   <v>      -0.00000000      -0.00000000       0.06099972 </v>
   <v>       0.00000000       0.00000000      -0.00530173 </v>
   <v>      -0.00000000      -0.00000000       0.00530173 </v>
   <v>       0.00000000       0.00000000      -0.02705070 </v>
   <v>      -0.00000000      -0.00000000       0.02705070 </v>
  </varray>
  <varray name="stress" >
   <v>       0.86706269      -0.00000000      -0.00000000 </v>
   <v>       0.00000000       0.86706269       0.00000000 </v>
   <v>       0.00000000       0.00000000       1.10331735 </v>
  </varray>
  <energy>
   <i name="e_fr_energy">    -57.44713048 </i>
   <i name="e_wo_entrp">    -57.44713045 </i>
   <i name="e_0_energy">     -0.00000005 </i>
  </energy>
  <time name="totalsc">  245.23  247.30</time>
 </calculation>
 <calculation>
  <scstep>
   <time name="dav">   20.67   20.73</time>
   <time name="total">   23.27   23.34</time>
   <energy>
    <i name="alphaZ">    287.50796832 </i>
    <i name="ewald">  -7372.73065196 </i>
    <i name="hartreedc">  -4551.58860413 </i>
    <i name="XCdc">    381.58909379 </i>
    <i name="pawpsdc">  16300.41951374 </i>
    <i name="pawaedc"> -16591.70121123 </i>
    <i name="eentropy">     -0.00000006 </i>
    <i name="bandstr">   -526.32771886 </i>
    <i name="atom">  12019.53804467 </i>
    <i name="e_fr_energy">    -53.29356572 </i>
    <i name="e_wo_entrp">    -53.29356565 </i>
    <i name="e_0_energy">    -53.29356568 </i>
   </energy>
  </scstep>
  <scstep>
   <time name="dav">   25.75   25.83</time>
   <time name="total">   28.34   28.43</time>
   <energy>
    <i name="e_fr_energy">    -53.29746638 </i>
    <i name="e_wo_entrp">    -53.29746630 </i>
    <i name="e_0_energy">    -53.29746634 </i>
   </energy>
  </scstep>
  <scstep>
   <time name="dav">   25.30   25.38</time>
   <time name="total">   27.89   27.98</time>
   <energy>
    <i name="e_fr_energy">    -53.29733900 </i>
    <i name="e_wo_entrp">    -53.29733892 </i>
    <i name="e_0_energy">    -53.29733896 </i>
   </energy>
  </scstep>
  <scstep>
   <time name="dav">   24.28   24.35</time>
   <time name="total">   26.87   26.96</time>
   <energy>
    <i name="e_fr_energy">    -53.29729066 </i>
    <i name="e_wo_entrp">    -53.29729057 </i>
    <i name="e_0_energy">    -53.29729061 </i>
   </energy>
  </scstep>
  <scstep>
   <time name="dav">   24.48   24.56</time>
   <time name="total">   27.08   27.17</time>
   <energy>
    <i name="e_fr_energy">    -53.29726868 </i>
    <i name="e_wo_entrp">    -53.29726858 </i>
    <i name="e_0_energy">    -53.29726863 </i>
   </energy>
  </scstep>
  <scstep>
   <time name="dav">   25.37   25.44</time>
   <time name="total">   27.96   28.05</time>
   <energy>
    <i name="e_fr_energy">    -53.29726575 </i>
    <i name="e_wo_entrp">    -53.29726565 </i>
    <i name="e_0_energy">    -53.29726570 </i>
   </energy>
  </scstep>
  <scstep>
   <time name="dav">   20.53   20.59</time>
   <time name="total">   21.51   21.57</time>
   <energy>
    <i name="alphaZ">    287.50796832 </i>
    <i name="ewald">  -7372.73065196 </i>
    <i name="hartreedc">  -4550.89703840 </i>
    <i name="XCdc">    381.56122362 </i>
    <i name="pawpsdc">  16288.86806642 </i>
    <i name="pawaedc"> -16580.11207663 </i>
    <i name="eentropy">     -0.00000010 </i>
    <i name="bandstr">   -527.03280247 </i>
    <i name="atom">  12019.53804467 </i>
    <i name="e_fr_energy">    -53.29726653 </i>
    <i name="e_wo_entrp">    -53.29726643 </i>
    <i name="e_0_energy">    -53.29726648 </i>
   </energy>
  </scstep>
  <structure>
   <crystal>
    <varray name="basis" >
     <v>       3.89046544       0.00000000      -0.00000000 </v>
     <v>      -1.94523272       3.36924191       0.00000000 </v>
     <v>      -0.00000000      -0.00000000      24.59408931 </v>
    </varray>
    <i name="volume">    322.37733574 </i>
    <varray name="rec_basis" >
     <v>       0.25703865       0.14840134       0.00000000 </v>
     <v>      -0.00000000       0.29680267       0.00000000 </v>
     <v>       0.00000000      -0.00000000       0.04066018 </v>
    </varray>
   </crystal>
   <varray name="positions" >
    <v>       0.00000000       0.00000000       0.26982701 </v>
    <v>      -0.00000000      -0.00000000       0.73017299 </v>
    <v>       0.33333334       0.66666669       0.10714757 </v>
    <v>       0.66666663       0.33333331       0.89285243 </v>
    <v>       0.33333334       0.66666669       0.20435928 </v>
    <v>       0.66666663       0.33333331       0.79564074 </v>
    <v>       0.33333334       0.66666669       0.93933972 </v>
    <v>       0.66666663       0.33333331       0.06066028 </v>
    <v>       0.33333334       0.66666669       0.68136325 </v>
    <v>       0.66666663       0.33333331       0.31863675 </v>
    <v>       0.33333334       0.66666669       0.43716963 </v>
    <v>       0.66666663       0.33333331       0.56283037 </v>
    <v>       0.33333334       0.66666669       0.54202573 </v>
    <v>       0.66666663       0.33333331       0.45797427 </v>
   </varray>
  </structure>
  <varray name="forces" >
   <v>       0.00000000       0.00000000      -0.01099646 </v>
   <v>      -0.00000000      -0.00000000       0.01099646 </v>
   <v>       0.00000000       0.00000000      -0.02286120 </v>
   <v>      -0.00000000      -0.00000000       0.02286120 </v>
   <v>      -0.00000000      -0.00000000       0.02305416 </v>
   <v>       0.00000000       0.00000000      -0.02305416 </v>
   <v>      -0.00000000      -0.00000000       0.03456227 </v>
   <v>       0.00000000       0.00000000      -0.03456227 </v>
   <v>       0.00000000       0.00000000      -0.03656271 </v>
   <v>      -0.00000000      -0.00000000       0.03656271 </v>
   <v>       0.00000000       0.00000000      -0.01243398 </v>
   <v>      -0.00000000      -0.00000000       0.01243398 </v>
   <v>       0.00000000       0.00000000      -0.01978513 </v>
   <v>      -0.00000000      -0.00000000       0.01978513 </v>
  </varray>
  <varray name="stress" >
   <v>       0.45335537       0.00000000      -0.00000000 </v>
   <v>      -0.00000000       0.45335537       0.00000000 </v>
   <v>      -0.00000000       0.00000000       0.93838266 </v>
  </varray>
  <energy>
   <i name="e_fr_energy">    -57.44802296 </i>
   <i name="e_wo_entrp">    -57.44802291 </i>
   <i name="e_0_energy">     -0.00000010 </i>
  </energy>
  <time name="totalsc">  226.90  227.82</time>
 </calculation>
 <calculation>
  <scstep>
   <time name="dav">   20.89   20.95</time>
   <time name="total">   23.51   23.59</time>
   <energy>
    <i name="alphaZ">    287.59242402 </i>
    <i name="ewald">  -7389.16430889 </i>
    <i name="hartreedc">  -4535.95217934 </i>
    <i name="XCdc">    381.58073029 </i>
    <i name="pawpsdc">  16288.55375486 </i>
    <i name="pawaedc"> -16579.79887421 </i>
    <i name="eentropy">     -0.00000012 </i>
    <i name="bandstr">   -525.63995134 </i>
    <i name="atom">  12019.53804467 </i>
    <i name="e_fr_energy">    -53.29036005 </i>
    <i name="e_wo_entrp">    -53.29035993 </i>
    <i name="e_0_energy">    -53.29035999 </i>
   </energy>
  </scstep>
  <scstep>
   <time name="dav">   26.01   26.09</time>
   <time name="total">   28.63   28.72</time>
   <energy>
    <i name="e_fr_energy">    -53.29711391 </i>
    <i name="e_wo_entrp">    -53.29711374 </i>
    <i name="e_0_energy">    -53.29711382 </i>
   </energy>
  </scstep>
  <scstep>
   <time name="dav">   25.37   25.44</time>
   <time name="total">   27.97   28.06</time>
   <energy>
    <i name="e_fr_energy">    -53.29689931 </i>
    <i name="e_wo_entrp">    -53.29689916 </i>
    <i name="e_0_energy">    -53.29689924 </i>
   </energy>
  </scstep>
  <scstep>
   <time name="dav">   24.36   24.43</time>
   <time name="total">   26.95   27.04</time>
   <energy>
    <i name="e_fr_energy">    -53.29681378 </i>
    <i name="e_wo_entrp">    -53.29681359 </i>
    <i name="e_0_energy">    -53.29681369 </i>
   </energy>
  </scstep>
  <scstep>
   <time name="dav">   24.75   24.82</time>
   <time name="total">   27.34   27.43</time>
   <energy>
    <i name="e_fr_energy">    -53.29678014 </i>
    <i name="e_wo_entrp">    -53.29677992 </i>
    <i name="e_0_energy">    -53.29678003 </i>
   </energy>
  </scstep>
  <scstep>
   <time name="dav">   25.15   25.22</time>
   <time name="total">   27.74   27.82</time>
   <energy>
    <i name="e_fr_energy">    -53.29677619 </i>
    <i name="e_wo_entrp">    -53.29677596 </i>
    <i name="e_0_energy">    -53.29677608 </i>
   </energy>
  </scstep>
  <scstep>
   <time name="dav">   21.16   21.22</time>
   <time name="total">   22.15   22.24</time>
   <energy>
    <i name="alphaZ">    287.59242402 </i>
    <i name="ewald">  -7389.16430889 </i>
    <i name="hartreedc">  -4535.03063685 </i>
    <i name="XCdc">    381.54367320 </i>
    <i name="pawpsdc">  16272.75542286 </i>
    <i name="pawaedc"> -16563.95127035 </i>
    <i name="eentropy">     -0.00000022 </i>
    <i name="bandstr">   -526.58012559 </i>
    <i name="atom">  12019.53804467 </i>
    <i name="e_fr_energy">    -53.29677716 </i>
    <i name="e_wo_entrp">    -53.29677693 </i>
    <i name="e_0_energy">    -53.29677704 </i>
   </energy>
  </scstep>
  <structure>
   <crystal>
    <varray name="basis" >
     <v>       3.89131291       0.00000000      -0.00000000 </v>
     <v>      -1.94565645       3.36997583       0.00000000 </v>
     <v>      -0.00000000      -0.00000000      24.57615885 </v>
    </varray>
    <i name="volume">    322.28266494 </i>
    <varray name="rec_basis" >
     <v>       0.25698268       0.14836902       0.00000000 </v>
     <v>      -0.00000000       0.29673803       0.00000000 </v>
     <v>       0.00000000      -0.00000000       0.04068984 </v>
    </varray>
   </crystal>
   <varray name="positions" >
    <v>      -0.00000000       0.00000000       0.26952814 </v>
    <v>       0.00000000      -0.00000000       0.73047186 </v>
    <v>       0.33333334       0.66666669       0.10679521 </v>
    <v>       0.66666663       0.33333331       0.89320479 </v>
    <v>       0.33333334       0.66666669       0.20411607 </v>
    <v>       0.66666663       0.33333331       0.79588396 </v>
    <v>       0.33333334       0.66666669       0.93978706 </v>
    <v>       0.66666663       0.33333331       0.06021294 </v>
    <v>       0.33333334       0.66666669       0.68144155 </v>
    <v>       0.66666663       0.33333331       0.31855845 </v>
    <v>       0.33333334       0.66666669       0.43719900 </v>
    <v>       0.66666663       0.33333331       0.56280100 </v>
    <v>       0.33333334       0.66666669       0.54191042 </v>
    <v>       0.66666663       0.33333331       0.45808958 </v>
   </varray>
  </structure>
  <varray name="forces" >
   <v>      -0.00000000      -0.00000000       0.02738452 </v>
   <v>       0.00000000       0.00000000      -0.02738452 </v>
   <v>       0.00000000       0.00000000      -0.02820457 </v>
   <v>      -0.00000000      -0.00000000       0.02820457 </v>
   <v>      -0.00000000      -0.00000000       0.00981330 </v>
   <v>       0.00000000       0.00000000      -0.00981330 </v>
   <v>      -0.00000000      -0.00000000       0.01216548 </v>
   <v>       0.00000000       0.00000000      -0.01216548 </v>
   <v>       0.00000000       0.00000000      -0.00506355 </v>
   <v>      -0.00000000      -0.00000000       0.00506355 </v>
   <v>       0.00000000       0.00000000      -0.02247234 </v>
   <v>      -0.00000000      -0.00000000       0.02247234 </v>
   <v>       0.00000000       0.00000000      -0.00989797 </v>
   <v>      -0.00000000      -0.00000000       0.00989797 </v>
  </varray>
  <varray name="stress" >
   <v>      -0.14810795       0.00000000      -0.00000000 </v>
   <v>       0.00000000      -0.14810795      -0.00000000 </v>
   <v>      -0.00000000      -0.00000000       0.71827528 </v>
  </varray>
  <energy>
   <i name="e_fr_energy">    -57.44853421 </i>
   <i name="e_wo_entrp">    -57.44853409 </i>
   <i name="e_0_energy">     -0.00000022 </i>
  </energy>
  <time name="totalsc">  228.10  231.93</time>
 </calculation>
 <calculation>
  <scstep>
   <time name="dav">   20.86   20.92</time>
   <time name="total">   23.46   23.53</time>
   <energy>
    <i name="alphaZ">    287.60577612 </i>
    <i name="ewald">  -7391.72355176 </i>
    <i name="hartreedc">  -4532.70573607 </i>
    <i name="XCdc">    381.54690149 </i>
    <i name="pawpsdc">  16272.30087084 </i>
    <i name="pawaedc"> -16563.49873668 </i>
    <i name="eentropy">     -0.00000023 </i>
    <i name="bandstr">   -526.36002301 </i>
    <i name="atom">  12019.53804467 </i>
    <i name="e_fr_energy">    -53.29645462 </i>
    <i name="e_wo_entrp">    -53.29645439 </i>
    <i name="e_0_energy">    -53.29645451 </i>
   </energy>
  </scstep>
  <scstep>
   <time name="dav">   26.00   26.08</time>
   <time name="total">   28.60   28.68</time>
   <energy>
    <i name="e_fr_energy">    -53.29663418 </i>
    <i name="e_wo_entrp">    -53.29663394 </i>
    <i name="e_0_energy">    -53.29663406 </i>
   </energy>
  </scstep>
  <scstep>
   <time name="dav">   25.47   25.55</time>
   <time name="total">   28.07   28.16</time>
   <energy>
    <i name="e_fr_energy">    -53.29662722 </i>
    <i name="e_wo_entrp">    -53.29662698 </i>
    <i name="e_0_energy">    -53.29662710 </i>
   </energy>
  </scstep>
  <scstep>
   <time name="dav">   21.75   21.81</time>
   <time name="total">   24.34   24.42</time>
   <energy>
    <i name="e_fr_energy">    -53.29662490 </i>
    <i name="e_wo_entrp">    -53.29662465 </i>
    <i name="e_0_energy">    -53.29662478 </i>
   </energy>
  </scstep>
  <scstep>
   <time name="dav">   18.71   18.77</time>
   <time name="total">   21.31   21.40</time>
   <energy>
    <i name="e_fr_energy">    -53.29662347 </i>
    <i name="e_wo_entrp">    -53.29662322 </i>
    <i name="e_0_energy">    -53.29662334 </i>
   </energy>
  </scstep>
  <scstep>
   <time name="dav">   14.89   14.94</time>
   <time name="total">   15.87   15.92</time>
   <energy>
    <i name="alphaZ">    287.60577612 </i>
    <i name="ewald">  -7391.72355176 </i>
    <i name="hartreedc">  -4532.55279245 </i>
    <i name="XCdc">    381.54069759 </i>
    <i name="pawpsdc">  16269.86940661 </i>
    <i name="pawaedc"> -16561.05884866 </i>
    <i name="eentropy">     -0.00000025 </i>
    <i name="bandstr">   -526.51535525 </i>
    <i name="atom">  12019.53804467 </i>
    <i name="e_fr_energy">    -53.29662337 </i>
    <i name="e_wo_entrp">    -53.29662312 </i>
    <i name="e_0_energy">    -53.29662325 </i>
   </energy>
  </scstep>
  <structure>
   <crystal>
    <varray name="basis" >
     <v>       3.89144670       0.00000000      -0.00000000 </v>
     <v>      -1.94572335       3.37009170       0.00000000 </v>
     <v>      -0.00000000      -0.00000000      24.57332810 </v>
    </varray>
    <i name="volume">    322.26770297 </i>
    <varray name="rec_basis" >
     <v>       0.25697384       0.14836392       0.00000000 </v>
     <v>      -0.00000000       0.29672783       0.00000000 </v>
     <v>       0.00000000      -0.00000000       0.04069453 </v>
    </varray>
   </crystal>
   <varray name="positions" >
    <v>      -0.00000000       0.00000000       0.26948092 </v>
    <v>       0.00000000      -0.00000000       0.73051908 </v>
    <v>       0.33333334       0.66666669       0.10673954 </v>
    <v>       0.66666663       0.33333331       0.89326046 </v>
    <v>       0.33333334       0.66666669       0.20407765 </v>
    <v>       0.66666663       0.33333331       0.79592238 </v>
    <v>       0.33333334       0.66666669       0.93985773 </v>
    <v>       0.66666663       0.33333331       0.06014227 </v>
    <v>       0.33333334       0.66666669       0.68145392 </v>
    <v>       0.66666663       0.33333331       0.31854608 </v>
    <v>       0.33333334       0.66666669       0.43720364 </v>
    <v>       0.66666663       0.33333331       0.56279636 </v>
    <v>       0.33333334       0.66666669       0.54189220 </v>
    <v>       0.66666663       0.33333331       0.45810780 </v>
   </varray>
  </structure>
  <varray name="forces" >
   <v>      -0.00000000      -0.00000000       0.03456287 </v>
   <v>       0.00000000       0.00000000      -0.03456287 </v>
   <v>       0.00000000       0.00000000      -0.02832650 </v>
   <v>      -0.00000000      -0.00000000       0.02832650 </v>
   <v>      -0.00000000      -0.00000000       0.00731561 </v>
   <v>       0.00000000       0.00000000      -0.00731561 </v>
   <v>      -0.00000000      -0.00000000       0.00947619 </v>
   <v>       0.00000000       0.00000000      -0.00947619 </v>
   <v>       0.00000000       0.00000000      -0.00001024 </v>
   <v>      -0.00000000      -0.00000000       0.00001024 </v>
   <v>       0.00000000       0.00000000      -0.02382035 </v>
   <v>      -0.00000000      -0.00000000       0.02382035 </v>
   <v>       0.00000000       0.00000000      -0.00831992 </v>
   <v>      -0.00000000      -0.00000000       0.00831992 </v>
  </varray>
  <varray name="stress" >
   <v>      -0.27647009      -0.00000000      -0.00000000 </v>
   <v>      -0.00000000      -0.27647009       0.00000000 </v>
   <v>       0.00000000       0.00000000       0.69022563 </v>
  </varray>
  <energy>
   <i name="e_fr_energy">    -57.44854056 </i>
   <i name="e_wo_entrp">    -57.44854044 </i>
   <i name="e_0_energy">     -0.00000025 </i>
  </energy>
  <time name="totalsc">  185.84  186.67</time>
 </calculation>
 <calculation>
  <scstep>
   <time name="dav">   21.75   21.82</time>
   <time name="total">   24.35   24.64</time>
   <energy>
    <i name="alphaZ">    287.59457442 </i>
    <i name="ewald">  -7394.16040932 </i>
    <i name="hartreedc">  -4529.91493653 </i>
    <i name="XCdc">    381.52490165 </i>
    <i name="pawpsdc">  16269.76601023 </i>
    <i name="pawaedc"> -16560.95549325 </i>
    <i name="eentropy">     -0.00000029 </i>
    <i name="bandstr">   -526.68938783 </i>
    <i name="atom">  12019.53804467 </i>
    <i name="e_fr_energy">    -53.29669625 </i>
    <i name="e_wo_entrp">    -53.29669595 </i>
    <i name="e_0_energy">    -53.29669610 </i>
   </energy>
  </scstep>
  <scstep>
   <time name="dav">   26.62   26.70</time>
   <time name="total">   29.22   29.31</time>
   <energy>
    <i name="e_fr_energy">    -53.29716683 </i>
    <i name="e_wo_entrp">    -53.29716655 </i>
    <i name="e_0_energy">    -53.29716669 </i>
   </energy>
  </scstep>
  <scstep>
   <time name="dav">   25.81   25.89</time>
   <time name="total">   28.40   28.69</time>
   <energy>
    <i name="e_fr_energy">    -53.29713888 </i>
    <i name="e_wo_entrp">    -53.29713863 </i>
    <i name="e_0_energy">    -53.29713875 </i>
   </energy>
  </scstep>
  <scstep>
   <time name="dav">   23.76   23.83</time>
   <time name="total">   26.35   26.43</time>
   <energy>
    <i name="e_fr_energy">    -53.29712685 </i>
    <i name="e_wo_entrp">    -53.29712660 </i>
    <i name="e_0_energy">    -53.29712673 </i>
   </energy>
  </scstep>
  <scstep>
   <time name="dav">   25.72   25.80</time>
   <time name="total">   28.32   28.42</time>
   <energy>
    <i name="e_fr_energy">    -53.29711860 </i>
    <i name="e_wo_entrp">    -53.29711834 </i>
    <i name="e_0_energy">    -53.29711847 </i>
   </energy>
  </scstep>
  <scstep>
   <time name="dav">   20.74   20.81</time>
   <time name="total">   21.72   21.79</time>
   <energy>
    <i name="alphaZ">    287.59457442 </i>
    <i name="ewald">  -7394.16040932 </i>
    <i name="hartreedc">  -4530.08985374 </i>
    <i name="XCdc">    381.53100456 </i>
    <i name="pawpsdc">  16262.06564477 </i>
    <i name="pawaedc"> -16553.23314694 </i>
    <i name="eentropy">     -0.00000025 </i>
    <i name="bandstr">   -526.54297664 </i>
    <i name="atom">  12019.53804467 </i>
    <i name="e_fr_energy">    -53.29711847 </i>
    <i name="e_wo_entrp">    -53.29711821 </i>
    <i name="e_0_energy">    -53.29711834 </i>
   </energy>
  </scstep>
  <structure>
   <crystal>
    <varray name="basis" >
     <v>       3.89083063       0.00000000      -0.00000000 </v>
     <v>      -1.94541531       3.36955817       0.00000000 </v>
     <v>      -0.00000000      -0.00000000      24.58206797 </v>
    </varray>
    <i name="volume">    322.28025517 </i>
    <varray name="rec_basis" >
     <v>       0.25701453       0.14838741       0.00000000 </v>
     <v>      -0.00000000       0.29677481       0.00000000 </v>
     <v>       0.00000000      -0.00000000       0.04068006 </v>
    </varray>
   </crystal>
   <varray name="positions" >
    <v>      -0.00000000       0.00000000       0.26948942 </v>
    <v>       0.00000000      -0.00000000       0.73051058 </v>
    <v>       0.33333334       0.66666669       0.10660450 </v>
    <v>       0.66666663       0.33333331       0.89339550 </v>
    <v>       0.33333334       0.66666669       0.20404086 </v>
    <v>       0.66666663       0.33333331       0.79595917 </v>
    <v>       0.33333334       0.66666669       0.93997355 </v>
    <v>       0.66666663       0.33333331       0.06002645 </v>
    <v>       0.33333334       0.66666669       0.68147069 </v>
    <v>       0.66666663       0.33333331       0.31852931 </v>
    <v>       0.33333334       0.66666669       0.43715991 </v>
    <v>       0.66666663       0.33333331       0.56284009 </v>
    <v>       0.33333334       0.66666669       0.54185001 </v>
    <v>       0.66666663       0.33333331       0.45814999 </v>
   </varray>
  </structure>
  <varray name="forces" >
   <v>      -0.00000000      -0.00000000       0.02069931 </v>
   <v>       0.00000000       0.00000000      -0.02069931 </v>
   <v>      -0.00000000      -0.00000000       0.00969210 </v>
   <v>       0.00000000       0.00000000      -0.00969210 </v>
   <v>       0.00000000       0.00000000      -0.01842359 </v>
   <v>      -0.00000000      -0.00000000       0.01842359 </v>
   <v>      -0.00000000      -0.00000000       0.00914267 </v>
   <v>       0.00000000       0.00000000      -0.00914267 </v>
   <v>       0.00000000       0.00000000      -0.00242431 </v>
   <v>      -0.00000000      -0.00000000       0.00242431 </v>
   <v>       0.00000000       0.00000000      -0.01723927 </v>
   <v>      -0.00000000      -0.00000000       0.01723927 </v>
   <v>       0.00000000       0.00000000      -0.00805719 </v>
   <v>      -0.00000000      -0.00000000       0.00805719 </v>
  </varray>
  <varray name="stress" >
   <v>      -0.18339746       0.00000000      -0.00000000 </v>
   <v>       0.00000000      -0.18339746       0.00000000 </v>
   <v>      -0.00000000       0.00000000      -0.39219182 </v>
  </varray>
  <energy>
   <i name="e_fr_energy">    -57.44876521 </i>
   <i name="e_wo_entrp">    -57.44876508 </i>
   <i name="e_0_energy">     -0.00000025 </i>
  </energy>
  <time name="totalsc">  202.71  205.70</time>
 </calculation>
 <calculation>
  <scstep>
   <time name="dav">   21.70   21.77</time>
   <time name="total">   24.30   25.20</time>
   <energy>
    <i name="alphaZ">    287.59225646 </i>
    <i name="ewald">  -7394.66282038 </i>
    <i name="hartreedc">  -4529.54426152 </i>
    <i name="XCdc">    381.52767930 </i>
    <i name="pawpsdc">  16262.09983362 </i>
    <i name="pawaedc"> -16553.26755790 </i>
    <i name="eentropy">     -0.00000026 </i>
    <i name="bandstr">   -526.58033773 </i>
    <i name="atom">  12019.53804467 </i>
    <i name="e_fr_energy">    -53.29716373 </i>
    <i name="e_wo_entrp">    -53.29716347 </i>
    <i name="e_0_energy">    -53.29716360 </i>
   </energy>
  </scstep>
  <scstep>
   <time name="dav">   26.61   26.68</time>
   <time name="total">   29.20   29.29</time>
   <energy>
    <i name="e_fr_energy">    -53.29718292 </i>
    <i name="e_wo_entrp">    -53.29718266 </i>
    <i name="e_0_energy">    -53.29718279 </i>
   </energy>
  </scstep>
  <scstep>
   <time name="dav">   21.21   21.27</time>
   <time name="total">   23.81   23.88</time>
   <energy>
    <i name="e_fr_energy">    -53.29718175 </i>
    <i name="e_wo_entrp">    -53.29718149 </i>
    <i name="e_0_energy">    -53.29718162 </i>
   </energy>
  </scstep>
  <scstep>
   <time name="dav">   14.81   14.86</time>
   <time name="total">   15.80   16.07</time>
   <energy>
    <i name="alphaZ">    287.59225646 </i>
    <i name="ewald">  -7394.66282038 </i>
    <i name="hartreedc">  -4529.57155925 </i>
    <i name="XCdc">    381.52853590 </i>
    <i name="pawpsdc">  16260.81030910 </i>
    <i name="pawaedc"> -16551.97571180 </i>
    <i name="eentropy">     -0.00000025 </i>
    <i name="bandstr">   -526.55623562 </i>
    <i name="atom">  12019.53804467 </i>
    <i name="e_fr_energy">    -53.29718117 </i>
    <i name="e_wo_entrp">    -53.29718092 </i>
    <i name="e_0_energy">    -53.29718105 </i>
   </energy>
  </scstep>
  <structure>
   <crystal>
    <varray name="basis" >
     <v>       3.89070279       0.00000000      -0.00000000 </v>
     <v>      -1.94535140       3.36944746       0.00000000 </v>
     <v>      -0.00000000      -0.00000000      24.58388151 </v>
    </varray>
    <i name="volume">    322.28285272 </i>
    <varray name="rec_basis" >
     <v>       0.25702297       0.14839228       0.00000000 </v>
     <v>      -0.00000000       0.29678457       0.00000000 </v>
     <v>       0.00000000      -0.00000000       0.04067706 </v>
    </varray>
   </crystal>
   <varray name="positions" >
    <v>      -0.00000000       0.00000000       0.26949119 </v>
    <v>       0.00000000      -0.00000000       0.73050881 </v>
    <v>       0.33333334       0.66666669       0.10657649 </v>
    <v>       0.66666663       0.33333331       0.89342351 </v>
    <v>       0.33333334       0.66666669       0.20403323 </v>
    <v>       0.66666663       0.33333331       0.79596680 </v>
    <v>       0.33333334       0.66666669       0.93999757 </v>
    <v>       0.66666663       0.33333331       0.06000243 </v>
    <v>       0.33333334       0.66666669       0.68147417 </v>
    <v>       0.66666663       0.33333331       0.31852583 </v>
    <v>       0.33333334       0.66666669       0.43715084 </v>
    <v>       0.66666663       0.33333331       0.56284916 </v>
    <v>       0.33333334       0.66666669       0.54184125 </v>
    <v>       0.66666663       0.33333331       0.45815875 </v>
   </varray>
  </structure>
  <varray name="forces" >
   <v>      -0.00000000      -0.00000000       0.01791410 </v>
   <v>       0.00000000       0.00000000      -0.01791410 </v>
   <v>      -0.00000000      -0.00000000       0.01840688 </v>
   <v>       0.00000000       0.00000000      -0.01840688 </v>
   <v>       0.00000000       0.00000000      -0.02363660 </v>
   <v>      -0.00000000      -0.00000000       0.02363660 </v>
   <v>      -0.00000000      -0.00000000       0.00954166 </v>
   <v>       0.00000000       0.00000000      -0.00954166 </v>
   <v>       0.00000000       0.00000000      -0.00263221 </v>
   <v>      -0.00000000      -0.00000000       0.00263221 </v>
   <v>       0.00000000       0.00000000      -0.01609811 </v>
   <v>      -0.00000000      -0.00000000       0.01609811 </v>
   <v>       0.00000000       0.00000000      -0.00797640 </v>
   <v>      -0.00000000      -0.00000000       0.00797640 </v>
  </varray>
  <varray name="stress" >
   <v>      -0.22980426      -0.00000000      -0.00000000 </v>
   <v>       0.00000000      -0.22980426       0.00000000 </v>
   <v>      -0.00000000      -0.00000000      -0.47926426 </v>
  </varray>
  <energy>
   <i name="e_fr_energy">    -57.44877210 </i>
   <i name="e_wo_entrp">    -57.44877197 </i>
   <i name="e_0_energy">     -0.00000025 </i>
  </energy>
  <time name="totalsc">  137.22  138.85</time>
 </calculation>
 <calculation>
  <scstep>
   <time name="dav">   23.94   24.01</time>
   <time name="total">   26.53   26.62</time>
   <energy>
    <i name="alphaZ">    287.79467441 </i>
    <i name="ewald">  -7397.83534567 </i>
    <i name="hartreedc">  -4529.24904858 </i>
    <i name="XCdc">    381.62817704 </i>
    <i name="pawpsdc">  16260.79016971 </i>
    <i name="pawaedc"> -16551.95235002 </i>
    <i name="eentropy">     -0.00000025 </i>
    <i name="bandstr">   -524.00872560 </i>
    <i name="atom">  12019.53804467 </i>
    <i name="e_fr_energy">    -53.29440430 </i>
    <i name="e_wo_entrp">    -53.29440405 </i>
    <i name="e_0_energy">    -53.29440417 </i>
   </energy>
  </scstep>
  <scstep>
   <time name="dav">   25.92   26.00</time>
   <time name="total">   28.52   28.60</time>
   <energy>
    <i name="e_fr_energy">    -53.29413002 </i>
    <i name="e_wo_entrp">    -53.29412990 </i>
    <i name="e_0_energy">    -53.29412996 </i>
   </energy>
  </scstep>
  <scstep>
   <time name="dav">   25.79   25.87</time>
   <time name="total">   28.59   28.71</time>
   <energy>
    <i name="e_fr_energy">    -53.29410418 </i>
    <i name="e_wo_entrp">    -53.29410407 </i>
    <i name="e_0_energy">    -53.29410413 </i>
   </energy>
  </scstep>
  <scstep>
   <time name="dav">   26.67   26.75</time>
   <time name="total">   29.26   29.35</time>
   <energy>
    <i name="e_fr_energy">    -53.29409189 </i>
    <i name="e_wo_entrp">    -53.29409178 </i>
    <i name="e_0_energy">    -53.29409183 </i>
   </energy>
  </scstep>
  <scstep>
   <time name="dav">   25.75   25.83</time>
   <time name="total">   26.73   27.02</time>
   <energy>
    <i name="alphaZ">    287.79467441 </i>
    <i name="ewald">  -7397.83534567 </i>
    <i name="hartreedc">  -4527.32093840 </i>
    <i name="XCdc">    381.54387321 </i>
    <i name="pawpsdc">  16269.68783942 </i>
    <i name="pawaedc"> -16560.86286207 </i>
    <i name="eentropy">     -0.00000012 </i>
    <i name="bandstr">   -525.83937764 </i>
    <i name="atom">  12019.53804467 </i>
    <i name="e_fr_energy">    -53.29409219 </i>
    <i name="e_wo_entrp">    -53.29409207 </i>
    <i name="e_0_energy">    -53.29409213 </i>
   </energy>
  </scstep>
  <structure>
   <crystal>
    <varray name="basis" >
     <v>       3.88967244       0.00000000      -0.00000000 </v>
     <v>      -1.94483622       3.36855515       0.00000000 </v>
     <v>      -0.00000000      -0.00000000      24.57960746 </v>
    </varray>
    <i name="volume">    322.05617781 </i>
    <varray name="rec_basis" >
     <v>       0.25709106       0.14843159       0.00000000 </v>
     <v>      -0.00000000       0.29686318       0.00000000 </v>
     <v>       0.00000000      -0.00000000       0.04068413 </v>
    </varray>
   </crystal>
   <varray name="positions" >
    <v>      -0.00000000       0.00000000       0.26953504 </v>
    <v>       0.00000000      -0.00000000       0.73046496 </v>
    <v>       0.33333334       0.66666669       0.10654225 </v>
    <v>       0.66666663       0.33333331       0.89345775 </v>
    <v>       0.33333334       0.66666669       0.20396127 </v>
    <v>       0.66666663       0.33333331       0.79603876 </v>
    <v>       0.33333334       0.66666669       0.94008231 </v>
    <v>       0.66666663       0.33333331       0.05991769 </v>
    <v>       0.33333334       0.66666669       0.68147766 </v>
    <v>       0.66666663       0.33333331       0.31852234 </v>
    <v>       0.33333334       0.66666669       0.43709152 </v>
    <v>       0.66666663       0.33333331       0.56290848 </v>
    <v>       0.33333334       0.66666669       0.54180054 </v>
    <v>       0.66666663       0.33333331       0.45819946 </v>
   </varray>
  </structure>
  <varray name="forces" >
   <v>       0.00000000       0.00000000      -0.00181351 </v>
   <v>      -0.00000000      -0.00000000       0.00181351 </v>
   <v>      -0.00000000      -0.00000000       0.00379053 </v>
   <v>       0.00000000       0.00000000      -0.00379053 </v>
   <v>       0.00000000       0.00000000      -0.00346234 </v>
   <v>      -0.00000000      -0.00000000       0.00346234 </v>
   <v>      -0.00000000      -0.00000000       0.00438929 </v>
   <v>       0.00000000       0.00000000      -0.00438929 </v>
   <v>       0.00000000       0.00000000      -0.01223329 </v>
   <v>      -0.00000000      -0.00000000       0.01223329 </v>
   <v>       0.00000000       0.00000000      -0.01161213 </v>
   <v>      -0.00000000      -0.00000000       0.01161213 </v>
   <v>       0.00000000       0.00000000      -0.00668919 </v>
   <v>      -0.00000000      -0.00000000       0.00668919 </v>
  </varray>
  <varray name="stress" >
   <v>       0.15175987       0.00000000       0.00000000 </v>
   <v>      -0.00000000       0.15175987       0.00000000 </v>
   <v>       0.00000000       0.00000000      -0.25771407 </v>
  </varray>
  <energy>
   <i name="e_fr_energy">    -57.44891443 </i>
   <i name="e_wo_entrp">    -57.44891437 </i>
   <i name="e_0_energy">     -0.00000012 </i>
  </energy>
  <time name="totalsc">  183.61  184.45</time>
 </calculation>
 <calculation>
  <scstep>
   <time name="dav">   24.14   24.21</time>
   <time name="total">   26.74   27.03</time>
   <energy>
    <i name="alphaZ">    287.87823479 </i>
    <i name="ewald">  -7399.14323351 </i>
    <i name="hartreedc">  -4527.15205327 </i>
    <i name="XCdc">    381.58367076 </i>
    <i name="pawpsdc">  16268.73460432 </i>
    <i name="pawaedc"> -16559.91915605 </i>
    <i name="eentropy">     -0.00000012 </i>
    <i name="bandstr">   -524.81293725 </i>
    <i name="atom">  12019.53804467 </i>
    <i name="e_fr_energy">    -53.29282566 </i>
    <i name="e_wo_entrp">    -53.29282554 </i>
    <i name="e_0_energy">    -53.29282560 </i>
   </energy>
  </scstep>
  <scstep>
   <time name="dav">   26.01   26.09</time>
   <time name="total">   28.61   28.69</time>
   <energy>
    <i name="e_fr_energy">    -53.29277392 </i>
    <i name="e_wo_entrp">    -53.29277383 </i>
    <i name="e_0_energy">    -53.29277387 </i>
   </energy>
  </scstep>
  <scstep>
   <time name="dav">   25.98   26.05</time>
   <time name="total">   28.59   28.69</time>
   <energy>
    <i name="e_fr_energy">    -53.29276999 </i>
    <i name="e_wo_entrp">    -53.29276990 </i>
    <i name="e_0_energy">    -53.29276994 </i>
   </energy>
  </scstep>
  <scstep>
   <time name="dav">   23.26   23.33</time>
   <time name="total">   25.87   25.94</time>
   <energy>
    <i name="e_fr_energy">    -53.29276895 </i>
    <i name="e_wo_entrp">    -53.29276887 </i>
    <i name="e_0_energy">    -53.29276891 </i>
   </energy>
  </scstep>
  <scstep>
   <time name="dav">   15.82   15.87</time>
   <time name="total">   18.42   18.50</time>
   <energy>
    <i name="e_fr_energy">    -53.29277020 </i>
    <i name="e_wo_entrp">    -53.29277011 </i>
    <i name="e_0_energy">    -53.29277015 </i>
   </energy>
  </scstep>
  <scstep>
   <time name="dav">   14.66   14.70</time>
   <time name="total">   15.64   15.69</time>
   <energy>
    <i name="alphaZ">    287.87823479 </i>
    <i name="ewald">  -7399.14323351 </i>
    <i name="hartreedc">  -4526.31369753 </i>
    <i name="XCdc">    381.54756301 </i>
    <i name="pawpsdc">  16271.49083466 </i>
    <i name="pawaedc"> -16562.68991921 </i>
    <i name="eentropy">     -0.00000009 </i>
    <i name="bandstr">   -525.60059775 </i>
    <i name="atom">  12019.53804467 </i>
    <i name="e_fr_energy">    -53.29277094 </i>
    <i name="e_wo_entrp">    -53.29277085 </i>
    <i name="e_0_energy">    -53.29277090 </i>
   </energy>
  </scstep>
  <structure>
   <crystal>
    <varray name="basis" >
     <v>       3.88924738       0.00000000      -0.00000000 </v>
     <v>      -1.94462369       3.36818704       0.00000000 </v>
     <v>      -0.00000000      -0.00000000      24.57784427 </v>
    </varray>
    <i name="volume">    321.96269683 </i>
    <varray name="rec_basis" >
     <v>       0.25711915       0.14844781       0.00000000 </v>
     <v>      -0.00000000       0.29689563       0.00000000 </v>
     <v>       0.00000000      -0.00000000       0.04068705 </v>
    </varray>
   </crystal>
   <varray name="positions" >
    <v>      -0.00000000       0.00000000       0.26955314 </v>
    <v>       0.00000000      -0.00000000       0.73044686 </v>
    <v>       0.33333334       0.66666669       0.10652813 </v>
    <v>       0.66666663       0.33333331       0.89347187 </v>
    <v>       0.33333334       0.66666669       0.20393157 </v>
    <v>       0.66666663       0.33333331       0.79606845 </v>
    <v>       0.33333334       0.66666669       0.94011728 </v>
    <v>       0.66666663       0.33333331       0.05988272 </v>
    <v>       0.33333334       0.66666669       0.68147910 </v>
    <v>       0.66666663       0.33333331       0.31852090 </v>
    <v>       0.33333334       0.66666669       0.43706705 </v>
    <v>       0.66666663       0.33333331       0.56293295 </v>
    <v>       0.33333334       0.66666669       0.54178374 </v>
    <v>       0.66666663       0.33333331       0.45821626 </v>
   </varray>
  </structure>
  <varray name="forces" >
   <v>       0.00000000       0.00000000      -0.01032529 </v>
   <v>      -0.00000000      -0.00000000       0.01032529 </v>
   <v>       0.00000000       0.00000000      -0.00124213 </v>
   <v>      -0.00000000      -0.00000000       0.00124213 </v>
   <v>      -0.00000000      -0.00000000       0.00505519 </v>
   <v>       0.00000000       0.00000000      -0.00505519 </v>
   <v>      -0.00000000      -0.00000000       0.00347934 </v>
   <v>       0.00000000       0.00000000      -0.00347934 </v>
   <v>       0.00000000       0.00000000      -0.01633926 </v>
   <v>      -0.00000000      -0.00000000       0.01633926 </v>
   <v>       0.00000000       0.00000000      -0.01075311 </v>
   <v>      -0.00000000      -0.00000000       0.01075311 </v>
   <v>       0.00000000       0.00000000      -0.00615828 </v>
   <v>      -0.00000000      -0.00000000       0.00615828 </v>
  </varray>
  <varray name="stress" >
   <v>       0.24495638       0.00000000      -0.00000000 </v>
   <v>       0.00000000       0.24495638       0.00000000 </v>
   <v>      -0.00000000       0.00000000      -0.21345601 </v>
  </varray>
  <energy>
   <i name="e_fr_energy">    -57.44892735 </i>
   <i name="e_wo_entrp">    -57.44892731 </i>
   <i name="e_0_energy">     -0.00000009 </i>
  </energy>
  <time name="totalsc">  187.83  188.66</time>
 </calculation>
 <calculation>
  <scstep>
   <time name="dav">   20.52   20.58</time>
   <time name="total">   23.12   23.24</time>
   <energy>
    <i name="alphaZ">    287.89941061 </i>
    <i name="ewald">  -7401.08048038 </i>
    <i name="hartreedc">  -4524.82027975 </i>
    <i name="XCdc">    381.54911035 </i>
    <i name="pawpsdc">  16271.48314723 </i>
    <i name="pawaedc"> -16562.68174578 </i>
    <i name="eentropy">     -0.00000008 </i>
    <i name="bandstr">   -525.17966401 </i>
    <i name="atom">  12019.53804467 </i>
    <i name="e_fr_energy">    -53.29245713 </i>
    <i name="e_wo_entrp">    -53.29245705 </i>
    <i name="e_0_energy">    -53.29245709 </i>
   </energy>
  </scstep>
  <scstep>
   <time name="dav">   25.26   25.33</time>
   <time name="total">   27.84   27.93</time>
   <energy>
    <i name="e_fr_energy">    -53.29250468 </i>
    <i name="e_wo_entrp">    -53.29250460 </i>
    <i name="e_0_energy">    -53.29250464 </i>
   </energy>
  </scstep>
  <scstep>
   <time name="dav">   24.57   24.65</time>
   <time name="total">   27.16   27.25</time>
   <energy>
    <i name="e_fr_energy">    -53.29248921 </i>
    <i name="e_wo_entrp">    -53.29248913 </i>
    <i name="e_0_energy">    -53.29248917 </i>
   </energy>
  </scstep>
  <scstep>
   <time name="dav">   22.41   22.48</time>
   <time name="total">   25.01   25.08</time>
   <energy>
    <i name="e_fr_energy">    -53.29248031 </i>
    <i name="e_wo_entrp">    -53.29248023 </i>
    <i name="e_0_energy">    -53.29248027 </i>
   </energy>
  </scstep>
  <scstep>
   <time name="dav">   21.35   21.41</time>
   <time name="total">   22.33   22.42</time>
   <energy>
    <i name="alphaZ">    287.89941061 </i>
    <i name="ewald">  -7401.08048038 </i>
    <i name="hartreedc">  -4524.53919095 </i>
    <i name="XCdc">    381.54053611 </i>
    <i name="pawpsdc">  16267.79609312 </i>
    <i name="pawaedc"> -16558.98032047 </i>
    <i name="eentropy">     -0.00000008 </i>
    <i name="bandstr">   -525.46657287 </i>
    <i name="atom">  12019.53804467 </i>
    <i name="e_fr_energy">    -53.29248024 </i>
    <i name="e_wo_entrp">    -53.29248016 </i>
    <i name="e_0_energy">    -53.29248020 </i>
   </energy>
  </scstep>
  <structure>
   <crystal>
    <varray name="basis" >
     <v>       3.88959737       0.00000000      -0.00000000 </v>
     <v>      -1.94479868       3.36849013       0.00000000 </v>
     <v>      -0.00000000      -0.00000000      24.57161405 </v>
    </varray>
    <i name="volume">    321.93901555 </i>
    <varray name="rec_basis" >
     <v>       0.25709602       0.14843446       0.00000000 </v>
     <v>      -0.00000000       0.29686891       0.00000000 </v>
     <v>       0.00000000      -0.00000000       0.04069737 </v>
    </varray>
   </crystal>
   <varray name="positions" >
    <v>      -0.00000000       0.00000000       0.26954768 </v>
    <v>       0.00000000      -0.00000000       0.73045232 </v>
    <v>       0.33333334       0.66666669       0.10651037 </v>
    <v>       0.66666663       0.33333331       0.89348963 </v>
    <v>       0.33333334       0.66666669       0.20391240 </v>
    <v>       0.66666663       0.33333331       0.79608763 </v>
    <v>       0.33333334       0.66666669       0.94016219 </v>
    <v>       0.66666663       0.33333331       0.05983781 </v>
    <v>       0.33333334       0.66666669       0.68144194 </v>
    <v>       0.66666663       0.33333331       0.31855806 </v>
    <v>       0.33333334       0.66666669       0.43701593 </v>
    <v>       0.66666663       0.33333331       0.56298407 </v>
    <v>       0.33333334       0.66666669       0.54175154 </v>
    <v>       0.66666663       0.33333331       0.45824846 </v>
   </varray>
  </structure>
  <varray name="forces" >
   <v>       0.00000000       0.00000000      -0.00439237 </v>
   <v>      -0.00000000      -0.00000000       0.00439237 </v>
   <v>       0.00000000       0.00000000      -0.01206101 </v>
   <v>      -0.00000000      -0.00000000       0.01206101 </v>
   <v>      -0.00000000      -0.00000000       0.01293883 </v>
   <v>       0.00000000       0.00000000      -0.01293883 </v>
   <v>       0.00000000       0.00000000      -0.00160069 </v>
   <v>      -0.00000000      -0.00000000       0.00160069 </v>
   <v>       0.00000000       0.00000000      -0.00900211 </v>
   <v>      -0.00000000      -0.00000000       0.00900211 </v>
   <v>       0.00000000       0.00000000      -0.00417327 </v>
   <v>      -0.00000000      -0.00000000       0.00417327 </v>
   <v>       0.00000000       0.00000000      -0.00382272 </v>
   <v>      -0.00000000      -0.00000000       0.00382272 </v>
  </varray>
  <varray name="stress" >
   <v>      -0.05790507      -0.00000000      -0.00000000 </v>
   <v>      -0.00000000      -0.05790507      -0.00000000 </v>
   <v>      -0.00000000       0.00000000      -0.25336501 </v>
  </varray>
  <energy>
   <i name="e_fr_energy">    -57.44898712 </i>
   <i name="e_wo_entrp">    -57.44898708 </i>
   <i name="e_0_energy">     -0.00000008 </i>
  </energy>
  <time name="totalsc">  169.42  170.04</time>
 </calculation>
 <calculation>
  <scstep>
   <time name="dav">   20.52   20.58</time>
   <time name="total">   23.12   23.21</time>
   <energy>
    <i name="alphaZ">    287.91521192 </i>
    <i name="ewald">  -7402.52289101 </i>
    <i name="hartreedc">  -4523.42450375 </i>
    <i name="XCdc">    381.54160360 </i>
    <i name="pawpsdc">  16267.55856304 </i>
    <i name="pawaedc"> -16558.74166782 </i>
    <i name="eentropy">     -0.00000008 </i>
    <i name="bandstr">   -525.15657121 </i>
    <i name="atom">  12019.53804467 </i>
    <i name="e_fr_energy">    -53.29221064 </i>
    <i name="e_wo_entrp">    -53.29221056 </i>
    <i name="e_0_energy">    -53.29221060 </i>
   </energy>
  </scstep>
  <scstep>
   <time name="dav">   25.32   25.39</time>
   <time name="total">   27.92   28.00</time>
   <energy>
    <i name="e_fr_energy">    -53.29223652 </i>
    <i name="e_wo_entrp">    -53.29223644 </i>
    <i name="e_0_energy">    -53.29223648 </i>
   </energy>
  </scstep>
  <scstep>
   <time name="dav">   24.64   24.71</time>
   <time name="total">   27.25   27.34</time>
   <energy>
    <i name="e_fr_energy">    -53.29222759 </i>
    <i name="e_wo_entrp">    -53.29222752 </i>
    <i name="e_0_energy">    -53.29222756 </i>
   </energy>
  </scstep>
  <scstep>
   <time name="dav">   22.09   22.15</time>
   <time name="total">   24.70   24.78</time>
   <energy>
    <i name="e_fr_energy">    -53.29222288 </i>
    <i name="e_wo_entrp">    -53.29222280 </i>
    <i name="e_0_energy">    -53.29222284 </i>
   </energy>
  </scstep>
  <scstep>
   <time name="dav">   19.44   19.50</time>
   <time name="total">   20.43   20.49</time>
   <energy>
    <i name="alphaZ">    287.91521192 </i>
    <i name="ewald">  -7402.52289101 </i>
    <i name="hartreedc">  -4523.21707945 </i>
    <i name="XCdc">    381.53527590 </i>
    <i name="pawpsdc">  16264.47802926 </i>
    <i name="pawaedc"> -16555.65086247 </i>
    <i name="eentropy">     -0.00000008 </i>
    <i name="bandstr">   -525.36795161 </i>
    <i name="atom">  12019.53804467 </i>
    <i name="e_fr_energy">    -53.29222287 </i>
    <i name="e_wo_entrp">    -53.29222280 </i>
    <i name="e_0_energy">    -53.29222283 </i>
   </energy>
  </scstep>
  <structure>
   <crystal>
    <varray name="basis" >
     <v>       3.88985825       0.00000000      -0.00000000 </v>
     <v>      -1.94492913       3.36871607       0.00000000 </v>
     <v>      -0.00000000      -0.00000000      24.56696982 </v>
    </varray>
    <i name="volume">    321.92134697 </i>
    <varray name="rec_basis" >
     <v>       0.25707878       0.14842450       0.00000000 </v>
     <v>      -0.00000000       0.29684900       0.00000000 </v>
     <v>       0.00000000      -0.00000000       0.04070506 </v>
    </varray>
   </crystal>
   <varray name="positions" >
    <v>      -0.00000000       0.00000000       0.26954360 </v>
    <v>       0.00000000      -0.00000000       0.73045640 </v>
    <v>       0.33333334       0.66666669       0.10649713 </v>
    <v>       0.66666663       0.33333331       0.89350287 </v>
    <v>       0.33333334       0.66666669       0.20389810 </v>
    <v>       0.66666663       0.33333331       0.79610193 </v>
    <v>       0.33333334       0.66666669       0.94019567 </v>
    <v>       0.66666663       0.33333331       0.05980433 </v>
    <v>       0.33333334       0.66666669       0.68141422 </v>
    <v>       0.66666663       0.33333331       0.31858578 </v>
    <v>       0.33333334       0.66666669       0.43697780 </v>
    <v>       0.66666663       0.33333331       0.56302220 </v>
    <v>       0.33333334       0.66666669       0.54172754 </v>
    <v>       0.66666663       0.33333331       0.45827246 </v>
   </varray>
  </structure>
  <varray name="forces" >
   <v>       0.00000000       0.00000000      -0.00019908 </v>
   <v>      -0.00000000      -0.00000000       0.00019908 </v>
   <v>       0.00000000       0.00000000      -0.01981914 </v>
   <v>      -0.00000000      -0.00000000       0.01981914 </v>
   <v>      -0.00000000      -0.00000000       0.01888131 </v>
   <v>       0.00000000       0.00000000      -0.01888131 </v>
   <v>       0.00000000       0.00000000      -0.00530557 </v>
   <v>      -0.00000000      -0.00000000       0.00530557 </v>
   <v>       0.00000000       0.00000000      -0.00306719 </v>
   <v>      -0.00000000      -0.00000000       0.00306719 </v>
   <v>      -0.00000000      -0.00000000       0.00082817 </v>
   <v>       0.00000000       0.00000000      -0.00082817 </v>
   <v>       0.00000000       0.00000000      -0.00214847 </v>
   <v>      -0.00000000      -0.00000000       0.00214847 </v>
  </varray>
  <varray name="stress" >
   <v>      -0.25115150      -0.00000000       0.00000000 </v>
   <v>      -0.00000000      -0.25115150       0.00000000 </v>
   <v>       0.00000000       0.00000000      -0.19946984 </v>
  </varray>
  <energy>
   <i name="e_fr_energy">    -57.44899260 </i>
   <i name="e_wo_entrp">    -57.44899257 </i>
   <i name="e_0_energy">     -0.00000008 </i>
  </energy>
  <time name="totalsc">  167.60  168.61</time>
 </calculation>
 <calculation>
  <scstep>
   <time name="dav">   23.96   24.03</time>
   <time name="total">   26.56   26.64</time>
   <energy>
    <i name="alphaZ">    288.02087273 </i>
    <i name="ewald">  -7404.59342914 </i>
    <i name="hartreedc">  -4522.69983049 </i>
    <i name="XCdc">    381.58525197 </i>
    <i name="pawpsdc">  16264.29336514 </i>
    <i name="pawaedc"> -16555.46524233 </i>
    <i name="eentropy">     -0.00000008 </i>
    <i name="bandstr">   -523.96975807 </i>
    <i name="atom">  12019.53804467 </i>
    <i name="e_fr_energy">    -53.29072559 </i>
    <i name="e_wo_entrp">    -53.29072551 </i>
    <i name="e_0_energy">    -53.29072555 </i>
   </energy>
  </scstep>
  <scstep>
   <time name="dav">   26.59   26.67</time>
   <time name="total">   29.18   29.27</time>
   <energy>
    <i name="e_fr_energy">    -53.29063714 </i>
    <i name="e_wo_entrp">    -53.29063706 </i>
    <i name="e_0_energy">    -53.29063710 </i>
   </energy>
  </scstep>
  <scstep>
   <time name="dav">   26.25   26.33</time>
   <time name="total">   28.85   28.94</time>
   <energy>
    <i name="e_fr_energy">    -53.29062049 </i>
    <i name="e_wo_entrp">    -53.29062040 </i>
    <i name="e_0_energy">    -53.29062044 </i>
   </energy>
  </scstep>
  <scstep>
   <time name="dav">   26.02   26.10</time>
   <time name="total">   28.61   28.70</time>
   <energy>
    <i name="e_fr_energy">    -53.29061700 </i>
    <i name="e_wo_entrp">    -53.29061690 </i>
    <i name="e_0_energy">    -53.29061695 </i>
   </energy>
  </scstep>
  <scstep>
   <time name="dav">   17.46   17.51</time>
   <time name="total">   20.03   20.10</time>
   <energy>
    <i name="e_fr_energy">    -53.29061839 </i>
    <i name="e_wo_entrp">    -53.29061830 </i>
    <i name="e_0_energy">    -53.29061834 </i>
   </energy>
  </scstep>
  <scstep>
   <time name="dav">   14.55   14.59</time>
   <time name="total">   15.52   15.57</time>
   <energy>
    <i name="alphaZ">    288.02087273 </i>
    <i name="ewald">  -7404.59342914 </i>
    <i name="hartreedc">  -4521.69144889 </i>
    <i name="XCdc">    381.54079767 </i>
    <i name="pawpsdc">  16266.20853917 </i>
    <i name="pawaedc"> -16557.38520372 </i>
    <i name="eentropy">     -0.00000009 </i>
    <i name="bandstr">   -524.92879122 </i>
    <i name="atom">  12019.53804467 </i>
    <i name="e_fr_energy">    -53.29061882 </i>
    <i name="e_wo_entrp">    -53.29061872 </i>
    <i name="e_0_energy">    -53.29061877 </i>
   </energy>
  </scstep>
  <structure>
   <crystal>
    <varray name="basis" >
     <v>       3.88964907       0.00000000      -0.00000000 </v>
     <v>      -1.94482453       3.36853491       0.00000000 </v>
     <v>      -0.00000000      -0.00000000      24.56059892 </v>
    </varray>
    <i name="volume">    321.80324972 </i>
    <varray name="rec_basis" >
     <v>       0.25709260       0.14843248       0.00000000 </v>
     <v>      -0.00000000       0.29686497       0.00000000 </v>
     <v>       0.00000000      -0.00000000       0.04071562 </v>
    </varray>
   </crystal>
   <varray name="positions" >
    <v>      -0.00000000       0.00000000       0.26953970 </v>
    <v>       0.00000000      -0.00000000       0.73046030 </v>
    <v>       0.33333334       0.66666669       0.10645982 </v>
    <v>       0.66666663       0.33333331       0.89354018 </v>
    <v>       0.33333334       0.66666669       0.20390956 </v>
    <v>       0.66666663       0.33333331       0.79609047 </v>
    <v>       0.33333334       0.66666669       0.94021881 </v>
    <v>       0.66666663       0.33333331       0.05978119 </v>
    <v>       0.33333334       0.66666669       0.68138550 </v>
    <v>       0.66666663       0.33333331       0.31861450 </v>
    <v>       0.33333334       0.66666669       0.43694477 </v>
    <v>       0.66666663       0.33333331       0.56305523 </v>
    <v>       0.33333334       0.66666669       0.54170330 </v>
    <v>       0.66666663       0.33333331       0.45829670 </v>
   </varray>
  </structure>
  <varray name="forces" >
   <v>      -0.00000000      -0.00000000       0.00521761 </v>
   <v>       0.00000000       0.00000000      -0.00521761 </v>
   <v>       0.00000000       0.00000000      -0.00961481 </v>
   <v>      -0.00000000      -0.00000000       0.00961481 </v>
   <v>      -0.00000000      -0.00000000       0.00984875 </v>
   <v>       0.00000000       0.00000000      -0.00984875 </v>
   <v>       0.00000000       0.00000000      -0.00137874 </v>
   <v>      -0.00000000      -0.00000000       0.00137874 </v>
   <v>       0.00000000       0.00000000      -0.00019013 </v>
   <v>      -0.00000000      -0.00000000       0.00019013 </v>
   <v>      -0.00000000      -0.00000000       0.00341832 </v>
   <v>       0.00000000       0.00000000      -0.00341832 </v>
   <v>       0.00000000       0.00000000      -0.00053468 </v>
   <v>      -0.00000000      -0.00000000       0.00053468 </v>
  </varray>
  <varray name="stress" >
   <v>      -0.16323789       0.00000000       0.00000000 </v>
   <v>       0.00000000      -0.16323789       0.00000000 </v>
   <v>       0.00000000      -0.00000000      -0.18738031 </v>
  </varray>
  <energy>
   <i name="e_fr_energy">    -57.44903271 </i>
   <i name="e_wo_entrp">    -57.44903266 </i>
   <i name="e_0_energy">     -0.00000009 </i>
  </energy>
  <time name="totalsc">  190.10  190.94</time>
  <eigenvalues>
   <array>
    <dimension dim="1">band</dimension>
    <dimension dim="2">kpoint</dimension>
    <dimension dim="3">spin</dimension>
    <field>eigene</field>
    <field>occ</field>
    <set>
     <set comment="spin 1">
      <set comment="kpoint 1">
       <r>  -11.2020    1.0000 </r>
       <r>  -11.2015    1.0000 </r>
       <r>  -11.0086    1.0000 </r>
       <r>  -11.0086    1.0000 </r>
       <r>  -11.0082    1.0000 </r>
       <r>  -11.0082    1.0000 </r>
       <r>  -10.8460    1.0000 </r>
       <r>  -10.8460    1.0000 </r>
       <r>  -10.8457    1.0000 </r>
       <r>  -10.8457    1.0000 </r>
       <r>   -9.9942    1.0000 </r>
       <r>   -9.9607    1.0000 </r>
       <r>   -9.9561    1.0000 </r>
       <r>   -9.9561    1.0000 </r>
       <r>   -9.9561    1.0000 </r>
       <r>   -9.9561    1.0000 </r>
       <r>   -9.9483    1.0000 </r>
       <r>   -9.8137    1.0000 </r>
       <r>   -9.8137    1.0000 </r>
       <r>   -9.8137    1.0000 </r>
       <r>   -9.8137    1.0000 </r>
       <r>   -9.7296    1.0000 </r>
       <r>   -8.8823    1.0000 </r>
       <r>   -8.8224    1.0000 </r>
       <r>   -8.6373    1.0000 </r>
       <r>   -8.0247    1.0000 </r>
       <r>   -7.7858    1.0000 </r>
       <r>   -7.7064    1.0000 </r>
       <r>   -2.2169    1.0000 </r>
       <r>   -2.2169    1.0000 </r>
       <r>   -2.1217    1.0000 </r>
       <r>   -2.1217    1.0000 </r>
       <r>   -2.0957    1.0000 </r>
       <r>   -1.8870    1.0000 </r>
       <r>   -1.7209    1.0000 </r>
       <r>   -1.7209    1.0000 </r>
       <r>   -1.6623    1.0000 </r>
       <r>   -1.5638    1.0000 </r>
       <r>   -1.4558    1.0000 </r>
       <r>   -1.4558    1.0000 </r>
       <r>   -0.0960    1.0000 </r>
       <r>    0.4757    1.0000 </r>
       <r>    0.6811    1.0000 </r>
       <r>    1.7394    1.0000 </r>
       <r>    1.7394    1.0000 </r>
       <r>    1.9148    1.0000 </r>
       <r>    1.9148    1.0000 </r>
       <r>    2.4432    1.0000 </r>
       <r>    2.5879    1.0000 </r>
       <r>    2.9923    1.0000 </r>
       <r>    2.9923    1.0000 </r>
       <r>    2.9976    1.0000 </r>
       <r>    2.9976    1.0000 </r>
       <r>    3.3035    1.0000 </r>
       <r>    3.3035    1.0000 </r>
       <r>    3.3314    1.0000 </r>
       <r>    3.3314    1.0000 </r>
       <r>    3.5422    1.0000 </r>
       <r>    3.5422    1.0000 </r>
       <r>    3.9806    1.0000 </r>
       <r>    4.1249    1.0000 </r>
       <r>    4.1249    1.0000 </r>
       <r>    4.4649    0.0000 </r>
       <r>    5.2250    0.0000 </r>
       <r>    6.1597    0.0000 </r>
       <r>    6.2962    0.0000 </r>
       <r>    6.7460    0.0000 </r>
       <r>    7.4489    0.0000 </r>
       <r>    7.6993    0.0000 </r>
       <r>    7.7003    0.0000 </r>
       <r>    8.7228    0.0000 </r>
       <r>    8.7437    0.0000 </r>
       <r>    8.7437    0.0000 </r>
       <r>    8.9683    0.0000 </r>
       <r>    8.9683    0.0000 </r>
       <r>    9.1744    0.0000 </r>
       <r>    9.8801    0.0000 </r>
       <r>    9.8801    0.0000 </r>
       <r>    9.8982    0.0000 </r>
       <r>    9.8982    0.0000 </r>
      </set>
      <set comment="kpoint 2">
       <r>  -11.2056    1.0000 </r>
       <r>  -11.2055    1.0000 </r>
       <r>  -11.0329    1.0000 </r>
       <r>  -11.0290    1.0000 </r>
       <r>  -11.0024    1.0000 </r>
       <r>  -11.0019    1.0000 </r>
       <r>  -10.8542    1.0000 </r>
       <r>  -10.8532    1.0000 </r>
       <r>  -10.8459    1.0000 </r>
       <r>  -10.8457    1.0000 </r>
       <r>  -10.0052    1.0000 </r>
       <r>  -10.0046    1.0000 </r>
       <r>   -9.9511    1.0000 </r>
       <r>   -9.9511    1.0000 </r>
       <r>   -9.9395    1.0000 </r>
       <r>   -9.9314    1.0000 </r>
       <r>   -9.8811    1.0000 </r>
       <r>   -9.8192    1.0000 </r>
       <r>   -9.8170    1.0000 </r>
       <r>   -9.8124    1.0000 </r>
       <r>   -9.8124    1.0000 </r>
       <r>   -9.6455    1.0000 </r>
       <r>   -8.8348    1.0000 </r>
       <r>   -8.7750    1.0000 </r>
       <r>   -8.5924    1.0000 </r>
       <r>   -7.9851    1.0000 </r>
       <r>   -7.7216    1.0000 </r>
       <r>   -7.6526    1.0000 </r>
       <r>   -2.2230    1.0000 </r>
       <r>   -2.1999    1.0000 </r>
       <r>   -2.1190    1.0000 </r>
       <r>   -2.1041    1.0000 </r>
       <r>   -2.0526    1.0000 </r>
       <r>   -1.8795    1.0000 </r>
       <r>   -1.7474    1.0000 </r>
       <r>   -1.7257    1.0000 </r>
       <r>   -1.6176    1.0000 </r>
       <r>   -1.5720    1.0000 </r>
       <r>   -1.4752    1.0000 </r>
       <r>   -1.4553    1.0000 </r>
       <r>   -0.0531    1.0000 </r>
       <r>    0.4869    1.0000 </r>
       <r>    0.5410    1.0000 </r>
       <r>    1.4443    1.0000 </r>
       <r>    1.5257    1.0000 </r>
       <r>    1.6537    1.0000 </r>
       <r>    1.8426    1.0000 </r>
       <r>    2.2804    1.0000 </r>
       <r>    2.5310    1.0000 </r>
       <r>    2.6318    1.0000 </r>
       <r>    2.7735    1.0000 </r>
       <r>    2.8435    1.0000 </r>
       <r>    2.8458    1.0000 </r>
       <r>    3.0842    1.0000 </r>
       <r>    3.1216    1.0000 </r>
       <r>    3.1672    1.0000 </r>
       <r>    3.2982    1.0000 </r>
       <r>    3.3697    1.0000 </r>
       <r>    3.4712    1.0000 </r>
       <r>    3.7798    1.0000 </r>
       <r>    4.0459    1.0000 </r>
       <r>    4.1145    1.0000 </r>
       <r>    4.8235    0.0000 </r>
       <r>    5.4175    0.0000 </r>
       <r>    6.4759    0.0000 </r>
       <r>    6.5253    0.0000 </r>
       <r>    7.1386    0.0000 </r>
       <r>    7.7372    0.0000 </r>
       <r>    7.9566    0.0000 </r>
       <r>    7.9894    0.0000 </r>
       <r>    8.3339    0.0000 </r>
       <r>    8.4720    0.0000 </r>
       <r>    8.8628    0.0000 </r>
       <r>    8.9646    0.0000 </r>
       <r>    9.0766    0.0000 </r>
       <r>    9.1722    0.0000 </r>
       <r>    9.8869    0.0000 </r>
       <r>    9.9740    0.0000 </r>
       <r>   10.0459    0.0000 </r>
       <r>   10.0662    0.0000 </r>
      </set>
      <set comment="kpoint 3">
       <r>  -11.2292    1.0000 </r>
       <r>  -11.2255    1.0000 </r>
       <r>  -11.0766    1.0000 </r>
       <r>  -11.0681    1.0000 </r>
       <r>  -10.9860    1.0000 </r>
       <r>  -10.9855    1.0000 </r>
       <r>  -10.8686    1.0000 </r>
       <r>  -10.8668    1.0000 </r>
       <r>  -10.8450    1.0000 </r>
       <r>  -10.8448    1.0000 </r>
       <r>  -10.0870    1.0000 </r>
       <r>  -10.0866    1.0000 </r>
       <r>   -9.9387    1.0000 </r>
       <r>   -9.9387    1.0000 </r>
       <r>   -9.9005    1.0000 </r>
       <r>   -9.9001    1.0000 </r>
       <r>   -9.8283    1.0000 </r>
       <r>   -9.8279    1.0000 </r>
       <r>   -9.8070    1.0000 </r>
       <r>   -9.8070    1.0000 </r>
       <r>   -9.6434    1.0000 </r>
       <r>   -9.4226    1.0000 </r>
       <r>   -8.6947    1.0000 </r>
       <r>   -8.6360    1.0000 </r>
       <r>   -8.4642    1.0000 </r>
       <r>   -7.8837    1.0000 </r>
       <r>   -7.5520    1.0000 </r>
       <r>   -7.5047    1.0000 </r>
       <r>   -2.2328    1.0000 </r>
       <r>   -2.1518    1.0000 </r>
       <r>   -2.1069    1.0000 </r>
       <r>   -2.0545    1.0000 </r>
       <r>   -1.9458    1.0000 </r>
       <r>   -1.8832    1.0000 </r>
       <r>   -1.7708    1.0000 </r>
       <r>   -1.7385    1.0000 </r>
       <r>   -1.6148    1.0000 </r>
       <r>   -1.5500    1.0000 </r>
       <r>   -1.5004    1.0000 </r>
       <r>   -1.4548    1.0000 </r>
       <r>   -0.0333    1.0000 </r>
       <r>    0.1058    1.0000 </r>
       <r>    0.5218    1.0000 </r>
       <r>    0.6122    1.0000 </r>
       <r>    1.0752    1.0000 </r>
       <r>    1.4378    1.0000 </r>
       <r>    1.6513    1.0000 </r>
       <r>    1.6912    1.0000 </r>
       <r>    1.8882    1.0000 </r>
       <r>    2.0491    1.0000 </r>
       <r>    2.3099    1.0000 </r>
       <r>    2.5373    1.0000 </r>
       <r>    2.5468    1.0000 </r>
       <r>    2.6363    1.0000 </r>
       <r>    2.7012    1.0000 </r>
       <r>    2.8276    1.0000 </r>
       <r>    3.0563    1.0000 </r>
       <r>    3.3746    1.0000 </r>
       <r>    3.3808    1.0000 </r>
       <r>    3.4302    1.0000 </r>
       <r>    3.8420    1.0000 </r>
       <r>    4.1461    1.0000 </r>
       <r>    5.4088    0.0000 </r>
       <r>    5.7352    0.0000 </r>
       <r>    6.8149    0.0000 </r>
       <r>    6.8456    0.0000 </r>
       <r>    7.6395    0.0000 </r>
       <r>    7.7936    0.0000 </r>
       <r>    7.9123    0.0000 </r>
       <r>    8.2626    0.0000 </r>
       <r>    8.5563    0.0000 </r>
       <r>    8.6685    0.0000 </r>
       <r>    8.9965    0.0000 </r>
       <r>    9.1602    0.0000 </r>
       <r>    9.3050    0.0000 </r>
       <r>    9.3095    0.0000 </r>
       <r>    9.9480    0.0000 </r>
       <r>   10.1762    0.0000 </r>
       <r>   10.3725    0.0000 </r>
       <r>   10.4734    0.0000 </r>
      </set>
      <set comment="kpoint 4">
       <r>  -11.2836    1.0000 </r>
       <r>  -11.2744    1.0000 </r>
       <r>  -11.0944    1.0000 </r>
       <r>  -11.0877    1.0000 </r>
       <r>  -10.9655    1.0000 </r>
       <r>  -10.9649    1.0000 </r>
       <r>  -10.8812    1.0000 </r>
       <r>  -10.8796    1.0000 </r>
       <r>  -10.8416    1.0000 </r>
       <r>  -10.8413    1.0000 </r>
       <r>  -10.1829    1.0000 </r>
       <r>  -10.1828    1.0000 </r>
       <r>   -9.9260    1.0000 </r>
       <r>   -9.9259    1.0000 </r>
       <r>   -9.8752    1.0000 </r>
       <r>   -9.8752    1.0000 </r>
       <r>   -9.8297    1.0000 </r>
       <r>   -9.8297    1.0000 </r>
       <r>   -9.7953    1.0000 </r>
       <r>   -9.7952    1.0000 </r>
       <r>   -9.3104    1.0000 </r>
       <r>   -9.1111    1.0000 </r>
       <r>   -8.4776    1.0000 </r>
       <r>   -8.4234    1.0000 </r>
       <r>   -8.2734    1.0000 </r>
       <r>   -7.7556    1.0000 </r>
       <r>   -7.3305    1.0000 </r>
       <r>   -7.3040    1.0000 </r>
       <r>   -2.2255    1.0000 </r>
       <r>   -2.0819    1.0000 </r>
       <r>   -2.0752    1.0000 </r>
       <r>   -1.9831    1.0000 </r>
       <r>   -1.9258    1.0000 </r>
       <r>   -1.8771    1.0000 </r>
       <r>   -1.8580    1.0000 </r>
       <r>   -1.7552    1.0000 </r>
       <r>   -1.6830    1.0000 </r>
       <r>   -1.5197    1.0000 </r>
       <r>   -1.4779    1.0000 </r>
       <r>   -1.4553    1.0000 </r>
       <r>   -0.5208    1.0000 </r>
       <r>   -0.3859    1.0000 </r>
       <r>    0.0041    1.0000 </r>
       <r>    0.4973    1.0000 </r>
       <r>    0.7281    1.0000 </r>
       <r>    0.9728    1.0000 </r>
       <r>    1.0888    1.0000 </r>
       <r>    1.1740    1.0000 </r>
       <r>    1.3932    1.0000 </r>
       <r>    1.4060    1.0000 </r>
       <r>    1.9214    1.0000 </r>
       <r>    2.0422    1.0000 </r>
       <r>    2.2056    1.0000 </r>
       <r>    2.2240    1.0000 </r>
       <r>    2.2757    1.0000 </r>
       <r>    2.6901    1.0000 </r>
       <r>    2.7824    1.0000 </r>
       <r>    3.2613    1.0000 </r>
       <r>    3.3196    1.0000 </r>
       <r>    3.3893    1.0000 </r>
       <r>    3.6007    1.0000 </r>
       <r>    4.0256    1.0000 </r>
       <r>    5.7817    0.0000 </r>
       <r>    5.8202    0.0000 </r>
       <r>    6.5790    0.0000 </r>
       <r>    6.6966    0.0000 </r>
       <r>    7.2408    0.0000 </r>
       <r>    7.5799    0.0000 </r>
       <r>    8.0026    0.0000 </r>
       <r>    8.5916    0.0000 </r>
       <r>    8.8309    0.0000 </r>
       <r>    8.9137    0.0000 </r>
       <r>    9.4654    0.0000 </r>
       <r>    9.4796    0.0000 </r>
       <r>    9.5581    0.0000 </r>
       <r>    9.7584    0.0000 </r>
       <r>    9.9864    0.0000 </r>
       <r>   10.6802    0.0000 </r>
       <r>   10.7367    0.0000 </r>
       <r>   10.8366    0.0000 </r>
      </set>
      <set comment="kpoint 5">
       <r>  -11.3426    1.0000 </r>
       <r>  -11.3325    1.0000 </r>
       <r>  -11.0931    1.0000 </r>
       <r>  -11.0884    1.0000 </r>
       <r>  -10.9485    1.0000 </r>
       <r>  -10.9477    1.0000 </r>
       <r>  -10.8914    1.0000 </r>
       <r>  -10.8899    1.0000 </r>
       <r>  -10.8344    1.0000 </r>
       <r>  -10.8341    1.0000 </r>
       <r>  -10.2678    1.0000 </r>
       <r>  -10.2677    1.0000 </r>
       <r>   -9.9181    1.0000 </r>
       <r>   -9.9181    1.0000 </r>
       <r>   -9.8714    1.0000 </r>
       <r>   -9.8714    1.0000 </r>
       <r>   -9.8149    1.0000 </r>
       <r>   -9.8149    1.0000 </r>
       <r>   -9.7782    1.0000 </r>
       <r>   -9.7782    1.0000 </r>
       <r>   -8.9435    1.0000 </r>
       <r>   -8.7716    1.0000 </r>
       <r>   -8.2267    1.0000 </r>
       <r>   -8.1853    1.0000 </r>
       <r>   -8.0579    1.0000 </r>
       <r>   -7.6387    1.0000 </r>
       <r>   -7.1198    1.0000 </r>
       <r>   -7.1093    1.0000 </r>
       <r>   -2.2237    1.0000 </r>
       <r>   -2.1804    1.0000 </r>
       <r>   -2.0309    1.0000 </r>
       <r>   -2.0087    1.0000 </r>
       <r>   -2.0040    1.0000 </r>
       <r>   -1.9148    1.0000 </r>
       <r>   -1.9099    1.0000 </r>
       <r>   -1.7708    1.0000 </r>
       <r>   -1.7379    1.0000 </r>
       <r>   -1.5388    1.0000 </r>
       <r>   -1.4565    1.0000 </r>
       <r>   -1.4130    1.0000 </r>
       <r>   -1.0652    1.0000 </r>
       <r>   -1.0164    1.0000 </r>
       <r>   -0.1820    1.0000 </r>
       <r>    0.1532    1.0000 </r>
       <r>    0.2774    1.0000 </r>
       <r>    0.5010    1.0000 </r>
       <r>    0.7168    1.0000 </r>
       <r>    0.8510    1.0000 </r>
       <r>    0.9358    1.0000 </r>
       <r>    1.1774    1.0000 </r>
       <r>    1.6437    1.0000 </r>
       <r>    1.7873    1.0000 </r>
       <r>    1.9206    1.0000 </r>
       <r>    1.9476    1.0000 </r>
       <r>    1.9568    1.0000 </r>
       <r>    2.3473    1.0000 </r>
       <r>    2.8149    1.0000 </r>
       <r>    3.1839    1.0000 </r>
       <r>    3.2014    1.0000 </r>
       <r>    3.3335    1.0000 </r>
       <r>    3.4311    1.0000 </r>
       <r>    3.8058    1.0000 </r>
       <r>    5.6417    0.0000 </r>
       <r>    5.7935    0.0000 </r>
       <r>    6.2693    0.0000 </r>
       <r>    6.4198    0.0000 </r>
       <r>    6.9631    0.0000 </r>
       <r>    7.2660    0.0000 </r>
       <r>    7.8587    0.0000 </r>
       <r>    8.5662    0.0000 </r>
       <r>    8.8514    0.0000 </r>
       <r>    8.9511    0.0000 </r>
       <r>    9.4628    0.0000 </r>
       <r>    9.6105    0.0000 </r>
       <r>    9.6772    0.0000 </r>
       <r>    9.8668    0.0000 </r>
       <r>   10.2189    0.0000 </r>
       <r>   10.4741    0.0000 </r>
       <r>   10.6815    0.0000 </r>
       <r>   11.0536    0.0000 </r>
      </set>
      <set comment="kpoint 6">
       <r>  -11.3830    1.0000 </r>
       <r>  -11.3751    1.0000 </r>
       <r>  -11.0887    1.0000 </r>
       <r>  -11.0850    1.0000 </r>
       <r>  -10.9389    1.0000 </r>
       <r>  -10.9380    1.0000 </r>
       <r>  -10.8980    1.0000 </r>
       <r>  -10.8967    1.0000 </r>
       <r>  -10.8261    1.0000 </r>
       <r>  -10.8259    1.0000 </r>
       <r>  -10.3245    1.0000 </r>
       <r>  -10.3244    1.0000 </r>
       <r>   -9.9150    1.0000 </r>
       <r>   -9.9150    1.0000 </r>
       <r>   -9.8757    1.0000 </r>
       <r>   -9.8757    1.0000 </r>
       <r>   -9.7990    1.0000 </r>
       <r>   -9.7990    1.0000 </r>
       <r>   -9.7628    1.0000 </r>
       <r>   -9.7628    1.0000 </r>
       <r>   -8.6268    1.0000 </r>
       <r>   -8.4911    1.0000 </r>
       <r>   -8.0202    1.0000 </r>
       <r>   -7.9986    1.0000 </r>
       <r>   -7.8740    1.0000 </r>
       <r>   -7.5692    1.0000 </r>
       <r>   -6.9748    1.0000 </r>
       <r>   -6.9733    1.0000 </r>
       <r>   -2.5706    1.0000 </r>
       <r>   -2.3830    1.0000 </r>
       <r>   -2.1040    1.0000 </r>
       <r>   -1.9389    1.0000 </r>
       <r>   -1.9367    1.0000 </r>
       <r>   -1.9078    1.0000 </r>
       <r>   -1.8622    1.0000 </r>
       <r>   -1.7798    1.0000 </r>
       <r>   -1.7513    1.0000 </r>
       <r>   -1.5736    1.0000 </r>
       <r>   -1.4718    1.0000 </r>
       <r>   -1.4576    1.0000 </r>
       <r>   -1.4564    1.0000 </r>
       <r>   -1.3609    1.0000 </r>
       <r>   -0.4530    1.0000 </r>
       <r>   -0.0633    1.0000 </r>
       <r>    0.0782    1.0000 </r>
       <r>    0.1831    1.0000 </r>
       <r>    0.4201    1.0000 </r>
       <r>    0.6341    1.0000 </r>
       <r>    0.7737    1.0000 </r>
       <r>    1.0194    1.0000 </r>
       <r>    1.5268    1.0000 </r>
       <r>    1.6231    1.0000 </r>
       <r>    1.7302    1.0000 </r>
       <r>    1.7639    1.0000 </r>
       <r>    1.9454    1.0000 </r>
       <r>    2.1080    1.0000 </r>
       <r>    2.8643    1.0000 </r>
       <r>    3.0428    1.0000 </r>
       <r>    3.1330    1.0000 </r>
       <r>    3.2882    1.0000 </r>
       <r>    3.3525    1.0000 </r>
       <r>    3.5722    1.0000 </r>
       <r>    5.4637    0.0000 </r>
       <r>    5.6247    0.0000 </r>
       <r>    6.0658    0.0000 </r>
       <r>    6.2400    0.0000 </r>
       <r>    6.8105    0.0000 </r>
       <r>    7.0562    0.0000 </r>
       <r>    7.6911    0.0000 </r>
       <r>    8.4782    0.0000 </r>
       <r>    8.6735    0.0000 </r>
       <r>    8.8783    0.0000 </r>
       <r>    9.3789    0.0000 </r>
       <r>    9.3981    0.0000 </r>
       <r>    9.7475    0.0000 </r>
       <r>    9.8748    0.0000 </r>
       <r>   10.0645    0.0000 </r>
       <r>   10.2751    0.0000 </r>
       <r>   10.6261    0.0000 </r>
       <r>   11.0816    0.0000 </r>
      </set>
      <set comment="kpoint 7">
       <r>  -11.3968    1.0000 </r>
       <r>  -11.3907    1.0000 </r>
       <r>  -11.0868    1.0000 </r>
       <r>  -11.0834    1.0000 </r>
       <r>  -10.9360    1.0000 </r>
       <r>  -10.9350    1.0000 </r>
       <r>  -10.9003    1.0000 </r>
       <r>  -10.8990    1.0000 </r>
       <r>  -10.8223    1.0000 </r>
       <r>  -10.8221    1.0000 </r>
       <r>  -10.3442    1.0000 </r>
       <r>  -10.3442    1.0000 </r>
       <r>   -9.9143    1.0000 </r>
       <r>   -9.9143    1.0000 </r>
       <r>   -9.8778    1.0000 </r>
       <r>   -9.8778    1.0000 </r>
       <r>   -9.7930    1.0000 </r>
       <r>   -9.7930    1.0000 </r>
       <r>   -9.7566    1.0000 </r>
       <r>   -9.7566    1.0000 </r>
       <r>   -8.4903    1.0000 </r>
       <r>   -8.3798    1.0000 </r>
       <r>   -7.9418    1.0000 </r>
       <r>   -7.9304    1.0000 </r>
       <r>   -7.7945    1.0000 </r>
       <r>   -7.5533    1.0000 </r>
       <r>   -6.9252    1.0000 </r>
       <r>   -6.9248    1.0000 </r>
       <r>   -2.7091    1.0000 </r>
       <r>   -2.5564    1.0000 </r>
       <r>   -2.0684    1.0000 </r>
       <r>   -1.9518    1.0000 </r>
       <r>   -1.9064    1.0000 </r>
       <r>   -1.8514    1.0000 </r>
       <r>   -1.8216    1.0000 </r>
       <r>   -1.7809    1.0000 </r>
       <r>   -1.7424    1.0000 </r>
       <r>   -1.6254    1.0000 </r>
       <r>   -1.6216    1.0000 </r>
       <r>   -1.5796    1.0000 </r>
       <r>   -1.4557    1.0000 </r>
       <r>   -1.3957    1.0000 </r>
       <r>   -0.6424    1.0000 </r>
       <r>   -0.1260    1.0000 </r>
       <r>    0.0202    1.0000 </r>
       <r>    0.1557    1.0000 </r>
       <r>    0.2806    1.0000 </r>
       <r>    0.6402    1.0000 </r>
       <r>    0.7166    1.0000 </r>
       <r>    0.9634    1.0000 </r>
       <r>    1.4286    1.0000 </r>
       <r>    1.5095    1.0000 </r>
       <r>    1.6632    1.0000 </r>
       <r>    1.6998    1.0000 </r>
       <r>    2.0222    1.0000 </r>
       <r>    2.0758    1.0000 </r>
       <r>    2.8663    1.0000 </r>
       <r>    2.9871    1.0000 </r>
       <r>    3.1010    1.0000 </r>
       <r>    3.2712    1.0000 </r>
       <r>    3.3288    1.0000 </r>
       <r>    3.4676    1.0000 </r>
       <r>    5.4109    0.0000 </r>
       <r>    5.5309    0.0000 </r>
       <r>    5.9963    0.0000 </r>
       <r>    6.1727    0.0000 </r>
       <r>    6.7688    0.0000 </r>
       <r>    6.9730    0.0000 </r>
       <r>    7.6260    0.0000 </r>
       <r>    8.4594    0.0000 </r>
       <r>    8.5847    0.0000 </r>
       <r>    8.8310    0.0000 </r>
       <r>    9.2662    0.0000 </r>
       <r>    9.3664    0.0000 </r>
       <r>    9.7599    0.0000 </r>
       <r>    9.8540    0.0000 </r>
       <r>    9.9938    0.0000 </r>
       <r>   10.2302    0.0000 </r>
       <r>   10.6229    0.0000 </r>
       <r>   11.0382    0.0000 </r>
      </set>
      <set comment="kpoint 8">
       <r>  -11.2195    1.0000 </r>
       <r>  -11.2172    1.0000 </r>
       <r>  -11.0664    1.0000 </r>
       <r>  -11.0584    1.0000 </r>
       <r>  -10.9914    1.0000 </r>
       <r>  -10.9909    1.0000 </r>
       <r>  -10.8645    1.0000 </r>
       <r>  -10.8628    1.0000 </r>
       <r>  -10.8457    1.0000 </r>
       <r>  -10.8455    1.0000 </r>
       <r>  -10.0587    1.0000 </r>
       <r>  -10.0582    1.0000 </r>
       <r>   -9.9520    1.0000 </r>
       <r>   -9.9514    1.0000 </r>
       <r>   -9.9043    1.0000 </r>
       <r>   -9.9038    1.0000 </r>
       <r>   -9.8268    1.0000 </r>
       <r>   -9.8258    1.0000 </r>
       <r>   -9.8091    1.0000 </r>
       <r>   -9.8091    1.0000 </r>
       <r>   -9.7182    1.0000 </r>
       <r>   -9.4929    1.0000 </r>
       <r>   -8.7403    1.0000 </r>
       <r>   -8.6811    1.0000 </r>
       <r>   -8.5057    1.0000 </r>
       <r>   -7.9150    1.0000 </r>
       <r>   -7.6052    1.0000 </r>
       <r>   -7.5518    1.0000 </r>
       <r>   -2.2309    1.0000 </r>
       <r>   -2.1677    1.0000 </r>
       <r>   -2.1112    1.0000 </r>
       <r>   -2.0703    1.0000 </r>
       <r>   -1.9769    1.0000 </r>
       <r>   -1.8789    1.0000 </r>
       <r>   -1.7625    1.0000 </r>
       <r>   -1.7360    1.0000 </r>
       <r>   -1.5974    1.0000 </r>
       <r>   -1.5686    1.0000 </r>
       <r>   -1.4966    1.0000 </r>
       <r>   -1.4544    1.0000 </r>
       <r>   -0.0148    1.0000 </r>
       <r>    0.2472    1.0000 </r>
       <r>    0.5121    1.0000 </r>
       <r>    0.8700    1.0000 </r>
       <r>    1.1868    1.0000 </r>
       <r>    1.4840    1.0000 </r>
       <r>    1.6805    1.0000 </r>
       <r>    1.9578    1.0000 </r>
       <r>    2.1667    1.0000 </r>
       <r>    2.2568    1.0000 </r>
       <r>    2.3047    1.0000 </r>
       <r>    2.3434    1.0000 </r>
       <r>    2.6196    1.0000 </r>
       <r>    2.8645    1.0000 </r>
       <r>    3.0271    1.0000 </r>
       <r>    3.0720    1.0000 </r>
       <r>    3.1759    1.0000 </r>
       <r>    3.2367    1.0000 </r>
       <r>    3.2629    1.0000 </r>
       <r>    3.4935    1.0000 </r>
       <r>    3.8589    1.0000 </r>
       <r>    4.1702    1.0000 </r>
       <r>    5.2774    0.0000 </r>
       <r>    5.6771    0.0000 </r>
       <r>    6.8100    0.0000 </r>
       <r>    6.8213    0.0000 </r>
       <r>    7.6888    0.0000 </r>
       <r>    7.9534    0.0000 </r>
       <r>    7.9686    0.0000 </r>
       <r>    8.1451    0.0000 </r>
       <r>    8.4637    0.0000 </r>
       <r>    8.5119    0.0000 </r>
       <r>    8.8096    0.0000 </r>
       <r>    8.8459    0.0000 </r>
       <r>    9.2241    0.0000 </r>
       <r>    9.3975    0.0000 </r>
       <r>    9.9697    0.0000 </r>
       <r>   10.0668    0.0000 </r>
       <r>   10.2041    0.0000 </r>
       <r>   10.3794    0.0000 </r>
      </set>
      <set comment="kpoint 9">
       <r>  -11.2608    1.0000 </r>
       <r>  -11.2532    1.0000 </r>
       <r>  -11.0919    1.0000 </r>
       <r>  -11.0842    1.0000 </r>
       <r>  -10.9739    1.0000 </r>
       <r>  -10.9733    1.0000 </r>
       <r>  -10.8759    1.0000 </r>
       <r>  -10.8742    1.0000 </r>
       <r>  -10.8443    1.0000 </r>
       <r>  -10.8441    1.0000 </r>
       <r>  -10.1401    1.0000 </r>
       <r>  -10.1399    1.0000 </r>
       <r>   -9.9482    1.0000 </r>
       <r>   -9.9481    1.0000 </r>
       <r>   -9.8742    1.0000 </r>
       <r>   -9.8742    1.0000 </r>
       <r>   -9.8326    1.0000 </r>
       <r>   -9.8325    1.0000 </r>
       <r>   -9.7999    1.0000 </r>
       <r>   -9.7999    1.0000 </r>
       <r>   -9.4342    1.0000 </r>
       <r>   -9.2266    1.0000 </r>
       <r>   -8.5578    1.0000 </r>
       <r>   -8.5009    1.0000 </r>
       <r>   -8.3455    1.0000 </r>
       <r>   -7.8016    1.0000 </r>
       <r>   -7.4118    1.0000 </r>
       <r>   -7.3781    1.0000 </r>
       <r>   -2.2319    1.0000 </r>
       <r>   -2.1120    1.0000 </r>
       <r>   -2.0858    1.0000 </r>
       <r>   -2.0077    1.0000 </r>
       <r>   -1.8982    1.0000 </r>
       <r>   -1.8793    1.0000 </r>
       <r>   -1.8110    1.0000 </r>
       <r>   -1.7545    1.0000 </r>
       <r>   -1.6552    1.0000 </r>
       <r>   -1.5160    1.0000 </r>
       <r>   -1.5047    1.0000 </r>
       <r>   -1.4516    1.0000 </r>
       <r>   -0.2715    1.0000 </r>
       <r>   -0.1584    1.0000 </r>
       <r>    0.1773    1.0000 </r>
       <r>    0.5738    1.0000 </r>
       <r>    0.7821    1.0000 </r>
       <r>    1.1792    1.0000 </r>
       <r>    1.3412    1.0000 </r>
       <r>    1.3932    1.0000 </r>
       <r>    1.4435    1.0000 </r>
       <r>    1.6544    1.0000 </r>
       <r>    1.7715    1.0000 </r>
       <r>    2.0398    1.0000 </r>
       <r>    2.1867    1.0000 </r>
       <r>    2.6566    1.0000 </r>
       <r>    2.6711    1.0000 </r>
       <r>    2.7552    1.0000 </r>
       <r>    2.8609    1.0000 </r>
       <r>    3.1246    1.0000 </r>
       <r>    3.2093    1.0000 </r>
       <r>    3.3832    1.0000 </r>
       <r>    3.5685    1.0000 </r>
       <r>    4.1166    1.0000 </r>
       <r>    5.7732    0.0000 </r>
       <r>    5.9068    0.0000 </r>
       <r>    6.8277    0.0000 </r>
       <r>    6.9173    0.0000 </r>
       <r>    7.5419    0.0000 </r>
       <r>    7.8040    0.0000 </r>
       <r>    8.2254    0.0000 </r>
       <r>    8.5732    0.0000 </r>
       <r>    8.6688    0.0000 </r>
       <r>    8.8770    0.0000 </r>
       <r>    9.0323    0.0000 </r>
       <r>    9.1163    0.0000 </r>
       <r>    9.6137    0.0000 </r>
       <r>    9.6640    0.0000 </r>
       <r>    9.7973    0.0000 </r>
       <r>   10.2633    0.0000 </r>
       <r>   10.5111    0.0000 </r>
       <r>   10.5839    0.0000 </r>
      </set>
      <set comment="kpoint 10">
       <r>  -11.3186    1.0000 </r>
       <r>  -11.3082    1.0000 </r>
       <r>  -11.0951    1.0000 </r>
       <r>  -11.0899    1.0000 </r>
       <r>  -10.9566    1.0000 </r>
       <r>  -10.9559    1.0000 </r>
       <r>  -10.8857    1.0000 </r>
       <r>  -10.8843    1.0000 </r>
       <r>  -10.8398    1.0000 </r>
       <r>  -10.8396    1.0000 </r>
       <r>  -10.2251    1.0000 </r>
       <r>  -10.2250    1.0000 </r>
       <r>   -9.9423    1.0000 </r>
       <r>   -9.9422    1.0000 </r>
       <r>   -9.8624    1.0000 </r>
       <r>   -9.8624    1.0000 </r>
       <r>   -9.8269    1.0000 </r>
       <r>   -9.8269    1.0000 </r>
       <r>   -9.7850    1.0000 </r>
       <r>   -9.7850    1.0000 </r>
       <r>   -9.0840    1.0000 </r>
       <r>   -8.8999    1.0000 </r>
       <r>   -8.3153    1.0000 </r>
       <r>   -8.2666    1.0000 </r>
       <r>   -8.1403    1.0000 </r>
       <r>   -7.6801    1.0000 </r>
       <r>   -7.1995    1.0000 </r>
       <r>   -7.1832    1.0000 </r>
       <r>   -2.2035    1.0000 </r>
       <r>   -2.0657    1.0000 </r>
       <r>   -2.0393    1.0000 </r>
       <r>   -2.0230    1.0000 </r>
       <r>   -1.9297    1.0000 </r>
       <r>   -1.9130    1.0000 </r>
       <r>   -1.8966    1.0000 </r>
       <r>   -1.7745    1.0000 </r>
       <r>   -1.7180    1.0000 </r>
       <r>   -1.5267    1.0000 </r>
       <r>   -1.4691    1.0000 </r>
       <r>   -1.4258    1.0000 </r>
       <r>   -0.8157    1.0000 </r>
       <r>   -0.7410    1.0000 </r>
       <r>   -0.1355    1.0000 </r>
       <r>    0.3705    1.0000 </r>
       <r>    0.5222    1.0000 </r>
       <r>    0.6617    1.0000 </r>
       <r>    0.7985    1.0000 </r>
       <r>    0.9137    1.0000 </r>
       <r>    1.0430    1.0000 </r>
       <r>    1.1769    1.0000 </r>
       <r>    1.5226    1.0000 </r>
       <r>    1.7267    1.0000 </r>
       <r>    1.8842    1.0000 </r>
       <r>    2.2224    1.0000 </r>
       <r>    2.2733    1.0000 </r>
       <r>    2.3423    1.0000 </r>
       <r>    2.8231    1.0000 </r>
       <r>    2.9987    1.0000 </r>
       <r>    3.1744    1.0000 </r>
       <r>    3.3100    1.0000 </r>
       <r>    3.3602    1.0000 </r>
       <r>    3.9460    1.0000 </r>
       <r>    5.8941    0.0000 </r>
       <r>    6.0093    0.0000 </r>
       <r>    6.5153    0.0000 </r>
       <r>    6.6545    0.0000 </r>
       <r>    7.2441    0.0000 </r>
       <r>    7.5466    0.0000 </r>
       <r>    8.2731    0.0000 </r>
       <r>    8.8208    0.0000 </r>
       <r>    8.9164    0.0000 </r>
       <r>    9.0247    0.0000 </r>
       <r>    9.1321    0.0000 </r>
       <r>    9.4179    0.0000 </r>
       <r>    9.6608    0.0000 </r>
       <r>    9.9410    0.0000 </r>
       <r>   10.2016    0.0000 </r>
       <r>   10.5460    0.0000 </r>
       <r>   10.7609    0.0000 </r>
       <r>   10.8452    0.0000 </r>
      </set>
      <set comment="kpoint 11">
       <r>  -11.3668    1.0000 </r>
       <r>  -11.3579    1.0000 </r>
       <r>  -11.0906    1.0000 </r>
       <r>  -11.0868    1.0000 </r>
       <r>  -10.9449    1.0000 </r>
       <r>  -10.9441    1.0000 </r>
       <r>  -10.8930    1.0000 </r>
       <r>  -10.8917    1.0000 </r>
       <r>  -10.8326    1.0000 </r>
       <r>  -10.8323    1.0000 </r>
       <r>  -10.2922    1.0000 </r>
       <r>  -10.2922    1.0000 </r>
       <r>   -9.9387    1.0000 </r>
       <r>   -9.9387    1.0000 </r>
       <r>   -9.8664    1.0000 </r>
       <r>   -9.8664    1.0000 </r>
       <r>   -9.8091    1.0000 </r>
       <r>   -9.8091    1.0000 </r>
       <r>   -9.7710    1.0000 </r>
       <r>   -9.7710    1.0000 </r>
       <r>   -8.7365    1.0000 </r>
       <r>   -8.5847    1.0000 </r>
       <r>   -8.0737    1.0000 </r>
       <r>   -8.0427    1.0000 </r>
       <r>   -7.9366    1.0000 </r>
       <r>   -7.5887    1.0000 </r>
       <r>   -7.0272    1.0000 </r>
       <r>   -7.0228    1.0000 </r>
       <r>   -2.4009    1.0000 </r>
       <r>   -2.2028    1.0000 </r>
       <r>   -2.1306    1.0000 </r>
       <r>   -1.9789    1.0000 </r>
       <r>   -1.9504    1.0000 </r>
       <r>   -1.9173    1.0000 </r>
       <r>   -1.8568    1.0000 </r>
       <r>   -1.7861    1.0000 </r>
       <r>   -1.7562    1.0000 </r>
       <r>   -1.5494    1.0000 </r>
       <r>   -1.4670    1.0000 </r>
       <r>   -1.3800    1.0000 </r>
       <r>   -1.2865    1.0000 </r>
       <r>   -1.2501    1.0000 </r>
       <r>   -0.2252    1.0000 </r>
       <r>   -0.0823    1.0000 </r>
       <r>    0.1890    1.0000 </r>
       <r>    0.3124    1.0000 </r>
       <r>    0.4962    1.0000 </r>
       <r>    0.5746    1.0000 </r>
       <r>    0.8069    1.0000 </r>
       <r>    0.9241    1.0000 </r>
       <r>    1.4043    1.0000 </r>
       <r>    1.5375    1.0000 </r>
       <r>    1.7906    1.0000 </r>
       <r>    1.9018    1.0000 </r>
       <r>    1.9720    1.0000 </r>
       <r>    2.0359    1.0000 </r>
       <r>    2.8035    1.0000 </r>
       <r>    2.8541    1.0000 </r>
       <r>    3.1294    1.0000 </r>
       <r>    3.1810    1.0000 </r>
       <r>    3.3343    1.0000 </r>
       <r>    3.7067    1.0000 </r>
       <r>    5.7340    0.0000 </r>
       <r>    5.9275    0.0000 </r>
       <r>    6.2615    0.0000 </r>
       <r>    6.4418    0.0000 </r>
       <r>    7.0350    0.0000 </r>
       <r>    7.2880    0.0000 </r>
       <r>    8.1182    0.0000 </r>
       <r>    8.7004    0.0000 </r>
       <r>    8.8513    0.0000 </r>
       <r>    9.1302    0.0000 </r>
       <r>    9.1921    0.0000 </r>
       <r>    9.4279    0.0000 </r>
       <r>    9.5342    0.0000 </r>
       <r>    9.9919    0.0000 </r>
       <r>   10.1902    0.0000 </r>
       <r>   10.4440    0.0000 </r>
       <r>   10.8537    0.0000 </r>
       <r>   10.9750    0.0000 </r>
      </set>
      <set comment="kpoint 12">
       <r>  -11.3926    1.0000 </r>
       <r>  -11.3863    1.0000 </r>
       <r>  -11.0869    1.0000 </r>
       <r>  -11.0837    1.0000 </r>
       <r>  -10.9398    1.0000 </r>
       <r>  -10.9388    1.0000 </r>
       <r>  -10.8969    1.0000 </r>
       <r>  -10.8957    1.0000 </r>
       <r>  -10.8267    1.0000 </r>
       <r>  -10.8265    1.0000 </r>
       <r>  -10.3286    1.0000 </r>
       <r>  -10.3286    1.0000 </r>
       <r>   -9.9376    1.0000 </r>
       <r>   -9.9375    1.0000 </r>
       <r>   -9.8706    1.0000 </r>
       <r>   -9.8706    1.0000 </r>
       <r>   -9.7958    1.0000 </r>
       <r>   -9.7958    1.0000 </r>
       <r>   -9.7636    1.0000 </r>
       <r>   -9.7636    1.0000 </r>
       <r>   -8.4966    1.0000 </r>
       <r>   -8.3831    1.0000 </r>
       <r>   -7.9212    1.0000 </r>
       <r>   -7.9081    1.0000 </r>
       <r>   -7.7970    1.0000 </r>
       <r>   -7.5527    1.0000 </r>
       <r>   -6.9355    1.0000 </r>
       <r>   -6.9352    1.0000 </r>
       <r>   -2.6459    1.0000 </r>
       <r>   -2.4883    1.0000 </r>
       <r>   -2.0636    1.0000 </r>
       <r>   -1.9431    1.0000 </r>
       <r>   -1.9087    1.0000 </r>
       <r>   -1.8951    1.0000 </r>
       <r>   -1.8006    1.0000 </r>
       <r>   -1.7792    1.0000 </r>
       <r>   -1.7515    1.0000 </r>
       <r>   -1.5873    1.0000 </r>
       <r>   -1.5700    1.0000 </r>
       <r>   -1.5401    1.0000 </r>
       <r>   -1.4703    1.0000 </r>
       <r>   -1.3717    1.0000 </r>
       <r>   -0.5623    1.0000 </r>
       <r>   -0.0801    1.0000 </r>
       <r>    0.0344    1.0000 </r>
       <r>    0.1505    1.0000 </r>
       <r>    0.3227    1.0000 </r>
       <r>    0.3644    1.0000 </r>
       <r>    0.7568    1.0000 </r>
       <r>    0.7914    1.0000 </r>
       <r>    1.3784    1.0000 </r>
       <r>    1.4702    1.0000 </r>
       <r>    1.6038    1.0000 </r>
       <r>    1.6567    1.0000 </r>
       <r>    1.7892    1.0000 </r>
       <r>    2.1532    1.0000 </r>
       <r>    2.7211    1.0000 </r>
       <r>    2.7906    1.0000 </r>
       <r>    3.0672    1.0000 </r>
       <r>    3.1854    1.0000 </r>
       <r>    3.3074    1.0000 </r>
       <r>    3.5131    1.0000 </r>
       <r>    5.6261    0.0000 </r>
       <r>    5.7819    0.0000 </r>
       <r>    6.1315    0.0000 </r>
       <r>    6.3349    0.0000 </r>
       <r>    6.9326    0.0000 </r>
       <r>    7.1421    0.0000 </r>
       <r>    8.0021    0.0000 </r>
       <r>    8.6202    0.0000 </r>
       <r>    8.7041    0.0000 </r>
       <r>    9.0840    0.0000 </r>
       <r>    9.2715    0.0000 </r>
       <r>    9.3234    0.0000 </r>
       <r>    9.4471    0.0000 </r>
       <r>    9.9706    0.0000 </r>
       <r>   10.0820    0.0000 </r>
       <r>   10.3589    0.0000 </r>
       <r>   10.7356    0.0000 </r>
       <r>   11.0288    0.0000 </r>
      </set>
      <set comment="kpoint 13">
       <r>  -11.3080    1.0000 </r>
       <r>  -11.2977    1.0000 </r>
       <r>  -11.0961    1.0000 </r>
       <r>  -11.0907    1.0000 </r>
       <r>  -10.9611    1.0000 </r>
       <r>  -10.9603    1.0000 </r>
       <r>  -10.8821    1.0000 </r>
       <r>  -10.8808    1.0000 </r>
       <r>  -10.8432    1.0000 </r>
       <r>  -10.8431    1.0000 </r>
       <r>  -10.1986    1.0000 </r>
       <r>  -10.1985    1.0000 </r>
       <r>   -9.9667    1.0000 </r>
       <r>   -9.9667    1.0000 </r>
       <r>   -9.8516    1.0000 </r>
       <r>   -9.8516    1.0000 </r>
       <r>   -9.8377    1.0000 </r>
       <r>   -9.8377    1.0000 </r>
       <r>   -9.7869    1.0000 </r>
       <r>   -9.7869    1.0000 </r>
       <r>   -9.1332    1.0000 </r>
       <r>   -8.9448    1.0000 </r>
       <r>   -8.3427    1.0000 </r>
       <r>   -8.2911    1.0000 </r>
       <r>   -8.1692    1.0000 </r>
       <r>   -7.6961    1.0000 </r>
       <r>   -7.2312    1.0000 </r>
       <r>   -7.2123    1.0000 </r>
       <r>   -2.2105    1.0000 </r>
       <r>   -2.0681    1.0000 </r>
       <r>   -2.0309    1.0000 </r>
       <r>   -1.9817    1.0000 </r>
       <r>   -1.9343    1.0000 </r>
       <r>   -1.8864    1.0000 </r>
       <r>   -1.8739    1.0000 </r>
       <r>   -1.7816    1.0000 </r>
       <r>   -1.7079    1.0000 </r>
       <r>   -1.5207    1.0000 </r>
       <r>   -1.4813    1.0000 </r>
       <r>   -1.4253    1.0000 </r>
       <r>   -0.6787    1.0000 </r>
       <r>   -0.5952    1.0000 </r>
       <r>   -0.1016    1.0000 </r>
       <r>    0.4460    1.0000 </r>
       <r>    0.6330    1.0000 </r>
       <r>    0.7526    1.0000 </r>
       <r>    0.7601    1.0000 </r>
       <r>    0.9794    1.0000 </r>
       <r>    1.1384    1.0000 </r>
       <r>    1.1675    1.0000 </r>
       <r>    1.2261    1.0000 </r>
       <r>    1.6916    1.0000 </r>
       <r>    1.9026    1.0000 </r>
       <r>    2.2008    1.0000 </r>
       <r>    2.5266    1.0000 </r>
       <r>    2.5913    1.0000 </r>
       <r>    2.7611    1.0000 </r>
       <r>    2.7927    1.0000 </r>
       <r>    2.9807    1.0000 </r>
       <r>    3.1451    1.0000 </r>
       <r>    3.3938    1.0000 </r>
       <r>    4.0098    1.0000 </r>
       <r>    6.0769    0.0000 </r>
       <r>    6.1622    0.0000 </r>
       <r>    6.7562    0.0000 </r>
       <r>    6.8526    0.0000 </r>
       <r>    7.7040    0.0000 </r>
       <r>    7.7207    0.0000 </r>
       <r>    8.4159    0.0000 </r>
       <r>    8.7142    0.0000 </r>
       <r>    8.8469    0.0000 </r>
       <r>    9.0862    0.0000 </r>
       <r>    9.4495    0.0000 </r>
       <r>    9.4818    0.0000 </r>
       <r>    9.7383    0.0000 </r>
       <r>    9.8390    0.0000 </r>
       <r>    9.8420    0.0000 </r>
       <r>   10.0960    0.0000 </r>
       <r>   10.5245    0.0000 </r>
       <r>   10.7395    0.0000 </r>
      </set>
      <set comment="kpoint 14">
       <r>  -11.3534    1.0000 </r>
       <r>  -11.3438    1.0000 </r>
       <r>  -11.0923    1.0000 </r>
       <r>  -11.0886    1.0000 </r>
       <r>  -10.9519    1.0000 </r>
       <r>  -10.9511    1.0000 </r>
       <r>  -10.8861    1.0000 </r>
       <r>  -10.8851    1.0000 </r>
       <r>  -10.8405    1.0000 </r>
       <r>  -10.8404    1.0000 </r>
       <r>  -10.2525    1.0000 </r>
       <r>  -10.2525    1.0000 </r>
       <r>   -9.9815    1.0000 </r>
       <r>   -9.9815    1.0000 </r>
       <r>   -9.8486    1.0000 </r>
       <r>   -9.8485    1.0000 </r>
       <r>   -9.8274    1.0000 </r>
       <r>   -9.8273    1.0000 </r>
       <r>   -9.7759    1.0000 </r>
       <r>   -9.7759    1.0000 </r>
       <r>   -8.7976    1.0000 </r>
       <r>   -8.6370    1.0000 </r>
       <r>   -8.0926    1.0000 </r>
       <r>   -8.0537    1.0000 </r>
       <r>   -7.9702    1.0000 </r>
       <r>   -7.6019    1.0000 </r>
       <r>   -7.0650    1.0000 </r>
       <r>   -7.0582    1.0000 </r>
       <r>   -2.2475    1.0000 </r>
       <r>   -2.1514    1.0000 </r>
       <r>   -2.0544    1.0000 </r>
       <r>   -2.0068    1.0000 </r>
       <r>   -1.9593    1.0000 </r>
       <r>   -1.8949    1.0000 </r>
       <r>   -1.8516    1.0000 </r>
       <r>   -1.8028    1.0000 </r>
       <r>   -1.7576    1.0000 </r>
       <r>   -1.5315    1.0000 </r>
       <r>   -1.4825    1.0000 </r>
       <r>   -1.3691    1.0000 </r>
       <r>   -1.1006    1.0000 </r>
       <r>   -1.0702    1.0000 </r>
       <r>   -0.1917    1.0000 </r>
       <r>    0.1419    1.0000 </r>
       <r>    0.2299    1.0000 </r>
       <r>    0.3033    1.0000 </r>
       <r>    0.4608    1.0000 </r>
       <r>    0.5652    1.0000 </r>
       <r>    0.8020    1.0000 </r>
       <r>    0.8263    1.0000 </r>
       <r>    1.1026    1.0000 </r>
       <r>    1.4390    1.0000 </r>
       <r>    1.6870    1.0000 </r>
       <r>    1.8777    1.0000 </r>
       <r>    2.1365    1.0000 </r>
       <r>    2.2216    1.0000 </r>
       <r>    2.5261    1.0000 </r>
       <r>    2.6387    1.0000 </r>
       <r>    2.8129    1.0000 </r>
       <r>    3.0749    1.0000 </r>
       <r>    3.3990    1.0000 </r>
       <r>    3.8054    1.0000 </r>
       <r>    6.1188    0.0000 </r>
       <r>    6.3348    0.0000 </r>
       <r>    6.5421    0.0000 </r>
       <r>    6.6472    0.0000 </r>
       <r>    7.5702    0.0000 </r>
       <r>    7.7118    0.0000 </r>
       <r>    8.4210    0.0000 </r>
       <r>    8.8538    0.0000 </r>
       <r>    9.0290    0.0000 </r>
       <r>    9.2982    0.0000 </r>
       <r>    9.4562    0.0000 </r>
       <r>    9.5922    0.0000 </r>
       <r>    9.6940    0.0000 </r>
       <r>   10.0523    0.0000 </r>
       <r>   10.2340    0.0000 </r>
       <r>   10.4603    0.0000 </r>
       <r>   10.5737    0.0000 </r>
       <r>   10.8976    0.0000 </r>
      </set>
      <set comment="kpoint 15">
       <r>  -11.3840    1.0000 </r>
       <r>  -11.3773    1.0000 </r>
       <r>  -11.0873    1.0000 </r>
       <r>  -11.0846    1.0000 </r>
       <r>  -10.9475    1.0000 </r>
       <r>  -10.9465    1.0000 </r>
       <r>  -10.8883    1.0000 </r>
       <r>  -10.8874    1.0000 </r>
       <r>  -10.8370    1.0000 </r>
       <r>  -10.8368    1.0000 </r>
       <r>  -10.2904    1.0000 </r>
       <r>  -10.2904    1.0000 </r>
       <r>   -9.9905    1.0000 </r>
       <r>   -9.9905    1.0000 </r>
       <r>   -9.8536    1.0000 </r>
       <r>   -9.8536    1.0000 </r>
       <r>   -9.8079    1.0000 </r>
       <r>   -9.8079    1.0000 </r>
       <r>   -9.7737    1.0000 </r>
       <r>   -9.7737    1.0000 </r>
       <r>   -8.5085    1.0000 </r>
       <r>   -8.3892    1.0000 </r>
       <r>   -7.8821    1.0000 </r>
       <r>   -7.8634    1.0000 </r>
       <r>   -7.8000    1.0000 </r>
       <r>   -7.5517    1.0000 </r>
       <r>   -6.9570    1.0000 </r>
       <r>   -6.9569    1.0000 </r>
       <r>   -2.5013    1.0000 </r>
       <r>   -2.3384    1.0000 </r>
       <r>   -2.0599    1.0000 </r>
       <r>   -1.9540    1.0000 </r>
       <r>   -1.9007    1.0000 </r>
       <r>   -1.8917    1.0000 </r>
       <r>   -1.8178    1.0000 </r>
       <r>   -1.7808    1.0000 </r>
       <r>   -1.7703    1.0000 </r>
       <r>   -1.5312    1.0000 </r>
       <r>   -1.4929    1.0000 </r>
       <r>   -1.4424    1.0000 </r>
       <r>   -1.4345    1.0000 </r>
       <r>   -1.3320    1.0000 </r>
       <r>   -0.3376    1.0000 </r>
       <r>   -0.1185    1.0000 </r>
       <r>    0.0005    1.0000 </r>
       <r>    0.0728    1.0000 </r>
       <r>    0.1897    1.0000 </r>
       <r>    0.2660    1.0000 </r>
       <r>    0.6088    1.0000 </r>
       <r>    0.7247    1.0000 </r>
       <r>    1.0771    1.0000 </r>
       <r>    1.3278    1.0000 </r>
       <r>    1.3628    1.0000 </r>
       <r>    1.6970    1.0000 </r>
       <r>    1.7784    1.0000 </r>
       <r>    2.1614    1.0000 </r>
       <r>    2.3655    1.0000 </r>
       <r>    2.5357    1.0000 </r>
       <r>    2.6694    1.0000 </r>
       <r>    3.1542    1.0000 </r>
       <r>    3.3882    1.0000 </r>
       <r>    3.5700    1.0000 </r>
       <r>    6.0633    0.0000 </r>
       <r>    6.2686    0.0000 </r>
       <r>    6.3317    0.0000 </r>
       <r>    6.5302    0.0000 </r>
       <r>    7.4570    0.0000 </r>
       <r>    7.5373    0.0000 </r>
       <r>    8.6496    0.0000 </r>
       <r>    8.8550    0.0000 </r>
       <r>    8.9415    0.0000 </r>
       <r>    9.1850    0.0000 </r>
       <r>    9.3369    0.0000 </r>
       <r>    9.4728    0.0000 </r>
       <r>    9.7241    0.0000 </r>
       <r>   10.2063    0.0000 </r>
       <r>   10.3281    0.0000 </r>
       <r>   10.5794    0.0000 </r>
       <r>   10.7881    0.0000 </r>
       <r>   11.0892    0.0000 </r>
      </set>
      <set comment="kpoint 16">
       <r>  -11.3944    1.0000 </r>
       <r>  -11.3897    1.0000 </r>
       <r>  -11.0852    1.0000 </r>
       <r>  -11.0828    1.0000 </r>
       <r>  -10.9463    1.0000 </r>
       <r>  -10.9452    1.0000 </r>
       <r>  -10.8890    1.0000 </r>
       <r>  -10.8881    1.0000 </r>
       <r>  -10.8353    1.0000 </r>
       <r>  -10.8351    1.0000 </r>
       <r>  -10.3040    1.0000 </r>
       <r>  -10.3039    1.0000 </r>
       <r>   -9.9936    1.0000 </r>
       <r>   -9.9936    1.0000 </r>
       <r>   -9.8556    1.0000 </r>
       <r>   -9.8556    1.0000 </r>
       <r>   -9.7967    1.0000 </r>
       <r>   -9.7967    1.0000 </r>
       <r>   -9.7769    1.0000 </r>
       <r>   -9.7769    1.0000 </r>
       <r>   -8.3836    1.0000 </r>
       <r>   -8.2961    1.0000 </r>
       <r>   -7.7986    1.0000 </r>
       <r>   -7.7904    1.0000 </r>
       <r>   -7.7247    1.0000 </r>
       <r>   -7.5460    1.0000 </r>
       <r>   -6.9231    1.0000 </r>
       <r>   -6.9221    1.0000 </r>
       <r>   -2.5988    1.0000 </r>
       <r>   -2.4753    1.0000 </r>
       <r>   -2.0116    1.0000 </r>
       <r>   -1.9393    1.0000 </r>
       <r>   -1.8944    1.0000 </r>
       <r>   -1.8778    1.0000 </r>
       <r>   -1.8136    1.0000 </r>
       <r>   -1.7656    1.0000 </r>
       <r>   -1.7455    1.0000 </r>
       <r>   -1.5809    1.0000 </r>
       <r>   -1.5755    1.0000 </r>
       <r>   -1.5056    1.0000 </r>
       <r>   -1.4761    1.0000 </r>
       <r>   -1.3676    1.0000 </r>
       <r>   -0.5013    1.0000 </r>
       <r>   -0.1317    1.0000 </r>
       <r>   -0.0970    1.0000 </r>
       <r>    0.0441    1.0000 </r>
       <r>    0.0618    1.0000 </r>
       <r>    0.1984    1.0000 </r>
       <r>    0.5209    1.0000 </r>
       <r>    0.6705    1.0000 </r>
       <r>    1.1969    1.0000 </r>
       <r>    1.2081    1.0000 </r>
       <r>    1.3704    1.0000 </r>
       <r>    1.5399    1.0000 </r>
       <r>    1.5412    1.0000 </r>
       <r>    2.1810    1.0000 </r>
       <r>    2.4008    1.0000 </r>
       <r>    2.4727    1.0000 </r>
       <r>    2.6473    1.0000 </r>
       <r>    3.1525    1.0000 </r>
       <r>    3.3777    1.0000 </r>
       <r>    3.4714    1.0000 </r>
       <r>    6.0281    0.0000 </r>
       <r>    6.1877    0.0000 </r>
       <r>    6.2570    0.0000 </r>
       <r>    6.5155    0.0000 </r>
       <r>    7.4128    0.0000 </r>
       <r>    7.4661    0.0000 </r>
       <r>    8.6967    0.0000 </r>
       <r>    8.8726    0.0000 </r>
       <r>    8.9056    0.0000 </r>
       <r>    9.1473    0.0000 </r>
       <r>    9.2368    0.0000 </r>
       <r>    9.4420    0.0000 </r>
       <r>    9.7032    0.0000 </r>
       <r>   10.2723    0.0000 </r>
       <r>   10.3162    0.0000 </r>
       <r>   10.5510    0.0000 </r>
       <r>   10.7010    0.0000 </r>
       <r>   11.0762    0.0000 </r>
      </set>
      <set comment="kpoint 17">
       <r>  -11.3795    1.0000 </r>
       <r>  -11.3726    1.0000 </r>
       <r>  -11.0876    1.0000 </r>
       <r>  -11.0852    1.0000 </r>
       <r>  -10.9514    1.0000 </r>
       <r>  -10.9504    1.0000 </r>
       <r>  -10.8824    1.0000 </r>
       <r>  -10.8817    1.0000 </r>
       <r>  -10.8436    1.0000 </r>
       <r>  -10.8435    1.0000 </r>
       <r>  -10.2651    1.0000 </r>
       <r>  -10.2651    1.0000 </r>
       <r>  -10.0234    1.0000 </r>
       <r>  -10.0233    1.0000 </r>
       <r>   -9.8349    1.0000 </r>
       <r>   -9.8349    1.0000 </r>
       <r>   -9.8258    1.0000 </r>
       <r>   -9.8257    1.0000 </r>
       <r>   -9.7767    1.0000 </r>
       <r>   -9.7767    1.0000 </r>
       <r>   -8.5141    1.0000 </r>
       <r>   -8.3919    1.0000 </r>
       <r>   -7.8649    1.0000 </r>
       <r>   -7.8407    1.0000 </r>
       <r>   -7.7993    1.0000 </r>
       <r>   -7.5513    1.0000 </r>
       <r>   -6.9686    1.0000 </r>
       <r>   -6.9681    1.0000 </r>
       <r>   -2.4164    1.0000 </r>
       <r>   -2.2548    1.0000 </r>
       <r>   -2.0618    1.0000 </r>
       <r>   -1.9583    1.0000 </r>
       <r>   -1.8992    1.0000 </r>
       <r>   -1.8622    1.0000 </r>
       <r>   -1.8335    1.0000 </r>
       <r>   -1.8060    1.0000 </r>
       <r>   -1.7682    1.0000 </r>
       <r>   -1.5086    1.0000 </r>
       <r>   -1.5050    1.0000 </r>
       <r>   -1.3658    1.0000 </r>
       <r>   -1.3568    1.0000 </r>
       <r>   -1.3189    1.0000 </r>
       <r>   -0.2433    1.0000 </r>
       <r>   -0.1415    1.0000 </r>
       <r>   -0.1108    1.0000 </r>
       <r>    0.0266    1.0000 </r>
       <r>    0.1537    1.0000 </r>
       <r>    0.1839    1.0000 </r>
       <r>    0.7122    1.0000 </r>
       <r>    0.7295    1.0000 </r>
       <r>    0.8747    1.0000 </r>
       <r>    1.0962    1.0000 </r>
       <r>    1.3106    1.0000 </r>
       <r>    1.8200    1.0000 </r>
       <r>    1.8477    1.0000 </r>
       <r>    2.1342    1.0000 </r>
       <r>    2.1695    1.0000 </r>
       <r>    2.3633    1.0000 </r>
       <r>    2.4570    1.0000 </r>
       <r>    3.1589    1.0000 </r>
       <r>    3.4206    1.0000 </r>
       <r>    3.5923    1.0000 </r>
       <r>    6.3061    0.0000 </r>
       <r>    6.3953    0.0000 </r>
       <r>    6.5370    0.0000 </r>
       <r>    6.5491    0.0000 </r>
       <r>    7.7595    0.0000 </r>
       <r>    7.9336    0.0000 </r>
       <r>    8.3056    0.0000 </r>
       <r>    8.9336    0.0000 </r>
       <r>    9.3607    0.0000 </r>
       <r>    9.4582    0.0000 </r>
       <r>    9.6649    0.0000 </r>
       <r>    9.7545    0.0000 </r>
       <r>    9.9180    0.0000 </r>
       <r>   10.2983    0.0000 </r>
       <r>   10.4472    0.0000 </r>
       <r>   10.7304    0.0000 </r>
       <r>   10.7731    0.0000 </r>
       <r>   11.0303    0.0000 </r>
      </set>
      <set comment="kpoint 18">
       <r>  -11.3927    1.0000 </r>
       <r>  -11.3891    1.0000 </r>
       <r>  -11.0840    1.0000 </r>
       <r>  -11.0826    1.0000 </r>
       <r>  -10.9522    1.0000 </r>
       <r>  -10.9511    1.0000 </r>
       <r>  -10.8778    1.0000 </r>
       <r>  -10.8771    1.0000 </r>
       <r>  -10.8475    1.0000 </r>
       <r>  -10.8473    1.0000 </r>
       <r>  -10.2684    1.0000 </r>
       <r>  -10.2684    1.0000 </r>
       <r>  -10.0506    1.0000 </r>
       <r>  -10.0505    1.0000 </r>
       <r>   -9.8341    1.0000 </r>
       <r>   -9.8341    1.0000 </r>
       <r>   -9.8082    1.0000 </r>
       <r>   -9.8082    1.0000 </r>
       <r>   -9.7878    1.0000 </r>
       <r>   -9.7878    1.0000 </r>
       <r>   -8.3187    1.0000 </r>
       <r>   -8.2510    1.0000 </r>
       <r>   -7.7103    1.0000 </r>
       <r>   -7.7021    1.0000 </r>
       <r>   -7.6767    1.0000 </r>
       <r>   -7.5481    1.0000 </r>
       <r>   -6.9280    1.0000 </r>
       <r>   -6.9269    1.0000 </r>
       <r>   -2.4990    1.0000 </r>
       <r>   -2.4057    1.0000 </r>
       <r>   -1.9744    1.0000 </r>
       <r>   -1.9307    1.0000 </r>
       <r>   -1.8619    1.0000 </r>
       <r>   -1.8552    1.0000 </r>
       <r>   -1.8378    1.0000 </r>
       <r>   -1.7993    1.0000 </r>
       <r>   -1.7592    1.0000 </r>
       <r>   -1.5599    1.0000 </r>
       <r>   -1.5396    1.0000 </r>
       <r>   -1.5159    1.0000 </r>
       <r>   -1.4125    1.0000 </r>
       <r>   -1.3254    1.0000 </r>
       <r>   -0.5005    1.0000 </r>
       <r>   -0.3058    1.0000 </r>
       <r>   -0.2174    1.0000 </r>
       <r>   -0.1142    1.0000 </r>
       <r>   -0.0035    1.0000 </r>
       <r>    0.0391    1.0000 </r>
       <r>    0.6163    1.0000 </r>
       <r>    0.6684    1.0000 </r>
       <r>    0.7074    1.0000 </r>
       <r>    1.0499    1.0000 </r>
       <r>    1.3241    1.0000 </r>
       <r>    1.4679    1.0000 </r>
       <r>    1.5578    1.0000 </r>
       <r>    1.9658    1.0000 </r>
       <r>    2.0684    1.0000 </r>
       <r>    2.2231    1.0000 </r>
       <r>    2.6001    1.0000 </r>
       <r>    3.1181    1.0000 </r>
       <r>    3.4247    1.0000 </r>
       <r>    3.4536    1.0000 </r>
       <r>    6.2423    0.0000 </r>
       <r>    6.3811    0.0000 </r>
       <r>    6.4466    0.0000 </r>
       <r>    6.5978    0.0000 </r>
       <r>    7.6891    0.0000 </r>
       <r>    7.9630    0.0000 </r>
       <r>    8.5918    0.0000 </r>
       <r>    8.8697    0.0000 </r>
       <r>    9.3898    0.0000 </r>
       <r>    9.4896    0.0000 </r>
       <r>    9.5744    0.0000 </r>
       <r>    9.8677    0.0000 </r>
       <r>   10.0532    0.0000 </r>
       <r>   10.5677    0.0000 </r>
       <r>   10.7451    0.0000 </r>
       <r>   10.7918    0.0000 </r>
       <r>   10.9486    0.0000 </r>
       <r>   11.0621    0.0000 </r>
      </set>
      <set comment="kpoint 19">
       <r>  -11.3941    1.0000 </r>
       <r>  -11.3941    1.0000 </r>
       <r>  -11.0822    1.0000 </r>
       <r>  -11.0821    1.0000 </r>
       <r>  -10.9544    1.0000 </r>
       <r>  -10.9533    1.0000 </r>
       <r>  -10.8666    1.0000 </r>
       <r>  -10.8660    1.0000 </r>
       <r>  -10.8586    1.0000 </r>
       <r>  -10.8586    1.0000 </r>
       <r>  -10.2518    1.0000 </r>
       <r>  -10.2517    1.0000 </r>
       <r>  -10.0814    1.0000 </r>
       <r>  -10.0814    1.0000 </r>
       <r>   -9.8157    1.0000 </r>
       <r>   -9.8157    1.0000 </r>
       <r>   -9.8068    1.0000 </r>
       <r>   -9.8068    1.0000 </r>
       <r>   -9.8061    1.0000 </r>
       <r>   -9.8061    1.0000 </r>
       <r>   -8.2231    1.0000 </r>
       <r>   -8.2231    1.0000 </r>
       <r>   -7.6342    1.0000 </r>
       <r>   -7.6342    1.0000 </r>
       <r>   -7.5911    1.0000 </r>
       <r>   -7.5911    1.0000 </r>
       <r>   -6.9235    1.0000 </r>
       <r>   -6.9234    1.0000 </r>
       <r>   -2.4464    1.0000 </r>
       <r>   -2.4464    1.0000 </r>
       <r>   -1.9186    1.0000 </r>
       <r>   -1.9186    1.0000 </r>
       <r>   -1.8772    1.0000 </r>
       <r>   -1.8391    1.0000 </r>
       <r>   -1.8067    1.0000 </r>
       <r>   -1.8067    1.0000 </r>
       <r>   -1.7932    1.0000 </r>
       <r>   -1.5939    1.0000 </r>
       <r>   -1.5748    1.0000 </r>
       <r>   -1.5371    1.0000 </r>
       <r>   -1.3319    1.0000 </r>
       <r>   -1.3319    1.0000 </r>
       <r>   -0.6959    1.0000 </r>
       <r>   -0.3994    1.0000 </r>
       <r>   -0.1708    1.0000 </r>
       <r>   -0.1708    1.0000 </r>
       <r>   -0.0592    1.0000 </r>
       <r>   -0.0592    1.0000 </r>
       <r>    0.3957    1.0000 </r>
       <r>    0.6790    1.0000 </r>
       <r>    0.6790    1.0000 </r>
       <r>    1.2550    1.0000 </r>
       <r>    1.2826    1.0000 </r>
       <r>    1.3001    1.0000 </r>
       <r>    1.3001    1.0000 </r>
       <r>    1.8864    1.0000 </r>
       <r>    1.9948    1.0000 </r>
       <r>    1.9948    1.0000 </r>
       <r>    2.8862    1.0000 </r>
       <r>    2.8862    1.0000 </r>
       <r>    3.4384    1.0000 </r>
       <r>    3.4384    1.0000 </r>
       <r>    6.1661    0.0000 </r>
       <r>    6.4623    0.0000 </r>
       <r>    6.5756    0.0000 </r>
       <r>    6.5756    0.0000 </r>
       <r>    7.6918    0.0000 </r>
       <r>    8.1401    0.0000 </r>
       <r>    8.7300    0.0000 </r>
       <r>    8.7300    0.0000 </r>
       <r>    9.5251    0.0000 </r>
       <r>    9.5251    0.0000 </r>
       <r>    9.9718    0.0000 </r>
       <r>   10.0572    0.0000 </r>
       <r>   10.0572    0.0000 </r>
       <r>   10.7000    0.0000 </r>
       <r>   10.8950    0.0000 </r>
       <r>   10.8950    0.0000 </r>
       <r>   11.2676    0.0000 </r>
       <r>   11.3199    0.0000 </r>
      </set>
      <set comment="kpoint 20">
       <r>  -11.2020    1.0000 </r>
       <r>  -11.2015    1.0000 </r>
       <r>  -11.0086    1.0000 </r>
       <r>  -11.0086    1.0000 </r>
       <r>  -11.0082    1.0000 </r>
       <r>  -11.0082    1.0000 </r>
       <r>  -10.8460    1.0000 </r>
       <r>  -10.8460    1.0000 </r>
       <r>  -10.8457    1.0000 </r>
       <r>  -10.8457    1.0000 </r>
       <r>   -9.9941    1.0000 </r>
       <r>   -9.9608    1.0000 </r>
       <r>   -9.9561    1.0000 </r>
       <r>   -9.9561    1.0000 </r>
       <r>   -9.9561    1.0000 </r>
       <r>   -9.9561    1.0000 </r>
       <r>   -9.9483    1.0000 </r>
       <r>   -9.8137    1.0000 </r>
       <r>   -9.8137    1.0000 </r>
       <r>   -9.8137    1.0000 </r>
       <r>   -9.8137    1.0000 </r>
       <r>   -9.7296    1.0000 </r>
       <r>   -8.8576    1.0000 </r>
       <r>   -8.8535    1.0000 </r>
       <r>   -8.6291    1.0000 </r>
       <r>   -8.0316    1.0000 </r>
       <r>   -7.7694    1.0000 </r>
       <r>   -7.7177    1.0000 </r>
       <r>   -2.2169    1.0000 </r>
       <r>   -2.2169    1.0000 </r>
       <r>   -2.1217    1.0000 </r>
       <r>   -2.1217    1.0000 </r>
       <r>   -2.1079    1.0000 </r>
       <r>   -1.8313    1.0000 </r>
       <r>   -1.7209    1.0000 </r>
       <r>   -1.7209    1.0000 </r>
       <r>   -1.7181    1.0000 </r>
       <r>   -1.5583    1.0000 </r>
       <r>   -1.4558    1.0000 </r>
       <r>   -1.4558    1.0000 </r>
       <r>    0.0559    1.0000 </r>
       <r>    0.1752    1.0000 </r>
       <r>    0.8742    1.0000 </r>
       <r>    1.7394    1.0000 </r>
       <r>    1.7394    1.0000 </r>
       <r>    1.9149    1.0000 </r>
       <r>    1.9149    1.0000 </r>
       <r>    2.2187    1.0000 </r>
       <r>    2.8392    1.0000 </r>
       <r>    2.9936    1.0000 </r>
       <r>    2.9936    1.0000 </r>
       <r>    2.9962    1.0000 </r>
       <r>    2.9962    1.0000 </r>
       <r>    3.3040    1.0000 </r>
       <r>    3.3040    1.0000 </r>
       <r>    3.3308    1.0000 </r>
       <r>    3.3308    1.0000 </r>
       <r>    3.5423    1.0000 </r>
       <r>    3.5423    1.0000 </r>
       <r>    3.8112    1.0000 </r>
       <r>    4.1249    1.0000 </r>
       <r>    4.1249    1.0000 </r>
       <r>    4.6359    0.0000 </r>
       <r>    5.1568    0.0000 </r>
       <r>    6.0852    0.0000 </r>
       <r>    6.3826    0.0000 </r>
       <r>    6.7461    0.0000 </r>
       <r>    7.4454    0.0000 </r>
       <r>    7.6751    0.0000 </r>
       <r>    7.7136    0.0000 </r>
       <r>    8.7312    0.0000 </r>
       <r>    8.7435    0.0000 </r>
       <r>    8.7435    0.0000 </r>
       <r>    8.9686    0.0000 </r>
       <r>    8.9686    0.0000 </r>
       <r>    9.1699    0.0000 </r>
       <r>    9.8749    0.0000 </r>
       <r>    9.8749    0.0000 </r>
       <r>    9.9031    0.0000 </r>
       <r>    9.9031    0.0000 </r>
      </set>
      <set comment="kpoint 21">
       <r>  -11.2056    1.0000 </r>
       <r>  -11.2055    1.0000 </r>
       <r>  -11.0329    1.0000 </r>
       <r>  -11.0290    1.0000 </r>
       <r>  -11.0024    1.0000 </r>
       <r>  -11.0019    1.0000 </r>
       <r>  -10.8542    1.0000 </r>
       <r>  -10.8532    1.0000 </r>
       <r>  -10.8459    1.0000 </r>
       <r>  -10.8457    1.0000 </r>
       <r>  -10.0052    1.0000 </r>
       <r>  -10.0046    1.0000 </r>
       <r>   -9.9511    1.0000 </r>
       <r>   -9.9511    1.0000 </r>
       <r>   -9.9395    1.0000 </r>
       <r>   -9.9314    1.0000 </r>
       <r>   -9.8811    1.0000 </r>
       <r>   -9.8192    1.0000 </r>
       <r>   -9.8170    1.0000 </r>
       <r>   -9.8124    1.0000 </r>
       <r>   -9.8124    1.0000 </r>
       <r>   -9.6455    1.0000 </r>
       <r>   -8.8111    1.0000 </r>
       <r>   -8.8049    1.0000 </r>
       <r>   -8.5846    1.0000 </r>
       <r>   -7.9908    1.0000 </r>
       <r>   -7.7062    1.0000 </r>
       <r>   -7.6640    1.0000 </r>
       <r>   -2.2230    1.0000 </r>
       <r>   -2.1999    1.0000 </r>
       <r>   -2.1201    1.0000 </r>
       <r>   -2.1041    1.0000 </r>
       <r>   -2.0654    1.0000 </r>
       <r>   -1.8141    1.0000 </r>
       <r>   -1.7835    1.0000 </r>
       <r>   -1.7257    1.0000 </r>
       <r>   -1.6439    1.0000 </r>
       <r>   -1.5682    1.0000 </r>
       <r>   -1.4735    1.0000 </r>
       <r>   -1.4553    1.0000 </r>
       <r>    0.1056    1.0000 </r>
       <r>    0.1579    1.0000 </r>
       <r>    0.7342    1.0000 </r>
       <r>    1.4416    1.0000 </r>
       <r>    1.5346    1.0000 </r>
       <r>    1.6537    1.0000 </r>
       <r>    1.8426    1.0000 </r>
       <r>    2.1796    1.0000 </r>
       <r>    2.5855    1.0000 </r>
       <r>    2.6329    1.0000 </r>
       <r>    2.8407    1.0000 </r>
       <r>    2.8414    1.0000 </r>
       <r>    2.8487    1.0000 </r>
       <r>    3.0808    1.0000 </r>
       <r>    3.0844    1.0000 </r>
       <r>    3.1681    1.0000 </r>
       <r>    3.2972    1.0000 </r>
       <r>    3.3711    1.0000 </r>
       <r>    3.4708    1.0000 </r>
       <r>    3.7974    1.0000 </r>
       <r>    4.0459    1.0000 </r>
       <r>    4.0590    1.0000 </r>
       <r>    4.8884    0.0000 </r>
       <r>    5.3808    0.0000 </r>
       <r>    6.4130    0.0000 </r>
       <r>    6.5968    0.0000 </r>
       <r>    7.1385    0.0000 </r>
       <r>    7.7351    0.0000 </r>
       <r>    7.9430    0.0000 </r>
       <r>    7.9953    0.0000 </r>
       <r>    8.3390    0.0000 </r>
       <r>    8.4702    0.0000 </r>
       <r>    8.8626    0.0000 </r>
       <r>    8.9651    0.0000 </r>
       <r>    9.0770    0.0000 </r>
       <r>    9.1729    0.0000 </r>
       <r>    9.8733    0.0000 </r>
       <r>    9.9891    0.0000 </r>
       <r>   10.0373    0.0000 </r>
       <r>   10.0747    0.0000 </r>
      </set>
      <set comment="kpoint 22">
       <r>  -11.2292    1.0000 </r>
       <r>  -11.2255    1.0000 </r>
       <r>  -11.0766    1.0000 </r>
       <r>  -11.0681    1.0000 </r>
       <r>  -10.9860    1.0000 </r>
       <r>  -10.9854    1.0000 </r>
       <r>  -10.8686    1.0000 </r>
       <r>  -10.8668    1.0000 </r>
       <r>  -10.8450    1.0000 </r>
       <r>  -10.8447    1.0000 </r>
       <r>  -10.0870    1.0000 </r>
       <r>  -10.0866    1.0000 </r>
       <r>   -9.9387    1.0000 </r>
       <r>   -9.9387    1.0000 </r>
       <r>   -9.9005    1.0000 </r>
       <r>   -9.9001    1.0000 </r>
       <r>   -9.8283    1.0000 </r>
       <r>   -9.8279    1.0000 </r>
       <r>   -9.8070    1.0000 </r>
       <r>   -9.8070    1.0000 </r>
       <r>   -9.6434    1.0000 </r>
       <r>   -9.4227    1.0000 </r>
       <r>   -8.6738    1.0000 </r>
       <r>   -8.6627    1.0000 </r>
       <r>   -8.4571    1.0000 </r>
       <r>   -7.8871    1.0000 </r>
       <r>   -7.5393    1.0000 </r>
       <r>   -7.5152    1.0000 </r>
       <r>   -2.2328    1.0000 </r>
       <r>   -2.1518    1.0000 </r>
       <r>   -2.1077    1.0000 </r>
       <r>   -2.0545    1.0000 </r>
       <r>   -1.9668    1.0000 </r>
       <r>   -1.8293    1.0000 </r>
       <r>   -1.7974    1.0000 </r>
       <r>   -1.7385    1.0000 </r>
       <r>   -1.6150    1.0000 </r>
       <r>   -1.5599    1.0000 </r>
       <r>   -1.4979    1.0000 </r>
       <r>   -1.4548    1.0000 </r>
       <r>    0.0134    1.0000 </r>
       <r>    0.0602    1.0000 </r>
       <r>    0.5199    1.0000 </r>
       <r>    0.6091    1.0000 </r>
       <r>    1.0794    1.0000 </r>
       <r>    1.4379    1.0000 </r>
       <r>    1.6513    1.0000 </r>
       <r>    1.7255    1.0000 </r>
       <r>    1.9013    1.0000 </r>
       <r>    1.9489    1.0000 </r>
       <r>    2.4482    1.0000 </r>
       <r>    2.5353    1.0000 </r>
       <r>    2.5368    1.0000 </r>
       <r>    2.5473    1.0000 </r>
       <r>    2.7090    1.0000 </r>
       <r>    2.8301    1.0000 </r>
       <r>    3.0562    1.0000 </r>
       <r>    3.3813    1.0000 </r>
       <r>    3.3841    1.0000 </r>
       <r>    3.4298    1.0000 </r>
       <r>    3.8420    1.0000 </r>
       <r>    4.1425    1.0000 </r>
       <r>    5.4132    0.0000 </r>
       <r>    5.7315    0.0000 </r>
       <r>    6.8039    0.0000 </r>
       <r>    6.8563    0.0000 </r>
       <r>    7.6380    0.0000 </r>
       <r>    7.7970    0.0000 </r>
       <r>    7.9191    0.0000 </r>
       <r>    8.2460    0.0000 </r>
       <r>    8.5920    0.0000 </r>
       <r>    8.6375    0.0000 </r>
       <r>    9.0025    0.0000 </r>
       <r>    9.1603    0.0000 </r>
       <r>    9.3045    0.0000 </r>
       <r>    9.3093    0.0000 </r>
       <r>    9.9373    0.0000 </r>
       <r>   10.1729    0.0000 </r>
       <r>   10.3851    0.0000 </r>
       <r>   10.4718    0.0000 </r>
      </set>
      <set comment="kpoint 23">
       <r>  -11.2836    1.0000 </r>
       <r>  -11.2744    1.0000 </r>
       <r>  -11.0944    1.0000 </r>
       <r>  -11.0877    1.0000 </r>
       <r>  -10.9655    1.0000 </r>
       <r>  -10.9649    1.0000 </r>
       <r>  -10.8812    1.0000 </r>
       <r>  -10.8796    1.0000 </r>
       <r>  -10.8416    1.0000 </r>
       <r>  -10.8413    1.0000 </r>
       <r>  -10.1828    1.0000 </r>
       <r>  -10.1828    1.0000 </r>
       <r>   -9.9260    1.0000 </r>
       <r>   -9.9259    1.0000 </r>
       <r>   -9.8752    1.0000 </r>
       <r>   -9.8752    1.0000 </r>
       <r>   -9.8297    1.0000 </r>
       <r>   -9.8297    1.0000 </r>
       <r>   -9.7953    1.0000 </r>
       <r>   -9.7952    1.0000 </r>
       <r>   -9.3104    1.0000 </r>
       <r>   -9.1112    1.0000 </r>
       <r>   -8.4608    1.0000 </r>
       <r>   -8.4451    1.0000 </r>
       <r>   -8.2676    1.0000 </r>
       <r>   -7.7571    1.0000 </r>
       <r>   -7.3222    1.0000 </r>
       <r>   -7.3116    1.0000 </r>
       <r>   -2.2255    1.0000 </r>
       <r>   -2.0819    1.0000 </r>
       <r>   -2.0752    1.0000 </r>
       <r>   -1.9831    1.0000 </r>
       <r>   -1.9170    1.0000 </r>
       <r>   -1.8972    1.0000 </r>
       <r>   -1.8470    1.0000 </r>
       <r>   -1.7552    1.0000 </r>
       <r>   -1.6828    1.0000 </r>
       <r>   -1.5209    1.0000 </r>
       <r>   -1.4758    1.0000 </r>
       <r>   -1.4553    1.0000 </r>
       <r>   -0.5212    1.0000 </r>
       <r>   -0.3874    1.0000 </r>
       <r>   -0.0020    1.0000 </r>
       <r>    0.5785    1.0000 </r>
       <r>    0.6217    1.0000 </r>
       <r>    0.9771    1.0000 </r>
       <r>    1.1740    1.0000 </r>
       <r>    1.1920    1.0000 </r>
       <r>    1.3021    1.0000 </r>
       <r>    1.4059    1.0000 </r>
       <r>    1.9702    1.0000 </r>
       <r>    2.0017    1.0000 </r>
       <r>    2.2095    1.0000 </r>
       <r>    2.2199    1.0000 </r>
       <r>    2.2795    1.0000 </r>
       <r>    2.6906    1.0000 </r>
       <r>    2.7977    1.0000 </r>
       <r>    3.2476    1.0000 </r>
       <r>    3.3169    1.0000 </r>
       <r>    3.3922    1.0000 </r>
       <r>    3.6002    1.0000 </r>
       <r>    4.0275    1.0000 </r>
       <r>    5.7777    0.0000 </r>
       <r>    5.8274    0.0000 </r>
       <r>    6.5499    0.0000 </r>
       <r>    6.7277    0.0000 </r>
       <r>    7.2365    0.0000 </r>
       <r>    7.5790    0.0000 </r>
       <r>    8.0024    0.0000 </r>
       <r>    8.5932    0.0000 </r>
       <r>    8.8227    0.0000 </r>
       <r>    8.9280    0.0000 </r>
       <r>    9.4652    0.0000 </r>
       <r>    9.4798    0.0000 </r>
       <r>    9.5211    0.0000 </r>
       <r>    9.7963    0.0000 </r>
       <r>    9.9814    0.0000 </r>
       <r>   10.6327    0.0000 </r>
       <r>   10.7833    0.0000 </r>
       <r>   10.8532    0.0000 </r>
      </set>
      <set comment="kpoint 24">
       <r>  -11.3426    1.0000 </r>
       <r>  -11.3325    1.0000 </r>
       <r>  -11.0931    1.0000 </r>
       <r>  -11.0885    1.0000 </r>
       <r>  -10.9485    1.0000 </r>
       <r>  -10.9477    1.0000 </r>
       <r>  -10.8914    1.0000 </r>
       <r>  -10.8899    1.0000 </r>
       <r>  -10.8344    1.0000 </r>
       <r>  -10.8341    1.0000 </r>
       <r>  -10.2678    1.0000 </r>
       <r>  -10.2677    1.0000 </r>
       <r>   -9.9181    1.0000 </r>
       <r>   -9.9181    1.0000 </r>
       <r>   -9.8714    1.0000 </r>
       <r>   -9.8714    1.0000 </r>
       <r>   -9.8149    1.0000 </r>
       <r>   -9.8149    1.0000 </r>
       <r>   -9.7782    1.0000 </r>
       <r>   -9.7782    1.0000 </r>
       <r>   -8.9435    1.0000 </r>
       <r>   -8.7717    1.0000 </r>
       <r>   -8.2159    1.0000 </r>
       <r>   -8.1990    1.0000 </r>
       <r>   -8.0546    1.0000 </r>
       <r>   -7.6392    1.0000 </r>
       <r>   -7.1165    1.0000 </r>
       <r>   -7.1126    1.0000 </r>
       <r>   -2.2253    1.0000 </r>
       <r>   -2.1767    1.0000 </r>
       <r>   -2.0375    1.0000 </r>
       <r>   -2.0042    1.0000 </r>
       <r>   -2.0040    1.0000 </r>
       <r>   -1.9149    1.0000 </r>
       <r>   -1.9099    1.0000 </r>
       <r>   -1.7708    1.0000 </r>
       <r>   -1.7381    1.0000 </r>
       <r>   -1.5392    1.0000 </r>
       <r>   -1.4565    1.0000 </r>
       <r>   -1.4124    1.0000 </r>
       <r>   -1.0595    1.0000 </r>
       <r>   -1.0215    1.0000 </r>
       <r>   -0.1731    1.0000 </r>
       <r>    0.1083    1.0000 </r>
       <r>    0.3239    1.0000 </r>
       <r>    0.5167    1.0000 </r>
       <r>    0.6480    1.0000 </r>
       <r>    0.9009    1.0000 </r>
       <r>    0.9358    1.0000 </r>
       <r>    1.1774    1.0000 </r>
       <r>    1.6891    1.0000 </r>
       <r>    1.7208    1.0000 </r>
       <r>    1.9298    1.0000 </r>
       <r>    1.9379    1.0000 </r>
       <r>    1.9604    1.0000 </r>
       <r>    2.3482    1.0000 </r>
       <r>    2.8380    1.0000 </r>
       <r>    3.1806    1.0000 </r>
       <r>    3.1896    1.0000 </r>
       <r>    3.3399    1.0000 </r>
       <r>    3.4277    1.0000 </r>
       <r>    3.8030    1.0000 </r>
       <r>    5.6370    0.0000 </r>
       <r>    5.8076    0.0000 </r>
       <r>    6.2420    0.0000 </r>
       <r>    6.4467    0.0000 </r>
       <r>    6.9401    0.0000 </r>
       <r>    7.2833    0.0000 </r>
       <r>    7.8602    0.0000 </r>
       <r>    8.5643    0.0000 </r>
       <r>    8.8447    0.0000 </r>
       <r>    8.9534    0.0000 </r>
       <r>    9.4638    0.0000 </r>
       <r>    9.5991    0.0000 </r>
       <r>    9.6758    0.0000 </r>
       <r>    9.8659    0.0000 </r>
       <r>   10.2519    0.0000 </r>
       <r>   10.4782    0.0000 </r>
       <r>   10.6632    0.0000 </r>
       <r>   11.0732    0.0000 </r>
      </set>
      <set comment="kpoint 25">
       <r>  -11.3830    1.0000 </r>
       <r>  -11.3751    1.0000 </r>
       <r>  -11.0887    1.0000 </r>
       <r>  -11.0850    1.0000 </r>
       <r>  -10.9389    1.0000 </r>
       <r>  -10.9380    1.0000 </r>
       <r>  -10.8980    1.0000 </r>
       <r>  -10.8967    1.0000 </r>
       <r>  -10.8261    1.0000 </r>
       <r>  -10.8259    1.0000 </r>
       <r>  -10.3245    1.0000 </r>
       <r>  -10.3244    1.0000 </r>
       <r>   -9.9150    1.0000 </r>
       <r>   -9.9150    1.0000 </r>
       <r>   -9.8757    1.0000 </r>
       <r>   -9.8757    1.0000 </r>
       <r>   -9.7990    1.0000 </r>
       <r>   -9.7990    1.0000 </r>
       <r>   -9.7628    1.0000 </r>
       <r>   -9.7628    1.0000 </r>
       <r>   -8.6268    1.0000 </r>
       <r>   -8.4911    1.0000 </r>
       <r>   -8.0150    1.0000 </r>
       <r>   -8.0046    1.0000 </r>
       <r>   -7.8732    1.0000 </r>
       <r>   -7.5693    1.0000 </r>
       <r>   -6.9745    1.0000 </r>
       <r>   -6.9737    1.0000 </r>
       <r>   -2.5709    1.0000 </r>
       <r>   -2.3823    1.0000 </r>
       <r>   -2.1045    1.0000 </r>
       <r>   -1.9391    1.0000 </r>
       <r>   -1.9367    1.0000 </r>
       <r>   -1.9077    1.0000 </r>
       <r>   -1.8622    1.0000 </r>
       <r>   -1.7798    1.0000 </r>
       <r>   -1.7514    1.0000 </r>
       <r>   -1.5734    1.0000 </r>
       <r>   -1.4776    1.0000 </r>
       <r>   -1.4564    1.0000 </r>
       <r>   -1.4489    1.0000 </r>
       <r>   -1.3642    1.0000 </r>
       <r>   -0.4481    1.0000 </r>
       <r>   -0.0909    1.0000 </r>
       <r>    0.0816    1.0000 </r>
       <r>    0.2792    1.0000 </r>
       <r>    0.3303    1.0000 </r>
       <r>    0.6394    1.0000 </r>
       <r>    0.7737    1.0000 </r>
       <r>    1.0194    1.0000 </r>
       <r>    1.5510    1.0000 </r>
       <r>    1.6352    1.0000 </r>
       <r>    1.7444    1.0000 </r>
       <r>    1.7487    1.0000 </r>
       <r>    1.9116    1.0000 </r>
       <r>    2.1094    1.0000 </r>
       <r>    2.8656    1.0000 </r>
       <r>    3.0403    1.0000 </r>
       <r>    3.1398    1.0000 </r>
       <r>    3.2968    1.0000 </r>
       <r>    3.3460    1.0000 </r>
       <r>    3.5711    1.0000 </r>
       <r>    5.4466    0.0000 </r>
       <r>    5.6506    0.0000 </r>
       <r>    6.0487    0.0000 </r>
       <r>    6.2409    0.0000 </r>
       <r>    6.8111    0.0000 </r>
       <r>    7.0666    0.0000 </r>
       <r>    7.6928    0.0000 </r>
       <r>    8.4700    0.0000 </r>
       <r>    8.6972    0.0000 </r>
       <r>    8.8200    0.0000 </r>
       <r>    9.4001    0.0000 </r>
       <r>    9.5053    0.0000 </r>
       <r>    9.7061    0.0000 </r>
       <r>    9.7436    0.0000 </r>
       <r>   10.1446    0.0000 </r>
       <r>   10.2495    0.0000 </r>
       <r>   10.7319    0.0000 </r>
       <r>   10.9902    0.0000 </r>
      </set>
      <set comment="kpoint 26">
       <r>  -11.3968    1.0000 </r>
       <r>  -11.3907    1.0000 </r>
       <r>  -11.0868    1.0000 </r>
       <r>  -11.0834    1.0000 </r>
       <r>  -10.9360    1.0000 </r>
       <r>  -10.9350    1.0000 </r>
       <r>  -10.9003    1.0000 </r>
       <r>  -10.8990    1.0000 </r>
       <r>  -10.8223    1.0000 </r>
       <r>  -10.8221    1.0000 </r>
       <r>  -10.3442    1.0000 </r>
       <r>  -10.3442    1.0000 </r>
       <r>   -9.9143    1.0000 </r>
       <r>   -9.9143    1.0000 </r>
       <r>   -9.8778    1.0000 </r>
       <r>   -9.8778    1.0000 </r>
       <r>   -9.7930    1.0000 </r>
       <r>   -9.7930    1.0000 </r>
       <r>   -9.7566    1.0000 </r>
       <r>   -9.7566    1.0000 </r>
       <r>   -8.4902    1.0000 </r>
       <r>   -8.3798    1.0000 </r>
       <r>   -7.9378    1.0000 </r>
       <r>   -7.9346    1.0000 </r>
       <r>   -7.7942    1.0000 </r>
       <r>   -7.5534    1.0000 </r>
       <r>   -6.9254    1.0000 </r>
       <r>   -6.9246    1.0000 </r>
       <r>   -2.7093    1.0000 </r>
       <r>   -2.5560    1.0000 </r>
       <r>   -2.0686    1.0000 </r>
       <r>   -1.9520    1.0000 </r>
       <r>   -1.9064    1.0000 </r>
       <r>   -1.8514    1.0000 </r>
       <r>   -1.8216    1.0000 </r>
       <r>   -1.7809    1.0000 </r>
       <r>   -1.7424    1.0000 </r>
       <r>   -1.6317    1.0000 </r>
       <r>   -1.6068    1.0000 </r>
       <r>   -1.5885    1.0000 </r>
       <r>   -1.4557    1.0000 </r>
       <r>   -1.3952    1.0000 </r>
       <r>   -0.6425    1.0000 </r>
       <r>   -0.1505    1.0000 </r>
       <r>    0.0654    1.0000 </r>
       <r>    0.1926    1.0000 </r>
       <r>    0.2251    1.0000 </r>
       <r>    0.6268    1.0000 </r>
       <r>    0.7166    1.0000 </r>
       <r>    0.9633    1.0000 </r>
       <r>    1.4381    1.0000 </r>
       <r>    1.5292    1.0000 </r>
       <r>    1.6808    1.0000 </r>
       <r>    1.6810    1.0000 </r>
       <r>    2.0239    1.0000 </r>
       <r>    2.0550    1.0000 </r>
       <r>    2.8512    1.0000 </r>
       <r>    2.9850    1.0000 </r>
       <r>    3.1177    1.0000 </r>
       <r>    3.2805    1.0000 </r>
       <r>    3.3213    1.0000 </r>
       <r>    3.4718    1.0000 </r>
       <r>    5.3906    0.0000 </r>
       <r>    5.5542    0.0000 </r>
       <r>    5.9848    0.0000 </r>
       <r>    6.1600    0.0000 </r>
       <r>    6.8111    0.0000 </r>
       <r>    6.9553    0.0000 </r>
       <r>    7.6274    0.0000 </r>
       <r>    8.4464    0.0000 </r>
       <r>    8.6110    0.0000 </r>
       <r>    8.7587    0.0000 </r>
       <r>    9.3687    0.0000 </r>
       <r>    9.4635    0.0000 </r>
       <r>    9.6063    0.0000 </r>
       <r>    9.7549    0.0000 </r>
       <r>   10.0915    0.0000 </r>
       <r>   10.1509    0.0000 </r>
       <r>   10.8798    0.0000 </r>
       <r>   10.8881    0.0000 </r>
      </set>
      <set comment="kpoint 27">
       <r>  -11.2195    1.0000 </r>
       <r>  -11.2172    1.0000 </r>
       <r>  -11.0664    1.0000 </r>
       <r>  -11.0584    1.0000 </r>
       <r>  -10.9914    1.0000 </r>
       <r>  -10.9909    1.0000 </r>
       <r>  -10.8645    1.0000 </r>
       <r>  -10.8628    1.0000 </r>
       <r>  -10.8457    1.0000 </r>
       <r>  -10.8455    1.0000 </r>
       <r>  -10.0587    1.0000 </r>
       <r>  -10.0583    1.0000 </r>
       <r>   -9.9520    1.0000 </r>
       <r>   -9.9514    1.0000 </r>
       <r>   -9.9043    1.0000 </r>
       <r>   -9.9038    1.0000 </r>
       <r>   -9.8268    1.0000 </r>
       <r>   -9.8258    1.0000 </r>
       <r>   -9.8091    1.0000 </r>
       <r>   -9.8091    1.0000 </r>
       <r>   -9.7182    1.0000 </r>
       <r>   -9.4930    1.0000 </r>
       <r>   -8.7183    1.0000 </r>
       <r>   -8.7090    1.0000 </r>
       <r>   -8.4984    1.0000 </r>
       <r>   -7.9190    1.0000 </r>
       <r>   -7.5916    1.0000 </r>
       <r>   -7.5628    1.0000 </r>
       <r>   -2.2308    1.0000 </r>
       <r>   -2.1677    1.0000 </r>
       <r>   -2.1121    1.0000 </r>
       <r>   -2.0703    1.0000 </r>
       <r>   -1.9945    1.0000 </r>
       <r>   -1.8187    1.0000 </r>
       <r>   -1.7963    1.0000 </r>
       <r>   -1.7360    1.0000 </r>
       <r>   -1.5961    1.0000 </r>
       <r>   -1.5840    1.0000 </r>
       <r>   -1.4934    1.0000 </r>
       <r>   -1.4544    1.0000 </r>
       <r>    0.0999    1.0000 </r>
       <r>    0.1027    1.0000 </r>
       <r>    0.5414    1.0000 </r>
       <r>    0.8654    1.0000 </r>
       <r>    1.2040    1.0000 </r>
       <r>    1.4828    1.0000 </r>
       <r>    1.6842    1.0000 </r>
       <r>    1.9422    1.0000 </r>
       <r>    2.1643    1.0000 </r>
       <r>    2.2501    1.0000 </r>
       <r>    2.2903    1.0000 </r>
       <r>    2.3550    1.0000 </r>
       <r>    2.6712    1.0000 </r>
       <r>    2.8232    1.0000 </r>
       <r>    3.0313    1.0000 </r>
       <r>    3.0647    1.0000 </r>
       <r>    3.1800    1.0000 </r>
       <r>    3.2101    1.0000 </r>
       <r>    3.2917    1.0000 </r>
       <r>    3.5010    1.0000 </r>
       <r>    3.8589    1.0000 </r>
       <r>    4.1612    1.0000 </r>
       <r>    5.2900    0.0000 </r>
       <r>    5.6665    0.0000 </r>
       <r>    6.7966    0.0000 </r>
       <r>    6.8359    0.0000 </r>
       <r>    7.6887    0.0000 </r>
       <r>    7.9509    0.0000 </r>
       <r>    7.9731    0.0000 </r>
       <r>    8.1464    0.0000 </r>
       <r>    8.4597    0.0000 </r>
       <r>    8.5164    0.0000 </r>
       <r>    8.8146    0.0000 </r>
       <r>    8.8347    0.0000 </r>
       <r>    9.2225    0.0000 </r>
       <r>    9.3997    0.0000 </r>
       <r>    9.9771    0.0000 </r>
       <r>   10.0971    0.0000 </r>
       <r>   10.1414    0.0000 </r>
       <r>   10.4101    0.0000 </r>
      </set>
      <set comment="kpoint 28">
       <r>  -11.2608    1.0000 </r>
       <r>  -11.2532    1.0000 </r>
       <r>  -11.0919    1.0000 </r>
       <r>  -11.0842    1.0000 </r>
       <r>  -10.9739    1.0000 </r>
       <r>  -10.9733    1.0000 </r>
       <r>  -10.8759    1.0000 </r>
       <r>  -10.8742    1.0000 </r>
       <r>  -10.8443    1.0000 </r>
       <r>  -10.8441    1.0000 </r>
       <r>  -10.1401    1.0000 </r>
       <r>  -10.1400    1.0000 </r>
       <r>   -9.9482    1.0000 </r>
       <r>   -9.9481    1.0000 </r>
       <r>   -9.8742    1.0000 </r>
       <r>   -9.8742    1.0000 </r>
       <r>   -9.8326    1.0000 </r>
       <r>   -9.8325    1.0000 </r>
       <r>   -9.7999    1.0000 </r>
       <r>   -9.7999    1.0000 </r>
       <r>   -9.4342    1.0000 </r>
       <r>   -9.2267    1.0000 </r>
       <r>   -8.5384    1.0000 </r>
       <r>   -8.5259    1.0000 </r>
       <r>   -8.3389    1.0000 </r>
       <r>   -7.8037    1.0000 </r>
       <r>   -7.4016    1.0000 </r>
       <r>   -7.3871    1.0000 </r>
       <r>   -2.2319    1.0000 </r>
       <r>   -2.1121    1.0000 </r>
       <r>   -2.0860    1.0000 </r>
       <r>   -2.0077    1.0000 </r>
       <r>   -1.9164    1.0000 </r>
       <r>   -1.8390    1.0000 </r>
       <r>   -1.8319    1.0000 </r>
       <r>   -1.7545    1.0000 </r>
       <r>   -1.6552    1.0000 </r>
       <r>   -1.5166    1.0000 </r>
       <r>   -1.5047    1.0000 </r>
       <r>   -1.4517    1.0000 </r>
       <r>   -0.2842    1.0000 </r>
       <r>   -0.1442    1.0000 </r>
       <r>    0.1772    1.0000 </r>
       <r>    0.5807    1.0000 </r>
       <r>    0.7673    1.0000 </r>
       <r>    1.1770    1.0000 </r>
       <r>    1.3632    1.0000 </r>
       <r>    1.4045    1.0000 </r>
       <r>    1.4679    1.0000 </r>
       <r>    1.5671    1.0000 </r>
       <r>    1.8060    1.0000 </r>
       <r>    2.0220    1.0000 </r>
       <r>    2.2206    1.0000 </r>
       <r>    2.6162    1.0000 </r>
       <r>    2.6931    1.0000 </r>
       <r>    2.7489    1.0000 </r>
       <r>    2.8764    1.0000 </r>
       <r>    3.1279    1.0000 </r>
       <r>    3.2102    1.0000 </r>
       <r>    3.3741    1.0000 </r>
       <r>    3.5682    1.0000 </r>
       <r>    4.1183    1.0000 </r>
       <r>    5.7682    0.0000 </r>
       <r>    5.9132    0.0000 </r>
       <r>    6.8123    0.0000 </r>
       <r>    6.9322    0.0000 </r>
       <r>    7.5439    0.0000 </r>
       <r>    7.8019    0.0000 </r>
       <r>    8.2264    0.0000 </r>
       <r>    8.5275    0.0000 </r>
       <r>    8.7494    0.0000 </r>
       <r>    8.8529    0.0000 </r>
       <r>    9.0080    0.0000 </r>
       <r>    9.1299    0.0000 </r>
       <r>    9.6011    0.0000 </r>
       <r>    9.6542    0.0000 </r>
       <r>    9.8248    0.0000 </r>
       <r>   10.2737    0.0000 </r>
       <r>   10.4190    0.0000 </r>
       <r>   10.6798    0.0000 </r>
      </set>
      <set comment="kpoint 29">
       <r>  -11.3186    1.0000 </r>
       <r>  -11.3082    1.0000 </r>
       <r>  -11.0951    1.0000 </r>
       <r>  -11.0899    1.0000 </r>
       <r>  -10.9566    1.0000 </r>
       <r>  -10.9559    1.0000 </r>
       <r>  -10.8857    1.0000 </r>
       <r>  -10.8843    1.0000 </r>
       <r>  -10.8398    1.0000 </r>
       <r>  -10.8396    1.0000 </r>
       <r>  -10.2251    1.0000 </r>
       <r>  -10.2250    1.0000 </r>
       <r>   -9.9423    1.0000 </r>
       <r>   -9.9422    1.0000 </r>
       <r>   -9.8624    1.0000 </r>
       <r>   -9.8624    1.0000 </r>
       <r>   -9.8269    1.0000 </r>
       <r>   -9.8269    1.0000 </r>
       <r>   -9.7850    1.0000 </r>
       <r>   -9.7850    1.0000 </r>
       <r>   -9.0840    1.0000 </r>
       <r>   -8.9000    1.0000 </r>
       <r>   -8.3003    1.0000 </r>
       <r>   -8.2861    1.0000 </r>
       <r>   -8.1352    1.0000 </r>
       <r>   -7.6810    1.0000 </r>
       <r>   -7.1941    1.0000 </r>
       <r>   -7.1883    1.0000 </r>
       <r>   -2.2037    1.0000 </r>
       <r>   -2.0544    1.0000 </r>
       <r>   -2.0478    1.0000 </r>
       <r>   -2.0248    1.0000 </r>
       <r>   -1.9296    1.0000 </r>
       <r>   -1.9243    1.0000 </r>
       <r>   -1.8866    1.0000 </r>
       <r>   -1.7745    1.0000 </r>
       <r>   -1.7181    1.0000 </r>
       <r>   -1.5278    1.0000 </r>
       <r>   -1.4685    1.0000 </r>
       <r>   -1.4241    1.0000 </r>
       <r>   -0.8136    1.0000 </r>
       <r>   -0.7435    1.0000 </r>
       <r>   -0.1374    1.0000 </r>
       <r>    0.3666    1.0000 </r>
       <r>    0.5523    1.0000 </r>
       <r>    0.6173    1.0000 </r>
       <r>    0.8344    1.0000 </r>
       <r>    0.8804    1.0000 </r>
       <r>    1.0825    1.0000 </r>
       <r>    1.1643    1.0000 </r>
       <r>    1.5078    1.0000 </r>
       <r>    1.7738    1.0000 </r>
       <r>    1.8288    1.0000 </r>
       <r>    2.2237    1.0000 </r>
       <r>    2.3025    1.0000 </r>
       <r>    2.3164    1.0000 </r>
       <r>    2.8407    1.0000 </r>
       <r>    3.0005    1.0000 </r>
       <r>    3.1722    1.0000 </r>
       <r>    3.3071    1.0000 </r>
       <r>    3.3555    1.0000 </r>
       <r>    3.9441    1.0000 </r>
       <r>    5.8955    0.0000 </r>
       <r>    6.0132    0.0000 </r>
       <r>    6.4944    0.0000 </r>
       <r>    6.6768    0.0000 </r>
       <r>    7.2301    0.0000 </r>
       <r>    7.5560    0.0000 </r>
       <r>    8.2743    0.0000 </r>
       <r>    8.8157    0.0000 </r>
       <r>    8.9543    0.0000 </r>
       <r>    8.9954    0.0000 </r>
       <r>    9.1157    0.0000 </r>
       <r>    9.4269    0.0000 </r>
       <r>    9.6405    0.0000 </r>
       <r>    9.9935    0.0000 </r>
       <r>   10.1687    0.0000 </r>
       <r>   10.5456    0.0000 </r>
       <r>   10.6994    0.0000 </r>
       <r>   10.8765    0.0000 </r>
      </set>
      <set comment="kpoint 30">
       <r>  -11.3668    1.0000 </r>
       <r>  -11.3578    1.0000 </r>
       <r>  -11.0906    1.0000 </r>
       <r>  -11.0868    1.0000 </r>
       <r>  -10.9449    1.0000 </r>
       <r>  -10.9441    1.0000 </r>
       <r>  -10.8930    1.0000 </r>
       <r>  -10.8917    1.0000 </r>
       <r>  -10.8326    1.0000 </r>
       <r>  -10.8323    1.0000 </r>
       <r>  -10.2922    1.0000 </r>
       <r>  -10.2922    1.0000 </r>
       <r>   -9.9387    1.0000 </r>
       <r>   -9.9387    1.0000 </r>
       <r>   -9.8664    1.0000 </r>
       <r>   -9.8664    1.0000 </r>
       <r>   -9.8091    1.0000 </r>
       <r>   -9.8091    1.0000 </r>
       <r>   -9.7710    1.0000 </r>
       <r>   -9.7710    1.0000 </r>
       <r>   -8.7365    1.0000 </r>
       <r>   -8.5847    1.0000 </r>
       <r>   -8.0651    1.0000 </r>
       <r>   -8.0532    1.0000 </r>
       <r>   -7.9344    1.0000 </r>
       <r>   -7.5889    1.0000 </r>
       <r>   -7.0258    1.0000 </r>
       <r>   -7.0242    1.0000 </r>
       <r>   -2.4013    1.0000 </r>
       <r>   -2.2004    1.0000 </r>
       <r>   -2.1327    1.0000 </r>
       <r>   -1.9788    1.0000 </r>
       <r>   -1.9504    1.0000 </r>
       <r>   -1.9175    1.0000 </r>
       <r>   -1.8568    1.0000 </r>
       <r>   -1.7861    1.0000 </r>
       <r>   -1.7563    1.0000 </r>
       <r>   -1.5494    1.0000 </r>
       <r>   -1.4670    1.0000 </r>
       <r>   -1.3812    1.0000 </r>
       <r>   -1.2759    1.0000 </r>
       <r>   -1.2593    1.0000 </r>
       <r>   -0.1928    1.0000 </r>
       <r>   -0.1315    1.0000 </r>
       <r>    0.1941    1.0000 </r>
       <r>    0.4039    1.0000 </r>
       <r>    0.4219    1.0000 </r>
       <r>    0.5476    1.0000 </r>
       <r>    0.8257    1.0000 </r>
       <r>    0.9290    1.0000 </r>
       <r>    1.3854    1.0000 </r>
       <r>    1.5751    1.0000 </r>
       <r>    1.7610    1.0000 </r>
       <r>    1.9299    1.0000 </r>
       <r>    1.9728    1.0000 </r>
       <r>    2.0140    1.0000 </r>
       <r>    2.7843    1.0000 </r>
       <r>    2.8796    1.0000 </r>
       <r>    3.1262    1.0000 </r>
       <r>    3.1703    1.0000 </r>
       <r>    3.3471    1.0000 </r>
       <r>    3.7043    1.0000 </r>
       <r>    5.7196    0.0000 </r>
       <r>    5.9504    0.0000 </r>
       <r>    6.2495    0.0000 </r>
       <r>    6.4465    0.0000 </r>
       <r>    7.0199    0.0000 </r>
       <r>    7.3029    0.0000 </r>
       <r>    8.1202    0.0000 </r>
       <r>    8.7233    0.0000 </r>
       <r>    8.9161    0.0000 </r>
       <r>    8.9760    0.0000 </r>
       <r>    9.1571    0.0000 </r>
       <r>    9.4931    0.0000 </r>
       <r>    9.6276    0.0000 </r>
       <r>    9.8882    0.0000 </r>
       <r>   10.2547    0.0000 </r>
       <r>   10.4283    0.0000 </r>
       <r>   10.8817    0.0000 </r>
       <r>   11.0000    0.0000 </r>
      </set>
      <set comment="kpoint 31">
       <r>  -11.3926    1.0000 </r>
       <r>  -11.3863    1.0000 </r>
       <r>  -11.0869    1.0000 </r>
       <r>  -11.0837    1.0000 </r>
       <r>  -10.9398    1.0000 </r>
       <r>  -10.9388    1.0000 </r>
       <r>  -10.8969    1.0000 </r>
       <r>  -10.8957    1.0000 </r>
       <r>  -10.8267    1.0000 </r>
       <r>  -10.8265    1.0000 </r>
       <r>  -10.3286    1.0000 </r>
       <r>  -10.3286    1.0000 </r>
       <r>   -9.9376    1.0000 </r>
       <r>   -9.9375    1.0000 </r>
       <r>   -9.8706    1.0000 </r>
       <r>   -9.8706    1.0000 </r>
       <r>   -9.7958    1.0000 </r>
       <r>   -9.7958    1.0000 </r>
       <r>   -9.7636    1.0000 </r>
       <r>   -9.7636    1.0000 </r>
       <r>   -8.4966    1.0000 </r>
       <r>   -8.3831    1.0000 </r>
       <r>   -7.9168    1.0000 </r>
       <r>   -7.9128    1.0000 </r>
       <r>   -7.7966    1.0000 </r>
       <r>   -7.5527    1.0000 </r>
       <r>   -6.9357    1.0000 </r>
       <r>   -6.9350    1.0000 </r>
       <r>   -2.6461    1.0000 </r>
       <r>   -2.4879    1.0000 </r>
       <r>   -2.0638    1.0000 </r>
       <r>   -1.9433    1.0000 </r>
       <r>   -1.9087    1.0000 </r>
       <r>   -1.8951    1.0000 </r>
       <r>   -1.8006    1.0000 </r>
       <r>   -1.7792    1.0000 </r>
       <r>   -1.7515    1.0000 </r>
       <r>   -1.5894    1.0000 </r>
       <r>   -1.5628    1.0000 </r>
       <r>   -1.5450    1.0000 </r>
       <r>   -1.4703    1.0000 </r>
       <r>   -1.3718    1.0000 </r>
       <r>   -0.5613    1.0000 </r>
       <r>   -0.1059    1.0000 </r>
       <r>    0.0578    1.0000 </r>
       <r>    0.2108    1.0000 </r>
       <r>    0.2610    1.0000 </r>
       <r>    0.3613    1.0000 </r>
       <r>    0.7578    1.0000 </r>
       <r>    0.7936    1.0000 </r>
       <r>    1.3749    1.0000 </r>
       <r>    1.4690    1.0000 </r>
       <r>    1.5838    1.0000 </r>
       <r>    1.6951    1.0000 </r>
       <r>    1.7920    1.0000 </r>
       <r>    2.1427    1.0000 </r>
       <r>    2.7056    1.0000 </r>
       <r>    2.8008    1.0000 </r>
       <r>    3.0574    1.0000 </r>
       <r>    3.1726    1.0000 </r>
       <r>    3.3294    1.0000 </r>
       <r>    3.5188    1.0000 </r>
       <r>    5.6054    0.0000 </r>
       <r>    5.8003    0.0000 </r>
       <r>    6.1321    0.0000 </r>
       <r>    6.3221    0.0000 </r>
       <r>    6.9610    0.0000 </r>
       <r>    7.1282    0.0000 </r>
       <r>    8.0042    0.0000 </r>
       <r>    8.6438    0.0000 </r>
       <r>    8.7922    0.0000 </r>
       <r>    8.8388    0.0000 </r>
       <r>    9.2911    0.0000 </r>
       <r>    9.4356    0.0000 </r>
       <r>    9.5596    0.0000 </r>
       <r>    9.7300    0.0000 </r>
       <r>   10.2369    0.0000 </r>
       <r>   10.2995    0.0000 </r>
       <r>   10.9049    0.0000 </r>
       <r>   10.9861    0.0000 </r>
      </set>
      <set comment="kpoint 32">
       <r>  -11.3080    1.0000 </r>
       <r>  -11.2977    1.0000 </r>
       <r>  -11.0961    1.0000 </r>
       <r>  -11.0907    1.0000 </r>
       <r>  -10.9611    1.0000 </r>
       <r>  -10.9603    1.0000 </r>
       <r>  -10.8821    1.0000 </r>
       <r>  -10.8808    1.0000 </r>
       <r>  -10.8432    1.0000 </r>
       <r>  -10.8431    1.0000 </r>
       <r>  -10.1986    1.0000 </r>
       <r>  -10.1985    1.0000 </r>
       <r>   -9.9667    1.0000 </r>
       <r>   -9.9667    1.0000 </r>
       <r>   -9.8516    1.0000 </r>
       <r>   -9.8516    1.0000 </r>
       <r>   -9.8377    1.0000 </r>
       <r>   -9.8377    1.0000 </r>
       <r>   -9.7869    1.0000 </r>
       <r>   -9.7869    1.0000 </r>
       <r>   -9.1332    1.0000 </r>
       <r>   -8.9449    1.0000 </r>
       <r>   -8.3245    1.0000 </r>
       <r>   -8.3147    1.0000 </r>
       <r>   -8.1631    1.0000 </r>
       <r>   -7.6972    1.0000 </r>
       <r>   -7.2248    1.0000 </r>
       <r>   -7.2183    1.0000 </r>
       <r>   -2.2106    1.0000 </r>
       <r>   -2.0667    1.0000 </r>
       <r>   -2.0305    1.0000 </r>
       <r>   -1.9793    1.0000 </r>
       <r>   -1.9342    1.0000 </r>
       <r>   -1.9074    1.0000 </r>
       <r>   -1.8576    1.0000 </r>
       <r>   -1.7816    1.0000 </r>
       <r>   -1.7081    1.0000 </r>
       <r>   -1.5219    1.0000 </r>
       <r>   -1.4803    1.0000 </r>
       <r>   -1.4234    1.0000 </r>
       <r>   -0.6820    1.0000 </r>
       <r>   -0.5934    1.0000 </r>
       <r>   -0.1017    1.0000 </r>
       <r>    0.4453    1.0000 </r>
       <r>    0.6367    1.0000 </r>
       <r>    0.7343    1.0000 </r>
       <r>    0.7680    1.0000 </r>
       <r>    0.9896    1.0000 </r>
       <r>    1.1391    1.0000 </r>
       <r>    1.1610    1.0000 </r>
       <r>    1.2407    1.0000 </r>
       <r>    1.6757    1.0000 </r>
       <r>    1.9037    1.0000 </r>
       <r>    2.2034    1.0000 </r>
       <r>    2.4931    1.0000 </r>
       <r>    2.6401    1.0000 </r>
       <r>    2.7131    1.0000 </r>
       <r>    2.8263    1.0000 </r>
       <r>    2.9932    1.0000 </r>
       <r>    3.1415    1.0000 </r>
       <r>    3.3860    1.0000 </r>
       <r>    4.0081    1.0000 </r>
       <r>    6.0823    0.0000 </r>
       <r>    6.1587    0.0000 </r>
       <r>    6.7546    0.0000 </r>
       <r>    6.8522    0.0000 </r>
       <r>    7.7127    0.0000 </r>
       <r>    7.7162    0.0000 </r>
       <r>    8.4138    0.0000 </r>
       <r>    8.7169    0.0000 </r>
       <r>    8.8201    0.0000 </r>
       <r>    9.1230    0.0000 </r>
       <r>    9.4395    0.0000 </r>
       <r>    9.5293    0.0000 </r>
       <r>    9.6370    0.0000 </r>
       <r>    9.8004    0.0000 </r>
       <r>    9.9125    0.0000 </r>
       <r>   10.1292    0.0000 </r>
       <r>   10.5434    0.0000 </r>
       <r>   10.6762    0.0000 </r>
      </set>
      <set comment="kpoint 33">
       <r>  -11.3534    1.0000 </r>
       <r>  -11.3438    1.0000 </r>
       <r>  -11.0923    1.0000 </r>
       <r>  -11.0886    1.0000 </r>
       <r>  -10.9519    1.0000 </r>
       <r>  -10.9511    1.0000 </r>
       <r>  -10.8861    1.0000 </r>
       <r>  -10.8851    1.0000 </r>
       <r>  -10.8405    1.0000 </r>
       <r>  -10.8404    1.0000 </r>
       <r>  -10.2525    1.0000 </r>
       <r>  -10.2524    1.0000 </r>
       <r>   -9.9815    1.0000 </r>
       <r>   -9.9815    1.0000 </r>
       <r>   -9.8486    1.0000 </r>
       <r>   -9.8485    1.0000 </r>
       <r>   -9.8274    1.0000 </r>
       <r>   -9.8273    1.0000 </r>
       <r>   -9.7759    1.0000 </r>
       <r>   -9.7759    1.0000 </r>
       <r>   -8.7976    1.0000 </r>
       <r>   -8.6370    1.0000 </r>
       <r>   -8.0781    1.0000 </r>
       <r>   -8.0724    1.0000 </r>
       <r>   -7.9657    1.0000 </r>
       <r>   -7.6023    1.0000 </r>
       <r>   -7.0625    1.0000 </r>
       <r>   -7.0606    1.0000 </r>
       <r>   -2.2480    1.0000 </r>
       <r>   -2.1486    1.0000 </r>
       <r>   -2.0585    1.0000 </r>
       <r>   -2.0052    1.0000 </r>
       <r>   -1.9592    1.0000 </r>
       <r>   -1.8948    1.0000 </r>
       <r>   -1.8516    1.0000 </r>
       <r>   -1.8029    1.0000 </r>
       <r>   -1.7579    1.0000 </r>
       <r>   -1.5318    1.0000 </r>
       <r>   -1.4824    1.0000 </r>
       <r>   -1.3683    1.0000 </r>
       <r>   -1.0987    1.0000 </r>
       <r>   -1.0723    1.0000 </r>
       <r>   -0.1901    1.0000 </r>
       <r>    0.1299    1.0000 </r>
       <r>    0.2363    1.0000 </r>
       <r>    0.3015    1.0000 </r>
       <r>    0.5154    1.0000 </r>
       <r>    0.5229    1.0000 </r>
       <r>    0.7432    1.0000 </r>
       <r>    0.8930    1.0000 </r>
       <r>    1.0772    1.0000 </r>
       <r>    1.4591    1.0000 </r>
       <r>    1.6900    1.0000 </r>
       <r>    1.8583    1.0000 </r>
       <r>    2.1365    1.0000 </r>
       <r>    2.2361    1.0000 </r>
       <r>    2.5192    1.0000 </r>
       <r>    2.6396    1.0000 </r>
       <r>    2.8118    1.0000 </r>
       <r>    3.0652    1.0000 </r>
       <r>    3.4115    1.0000 </r>
       <r>    3.8032    1.0000 </r>
       <r>    6.1107    0.0000 </r>
       <r>    6.3467    0.0000 </r>
       <r>    6.5363    0.0000 </r>
       <r>    6.6496    0.0000 </r>
       <r>    7.5561    0.0000 </r>
       <r>    7.7235    0.0000 </r>
       <r>    8.4142    0.0000 </r>
       <r>    8.9468    0.0000 </r>
       <r>    8.9623    0.0000 </r>
       <r>    9.3013    0.0000 </r>
       <r>    9.4328    0.0000 </r>
       <r>    9.5606    0.0000 </r>
       <r>    9.6903    0.0000 </r>
       <r>   10.0801    0.0000 </r>
       <r>   10.2562    0.0000 </r>
       <r>   10.4583    0.0000 </r>
       <r>   10.5519    0.0000 </r>
       <r>   10.9545    0.0000 </r>
      </set>
      <set comment="kpoint 34">
       <r>  -11.3840    1.0000 </r>
       <r>  -11.3773    1.0000 </r>
       <r>  -11.0873    1.0000 </r>
       <r>  -11.0846    1.0000 </r>
       <r>  -10.9475    1.0000 </r>
       <r>  -10.9465    1.0000 </r>
       <r>  -10.8883    1.0000 </r>
       <r>  -10.8874    1.0000 </r>
       <r>  -10.8370    1.0000 </r>
       <r>  -10.8368    1.0000 </r>
       <r>  -10.2904    1.0000 </r>
       <r>  -10.2903    1.0000 </r>
       <r>   -9.9905    1.0000 </r>
       <r>   -9.9905    1.0000 </r>
       <r>   -9.8536    1.0000 </r>
       <r>   -9.8536    1.0000 </r>
       <r>   -9.8079    1.0000 </r>
       <r>   -9.8079    1.0000 </r>
       <r>   -9.7737    1.0000 </r>
       <r>   -9.7737    1.0000 </r>
       <r>   -8.5085    1.0000 </r>
       <r>   -8.3892    1.0000 </r>
       <r>   -7.8756    1.0000 </r>
       <r>   -7.8712    1.0000 </r>
       <r>   -7.7987    1.0000 </r>
       <r>   -7.5517    1.0000 </r>
       <r>   -6.9572    1.0000 </r>
       <r>   -6.9566    1.0000 </r>
       <r>   -2.5015    1.0000 </r>
       <r>   -2.3379    1.0000 </r>
       <r>   -2.0602    1.0000 </r>
       <r>   -1.9540    1.0000 </r>
       <r>   -1.9006    1.0000 </r>
       <r>   -1.8918    1.0000 </r>
       <r>   -1.8178    1.0000 </r>
       <r>   -1.7808    1.0000 </r>
       <r>   -1.7703    1.0000 </r>
       <r>   -1.5311    1.0000 </r>
       <r>   -1.4929    1.0000 </r>
       <r>   -1.4448    1.0000 </r>
       <r>   -1.4315    1.0000 </r>
       <r>   -1.3325    1.0000 </r>
       <r>   -0.3337    1.0000 </r>
       <r>   -0.1273    1.0000 </r>
       <r>   -0.0028    1.0000 </r>
       <r>    0.0705    1.0000 </r>
       <r>    0.1969    1.0000 </r>
       <r>    0.2830    1.0000 </r>
       <r>    0.5742    1.0000 </r>
       <r>    0.7518    1.0000 </r>
       <r>    1.0747    1.0000 </r>
       <r>    1.3186    1.0000 </r>
       <r>    1.3583    1.0000 </r>
       <r>    1.6993    1.0000 </r>
       <r>    1.7799    1.0000 </r>
       <r>    2.1847    1.0000 </r>
       <r>    2.3664    1.0000 </r>
       <r>    2.5266    1.0000 </r>
       <r>    2.6667    1.0000 </r>
       <r>    3.1184    1.0000 </r>
       <r>    3.4142    1.0000 </r>
       <r>    3.5760    1.0000 </r>
       <r>    6.0458    0.0000 </r>
       <r>    6.2782    0.0000 </r>
       <r>    6.3397    0.0000 </r>
       <r>    6.5284    0.0000 </r>
       <r>    7.4516    0.0000 </r>
       <r>    7.5412    0.0000 </r>
       <r>    8.6467    0.0000 </r>
       <r>    8.8931    0.0000 </r>
       <r>    8.9366    0.0000 </r>
       <r>    9.1847    0.0000 </r>
       <r>    9.3217    0.0000 </r>
       <r>    9.4141    0.0000 </r>
       <r>    9.7677    0.0000 </r>
       <r>   10.1564    0.0000 </r>
       <r>   10.4022    0.0000 </r>
       <r>   10.5451    0.0000 </r>
       <r>   10.8548    0.0000 </r>
       <r>   11.0351    0.0000 </r>
      </set>
      <set comment="kpoint 35">
       <r>  -11.3944    1.0000 </r>
       <r>  -11.3897    1.0000 </r>
       <r>  -11.0852    1.0000 </r>
       <r>  -11.0828    1.0000 </r>
       <r>  -10.9463    1.0000 </r>
       <r>  -10.9452    1.0000 </r>
       <r>  -10.8890    1.0000 </r>
       <r>  -10.8881    1.0000 </r>
       <r>  -10.8353    1.0000 </r>
       <r>  -10.8351    1.0000 </r>
       <r>  -10.3040    1.0000 </r>
       <r>  -10.3039    1.0000 </r>
       <r>   -9.9936    1.0000 </r>
       <r>   -9.9936    1.0000 </r>
       <r>   -9.8556    1.0000 </r>
       <r>   -9.8556    1.0000 </r>
       <r>   -9.7967    1.0000 </r>
       <r>   -9.7967    1.0000 </r>
       <r>   -9.7769    1.0000 </r>
       <r>   -9.7769    1.0000 </r>
       <r>   -8.3836    1.0000 </r>
       <r>   -8.2961    1.0000 </r>
       <r>   -7.7954    1.0000 </r>
       <r>   -7.7939    1.0000 </r>
       <r>   -7.7245    1.0000 </r>
       <r>   -7.5460    1.0000 </r>
       <r>   -6.9231    1.0000 </r>
       <r>   -6.9221    1.0000 </r>
       <r>   -2.5990    1.0000 </r>
       <r>   -2.4750    1.0000 </r>
       <r>   -2.0118    1.0000 </r>
       <r>   -1.9393    1.0000 </r>
       <r>   -1.8944    1.0000 </r>
       <r>   -1.8778    1.0000 </r>
       <r>   -1.8136    1.0000 </r>
       <r>   -1.7656    1.0000 </r>
       <r>   -1.7455    1.0000 </r>
       <r>   -1.5821    1.0000 </r>
       <r>   -1.5740    1.0000 </r>
       <r>   -1.5051    1.0000 </r>
       <r>   -1.4770    1.0000 </r>
       <r>   -1.3675    1.0000 </r>
       <r>   -0.5004    1.0000 </r>
       <r>   -0.1381    1.0000 </r>
       <r>   -0.0962    1.0000 </r>
       <r>    0.0074    1.0000 </r>
       <r>    0.1303    1.0000 </r>
       <r>    0.1816    1.0000 </r>
       <r>    0.5017    1.0000 </r>
       <r>    0.6745    1.0000 </r>
       <r>    1.1812    1.0000 </r>
       <r>    1.2628    1.0000 </r>
       <r>    1.3647    1.0000 </r>
       <r>    1.4417    1.0000 </r>
       <r>    1.6105    1.0000 </r>
       <r>    2.1766    1.0000 </r>
       <r>    2.4419    1.0000 </r>
       <r>    2.4552    1.0000 </r>
       <r>    2.6324    1.0000 </r>
       <r>    3.1233    1.0000 </r>
       <r>    3.4009    1.0000 </r>
       <r>    3.4760    1.0000 </r>
       <r>    6.0119    0.0000 </r>
       <r>    6.1851    0.0000 </r>
       <r>    6.2686    0.0000 </r>
       <r>    6.5196    0.0000 </r>
       <r>    7.4341    0.0000 </r>
       <r>    7.4500    0.0000 </r>
       <r>    8.7550    0.0000 </r>
       <r>    8.8003    0.0000 </r>
       <r>    8.8854    0.0000 </r>
       <r>    9.1846    0.0000 </r>
       <r>    9.3094    0.0000 </r>
       <r>    9.3231    0.0000 </r>
       <r>    9.7470    0.0000 </r>
       <r>   10.1366    0.0000 </r>
       <r>   10.4866    0.0000 </r>
       <r>   10.4986    0.0000 </r>
       <r>   10.8370    0.0000 </r>
       <r>   11.0518    0.0000 </r>
      </set>
      <set comment="kpoint 36">
       <r>  -11.3795    1.0000 </r>
       <r>  -11.3726    1.0000 </r>
       <r>  -11.0876    1.0000 </r>
       <r>  -11.0852    1.0000 </r>
       <r>  -10.9514    1.0000 </r>
       <r>  -10.9504    1.0000 </r>
       <r>  -10.8824    1.0000 </r>
       <r>  -10.8817    1.0000 </r>
       <r>  -10.8436    1.0000 </r>
       <r>  -10.8435    1.0000 </r>
       <r>  -10.2652    1.0000 </r>
       <r>  -10.2651    1.0000 </r>
       <r>  -10.0234    1.0000 </r>
       <r>  -10.0233    1.0000 </r>
       <r>   -9.8349    1.0000 </r>
       <r>   -9.8349    1.0000 </r>
       <r>   -9.8258    1.0000 </r>
       <r>   -9.8257    1.0000 </r>
       <r>   -9.7767    1.0000 </r>
       <r>   -9.7767    1.0000 </r>
       <r>   -8.5141    1.0000 </r>
       <r>   -8.3920    1.0000 </r>
       <r>   -7.8573    1.0000 </r>
       <r>   -7.8511    1.0000 </r>
       <r>   -7.7964    1.0000 </r>
       <r>   -7.5514    1.0000 </r>
       <r>   -6.9686    1.0000 </r>
       <r>   -6.9681    1.0000 </r>
       <r>   -2.4167    1.0000 </r>
       <r>   -2.2542    1.0000 </r>
       <r>   -2.0621    1.0000 </r>
       <r>   -1.9583    1.0000 </r>
       <r>   -1.8992    1.0000 </r>
       <r>   -1.8622    1.0000 </r>
       <r>   -1.8336    1.0000 </r>
       <r>   -1.8061    1.0000 </r>
       <r>   -1.7682    1.0000 </r>
       <r>   -1.5085    1.0000 </r>
       <r>   -1.5050    1.0000 </r>
       <r>   -1.3637    1.0000 </r>
       <r>   -1.3588    1.0000 </r>
       <r>   -1.3189    1.0000 </r>
       <r>   -0.2416    1.0000 </r>
       <r>   -0.1415    1.0000 </r>
       <r>   -0.1055    1.0000 </r>
       <r>    0.0174    1.0000 </r>
       <r>    0.1134    1.0000 </r>
       <r>    0.2316    1.0000 </r>
       <r>    0.6744    1.0000 </r>
       <r>    0.7791    1.0000 </r>
       <r>    0.8672    1.0000 </r>
       <r>    1.0868    1.0000 </r>
       <r>    1.3036    1.0000 </r>
       <r>    1.8179    1.0000 </r>
       <r>    1.8331    1.0000 </r>
       <r>    2.1621    1.0000 </r>
       <r>    2.1939    1.0000 </r>
       <r>    2.3915    1.0000 </r>
       <r>    2.4084    1.0000 </r>
       <r>    3.1215    1.0000 </r>
       <r>    3.4455    1.0000 </r>
       <r>    3.5979    1.0000 </r>
       <r>    6.2921    0.0000 </r>
       <r>    6.4095    0.0000 </r>
       <r>    6.5372    0.0000 </r>
       <r>    6.5461    0.0000 </r>
       <r>    7.7687    0.0000 </r>
       <r>    7.9255    0.0000 </r>
       <r>    8.2799    0.0000 </r>
       <r>    9.0390    0.0000 </r>
       <r>    9.3565    0.0000 </r>
       <r>    9.3705    0.0000 </r>
       <r>    9.7024    0.0000 </r>
       <r>    9.7069    0.0000 </r>
       <r>    9.9560    0.0000 </r>
       <r>   10.1767    0.0000 </r>
       <r>   10.5914    0.0000 </r>
       <r>   10.6426    0.0000 </r>
       <r>   10.8062    0.0000 </r>
       <r>   11.0604    0.0000 </r>
      </set>
      <set comment="kpoint 37">
       <r>  -11.3927    1.0000 </r>
       <r>  -11.3891    1.0000 </r>
       <r>  -11.0840    1.0000 </r>
       <r>  -11.0826    1.0000 </r>
       <r>  -10.9522    1.0000 </r>
       <r>  -10.9511    1.0000 </r>
       <r>  -10.8778    1.0000 </r>
       <r>  -10.8771    1.0000 </r>
       <r>  -10.8475    1.0000 </r>
       <r>  -10.8473    1.0000 </r>
       <r>  -10.2684    1.0000 </r>
       <r>  -10.2684    1.0000 </r>
       <r>  -10.0506    1.0000 </r>
       <r>  -10.0505    1.0000 </r>
       <r>   -9.8341    1.0000 </r>
       <r>   -9.8341    1.0000 </r>
       <r>   -9.8082    1.0000 </r>
       <r>   -9.8082    1.0000 </r>
       <r>   -9.7878    1.0000 </r>
       <r>   -9.7878    1.0000 </r>
       <r>   -8.3187    1.0000 </r>
       <r>   -8.2510    1.0000 </r>
       <r>   -7.7089    1.0000 </r>
       <r>   -7.7039    1.0000 </r>
       <r>   -7.6763    1.0000 </r>
       <r>   -7.5481    1.0000 </r>
       <r>   -6.9280    1.0000 </r>
       <r>   -6.9269    1.0000 </r>
       <r>   -2.4991    1.0000 </r>
       <r>   -2.4055    1.0000 </r>
       <r>   -1.9745    1.0000 </r>
       <r>   -1.9306    1.0000 </r>
       <r>   -1.8619    1.0000 </r>
       <r>   -1.8552    1.0000 </r>
       <r>   -1.8378    1.0000 </r>
       <r>   -1.7994    1.0000 </r>
       <r>   -1.7592    1.0000 </r>
       <r>   -1.5601    1.0000 </r>
       <r>   -1.5390    1.0000 </r>
       <r>   -1.5163    1.0000 </r>
       <r>   -1.4125    1.0000 </r>
       <r>   -1.3254    1.0000 </r>
       <r>   -0.5001    1.0000 </r>
       <r>   -0.3050    1.0000 </r>
       <r>   -0.2182    1.0000 </r>
       <r>   -0.0991    1.0000 </r>
       <r>   -0.0577    1.0000 </r>
       <r>    0.0872    1.0000 </r>
       <r>    0.5953    1.0000 </r>
       <r>    0.6642    1.0000 </r>
       <r>    0.7075    1.0000 </r>
       <r>    1.0790    1.0000 </r>
       <r>    1.3203    1.0000 </r>
       <r>    1.4691    1.0000 </r>
       <r>    1.5489    1.0000 </r>
       <r>    1.9421    1.0000 </r>
       <r>    2.1095    1.0000 </r>
       <r>    2.1901    1.0000 </r>
       <r>    2.6243    1.0000 </r>
       <r>    3.1029    1.0000 </r>
       <r>    3.4352    1.0000 </r>
       <r>    3.4476    1.0000 </r>
       <r>    6.2531    0.0000 </r>
       <r>    6.3722    0.0000 </r>
       <r>    6.4320    0.0000 </r>
       <r>    6.6100    0.0000 </r>
       <r>    7.6983    0.0000 </r>
       <r>    7.9597    0.0000 </r>
       <r>    8.5533    0.0000 </r>
       <r>    8.9293    0.0000 </r>
       <r>    9.3637    0.0000 </r>
       <r>    9.4403    0.0000 </r>
       <r>    9.6436    0.0000 </r>
       <r>    9.8515    0.0000 </r>
       <r>   10.0193    0.0000 </r>
       <r>   10.5693    0.0000 </r>
       <r>   10.7801    0.0000 </r>
       <r>   10.8448    0.0000 </r>
       <r>   10.9444    0.0000 </r>
       <r>   11.0590    0.0000 </r>
      </set>
      <set comment="kpoint 38">
       <r>  -11.3941    1.0000 </r>
       <r>  -11.3941    1.0000 </r>
       <r>  -11.0822    1.0000 </r>
       <r>  -11.0821    1.0000 </r>
       <r>  -10.9544    1.0000 </r>
       <r>  -10.9533    1.0000 </r>
       <r>  -10.8666    1.0000 </r>
       <r>  -10.8660    1.0000 </r>
       <r>  -10.8586    1.0000 </r>
       <r>  -10.8586    1.0000 </r>
       <r>  -10.2518    1.0000 </r>
       <r>  -10.2517    1.0000 </r>
       <r>  -10.0814    1.0000 </r>
       <r>  -10.0814    1.0000 </r>
       <r>   -9.8158    1.0000 </r>
       <r>   -9.8157    1.0000 </r>
       <r>   -9.8068    1.0000 </r>
       <r>   -9.8068    1.0000 </r>
       <r>   -9.8061    1.0000 </r>
       <r>   -9.8061    1.0000 </r>
       <r>   -8.2231    1.0000 </r>
       <r>   -8.2231    1.0000 </r>
       <r>   -7.6342    1.0000 </r>
       <r>   -7.6342    1.0000 </r>
       <r>   -7.5911    1.0000 </r>
       <r>   -7.5911    1.0000 </r>
       <r>   -6.9235    1.0000 </r>
       <r>   -6.9234    1.0000 </r>
       <r>   -2.4464    1.0000 </r>
       <r>   -2.4464    1.0000 </r>
       <r>   -1.9186    1.0000 </r>
       <r>   -1.9186    1.0000 </r>
       <r>   -1.8772    1.0000 </r>
       <r>   -1.8392    1.0000 </r>
       <r>   -1.8067    1.0000 </r>
       <r>   -1.8067    1.0000 </r>
       <r>   -1.7931    1.0000 </r>
       <r>   -1.5962    1.0000 </r>
       <r>   -1.5701    1.0000 </r>
       <r>   -1.5394    1.0000 </r>
       <r>   -1.3319    1.0000 </r>
       <r>   -1.3319    1.0000 </r>
       <r>   -0.6953    1.0000 </r>
       <r>   -0.4004    1.0000 </r>
       <r>   -0.1775    1.0000 </r>
       <r>   -0.1775    1.0000 </r>
       <r>   -0.0487    1.0000 </r>
       <r>   -0.0487    1.0000 </r>
       <r>    0.3972    1.0000 </r>
       <r>    0.6650    1.0000 </r>
       <r>    0.6650    1.0000 </r>
       <r>    1.2263    1.0000 </r>
       <r>    1.3119    1.0000 </r>
       <r>    1.3259    1.0000 </r>
       <r>    1.3259    1.0000 </r>
       <r>    1.8846    1.0000 </r>
       <r>    1.9667    1.0000 </r>
       <r>    1.9667    1.0000 </r>
       <r>    2.9121    1.0000 </r>
       <r>    2.9121    1.0000 </r>
       <r>    3.4241    1.0000 </r>
       <r>    3.4241    1.0000 </r>
       <r>    6.1761    0.0000 </r>
       <r>    6.4471    0.0000 </r>
       <r>    6.5783    0.0000 </r>
       <r>    6.5783    0.0000 </r>
       <r>    7.7102    0.0000 </r>
       <r>    8.1261    0.0000 </r>
       <r>    8.7268    0.0000 </r>
       <r>    8.7268    0.0000 </r>
       <r>    9.4942    0.0000 </r>
       <r>    9.4942    0.0000 </r>
       <r>    9.9719    0.0000 </r>
       <r>   10.1182    0.0000 </r>
       <r>   10.1182    0.0000 </r>
       <r>   10.6987    0.0000 </r>
       <r>   10.9230    0.0000 </r>
       <r>   10.9230    0.0000 </r>
       <r>   11.2670    0.0000 </r>
       <r>   11.3139    0.0000 </r>
      </set>
     </set>
    </set>
   </array>
  </eigenvalues>
  <separator name="orbital magnetization" >
   <v name="MAGDIPOLOUT">      0.00000000      0.00000000      0.00000000</v>
  </separator>
  <dos>
   <i name="efermi">      4.32601361 </i>
   <total>
    <array>
     <dimension dim="1">gridpoints</dimension>
     <dimension dim="2">spin</dimension>
     <field>energy</field>
     <field>total</field>
     <field>integrated</field>
     <set>
      <set comment="spin 1">
       <r>   -12.5326     0.0000     0.0000 </r>
       <r>   -12.4493     0.0000     0.0000 </r>
       <r>   -12.3660     0.0000     0.0000 </r>
       <r>   -12.2827     0.0000     0.0000 </r>
       <r>   -12.1994     0.0000     0.0000 </r>
       <r>   -12.1161     0.0000     0.0000 </r>
       <r>   -12.0328     0.0000     0.0000 </r>
       <r>   -11.9496     0.0000     0.0000 </r>
       <r>   -11.8663     0.0000     0.0000 </r>
       <r>   -11.7830     0.0000     0.0000 </r>
       <r>   -11.6997     0.0000     0.0000 </r>
       <r>   -11.6164     0.0000     0.0000 </r>
       <r>   -11.5331     0.0004     0.0000 </r>
       <r>   -11.4498     0.7967     0.0664 </r>
       <r>   -11.3665    16.9637     1.4794 </r>
       <r>   -11.2832    18.2319     2.9980 </r>
       <r>   -11.1999     9.7393     3.8092 </r>
       <r>   -11.1166    11.3659     4.7559 </r>
       <r>   -11.0333    35.7745     7.7357 </r>
       <r>   -10.9500    31.8832    10.3914 </r>
       <r>   -10.8667    61.5404    15.5174 </r>
       <r>   -10.7834    50.6318    19.7348 </r>
       <r>   -10.7001     3.1814    19.9998 </r>
       <r>   -10.6168     0.0030    20.0000 </r>
       <r>   -10.5335     0.0000    20.0000 </r>
       <r>   -10.4503     0.0029    20.0002 </r>
       <r>   -10.3670     1.2693    20.1060 </r>
       <r>   -10.2837    14.8290    21.3411 </r>
       <r>   -10.2004    17.7599    22.8204 </r>
       <r>   -10.1171     7.4270    23.4391 </r>
       <r>   -10.0338     9.5025    24.2306 </r>
       <r>    -9.9505    25.8625    26.3848 </r>
       <r>    -9.8672    47.3559    30.3292 </r>
       <r>    -9.7839    82.5006    37.2011 </r>
       <r>    -9.7006    34.9409    40.1115 </r>
       <r>    -9.6173     2.5514    40.3240 </r>
       <r>    -9.5340     0.5723    40.3716 </r>
       <r>    -9.4507     1.6117    40.5059 </r>
       <r>    -9.3674     2.1988    40.6890 </r>
       <r>    -9.2841     0.9405    40.7674 </r>
       <r>    -9.2008     1.6935    40.9084 </r>
       <r>    -9.1175     1.8727    41.0644 </r>
       <r>    -9.0342     2.3956    41.2640 </r>
       <r>    -8.9510     1.1662    41.3611 </r>
       <r>    -8.8677     2.9228    41.6045 </r>
       <r>    -8.7844     3.7134    41.9138 </r>
       <r>    -8.7011     5.0655    42.3358 </r>
       <r>    -8.6178     5.1267    42.7628 </r>
       <r>    -8.5345     6.7495    43.3250 </r>
       <r>    -8.4512     9.5591    44.1212 </r>
       <r>    -8.3679     7.3445    44.7330 </r>
       <r>    -8.2846     9.8738    45.5554 </r>
       <r>    -8.2013     6.7689    46.1192 </r>
       <r>    -8.1180     4.1481    46.4647 </r>
       <r>    -8.0347     7.7352    47.1090 </r>
       <r>    -7.9514     7.3160    47.7184 </r>
       <r>    -7.8681    10.8802    48.6247 </r>
       <r>    -7.7848    10.6288    49.5100 </r>
       <r>    -7.7015     9.4716    50.2989 </r>
       <r>    -7.6182     9.6101    51.0994 </r>
       <r>    -7.5350    12.4984    52.1404 </r>
       <r>    -7.4517     4.8309    52.5428 </r>
       <r>    -7.3684     3.0122    52.7937 </r>
       <r>    -7.2851     2.5152    53.0032 </r>
       <r>    -7.2018     3.2678    53.2754 </r>
       <r>    -7.1185     4.0869    53.6158 </r>
       <r>    -7.0352     5.7679    54.0963 </r>
       <r>    -6.9519    11.1848    55.0279 </r>
       <r>    -6.8686    11.1050    55.9529 </r>
       <r>    -6.7853     0.5654    56.0000 </r>
       <r>    -6.7020     0.0003    56.0000 </r>
       <r>    -6.6187     0.0000    56.0000 </r>
       <r>    -6.5354     0.0000    56.0000 </r>
       <r>    -6.4521     0.0000    56.0000 </r>
       <r>    -6.3688     0.0000    56.0000 </r>
       <r>    -6.2855     0.0000    56.0000 </r>
       <r>    -6.2022     0.0000    56.0000 </r>
       <r>    -6.1189     0.0000    56.0000 </r>
       <r>    -6.0357     0.0000    56.0000 </r>
       <r>    -5.9524     0.0000    56.0000 </r>
       <r>    -5.8691     0.0000    56.0000 </r>
       <r>    -5.7858     0.0000    56.0000 </r>
       <r>    -5.7025     0.0000    56.0000 </r>
       <r>    -5.6192     0.0000    56.0000 </r>
       <r>    -5.5359     0.0000    56.0000 </r>
       <r>    -5.4526     0.0000    56.0000 </r>
       <r>    -5.3693     0.0000    56.0000 </r>
       <r>    -5.2860     0.0000    56.0000 </r>
       <r>    -5.2027     0.0000    56.0000 </r>
       <r>    -5.1194     0.0000    56.0000 </r>
       <r>    -5.0361     0.0000    56.0000 </r>
       <r>    -4.9528     0.0000    56.0000 </r>
       <r>    -4.8695     0.0000    56.0000 </r>
       <r>    -4.7862     0.0000    56.0000 </r>
       <r>    -4.7029     0.0000    56.0000 </r>
       <r>    -4.6196     0.0000    56.0000 </r>
       <r>    -4.5364     0.0000    56.0000 </r>
       <r>    -4.4531     0.0000    56.0000 </r>
       <r>    -4.3698     0.0000    56.0000 </r>
       <r>    -4.2865     0.0000    56.0000 </r>
       <r>    -4.2032     0.0000    56.0000 </r>
       <r>    -4.1199     0.0000    56.0000 </r>
       <r>    -4.0366     0.0000    56.0000 </r>
       <r>    -3.9533     0.0000    56.0000 </r>
       <r>    -3.8700     0.0000    56.0000 </r>
       <r>    -3.7867     0.0000    56.0000 </r>
       <r>    -3.7034     0.0000    56.0000 </r>
       <r>    -3.6201     0.0000    56.0000 </r>
       <r>    -3.5368     0.0000    56.0000 </r>
       <r>    -3.4535     0.0000    56.0000 </r>
       <r>    -3.3702     0.0000    56.0000 </r>
       <r>    -3.2869     0.0000    56.0000 </r>
       <r>    -3.2036     0.0000    56.0000 </r>
       <r>    -3.1203     0.0000    56.0000 </r>
       <r>    -3.0371     0.0000    56.0000 </r>
       <r>    -2.9538     0.0000    56.0000 </r>
       <r>    -2.8705     0.0000    56.0000 </r>
       <r>    -2.7872     0.0069    56.0006 </r>
       <r>    -2.7039     0.3765    56.0319 </r>
       <r>    -2.6206     2.0105    56.1994 </r>
       <r>    -2.5373     3.0430    56.4529 </r>
       <r>    -2.4540     6.3250    56.9797 </r>
       <r>    -2.3707     6.0787    57.4860 </r>
       <r>    -2.2874     3.5245    57.7796 </r>
       <r>    -2.2041    11.1321    58.7068 </r>
       <r>    -2.1208    14.1071    59.8819 </r>
       <r>    -2.0375    22.9965    61.7974 </r>
       <r>    -1.9542    26.9783    64.0445 </r>
       <r>    -1.8709    40.9132    67.4523 </r>
       <r>    -1.7876    38.0283    70.6199 </r>
       <r>    -1.7043    31.3286    73.2294 </r>
       <r>    -1.6211     9.0617    73.9842 </r>
       <r>    -1.5378    22.3727    75.8477 </r>
       <r>    -1.4545    35.7345    78.8242 </r>
       <r>    -1.3712    22.6490    80.7107 </r>
       <r>    -1.2879    11.4701    81.6661 </r>
       <r>    -1.2046     3.4847    81.9563 </r>
       <r>    -1.1213     0.9391    82.0346 </r>
       <r>    -1.0380     3.8750    82.3573 </r>
       <r>    -0.9547     1.3423    82.4691 </r>
       <r>    -0.8714     0.1462    82.4813 </r>
       <r>    -0.7881     1.6370    82.6177 </r>
       <r>    -0.7048     2.3613    82.8144 </r>
       <r>    -0.6215     1.8505    82.9685 </r>
       <r>    -0.5382     3.0665    83.2239 </r>
       <r>    -0.4549     3.9836    83.5557 </r>
       <r>    -0.3716     2.1255    83.7328 </r>
       <r>    -0.2883     4.1894    84.0817 </r>
       <r>    -0.2050     6.3852    84.6136 </r>
       <r>    -0.1218    12.5326    85.6575 </r>
       <r>    -0.0385    12.1823    86.6722 </r>
       <r>     0.0448     9.6161    87.4731 </r>
       <r>     0.1281    10.6200    88.3577 </r>
       <r>     0.2114    11.9143    89.3501 </r>
       <r>     0.2947     9.5151    90.1427 </r>
       <r>     0.3780     7.5807    90.7741 </r>
       <r>     0.4613     5.6941    91.2484 </r>
       <r>     0.5446    10.0108    92.0822 </r>
       <r>     0.6279    12.5986    93.1316 </r>
       <r>     0.7112    11.3099    94.0737 </r>
       <r>     0.7945    13.6623    95.2117 </r>
       <r>     0.8778     9.6536    96.0158 </r>
       <r>     0.9611     6.6617    96.5706 </r>
       <r>     1.0444     5.1846    97.0025 </r>
       <r>     1.1277     8.8632    97.7408 </r>
       <r>     1.2110     9.1337    98.5015 </r>
       <r>     1.2943     5.3103    98.9439 </r>
       <r>     1.3775    10.6685    99.8325 </r>
       <r>     1.4608    12.9327   100.9097 </r>
       <r>     1.5441    11.1725   101.8403 </r>
       <r>     1.6274     8.6721   102.5626 </r>
       <r>     1.7107    11.8411   103.5489 </r>
       <r>     1.7940    11.9744   104.5463 </r>
       <r>     1.8773     9.8093   105.3634 </r>
       <r>     1.9606    11.4639   106.3183 </r>
       <r>     2.0439     9.1501   107.0804 </r>
       <r>     2.1272     6.8171   107.6483 </r>
       <r>     2.2105    13.0914   108.7387 </r>
       <r>     2.2938    10.8297   109.6407 </r>
       <r>     2.3771     7.3931   110.2566 </r>
       <r>     2.4604     4.3178   110.6162 </r>
       <r>     2.5437     6.3281   111.1433 </r>
       <r>     2.6270     8.3493   111.8387 </r>
       <r>     2.7103    11.2219   112.7735 </r>
       <r>     2.7935     9.6255   113.5752 </r>
       <r>     2.8768    13.9263   114.7352 </r>
       <r>     2.9601     4.5418   115.1135 </r>
       <r>     3.0434     6.3073   115.6389 </r>
       <r>     3.1267    13.2884   116.7457 </r>
       <r>     3.2100    15.8426   118.0653 </r>
       <r>     3.2933     8.4833   118.7719 </r>
       <r>     3.3766    15.0308   120.0239 </r>
       <r>     3.4599    15.2226   121.2919 </r>
       <r>     3.5432     7.4400   121.9116 </r>
       <r>     3.6265     5.8738   122.4008 </r>
       <r>     3.7098     1.8126   122.5518 </r>
       <r>     3.7931     2.6813   122.7751 </r>
       <r>     3.8764     3.7867   123.0905 </r>
       <r>     3.9597     1.9584   123.2537 </r>
       <r>     4.0430     2.8062   123.4874 </r>
       <r>     4.1263     3.4132   123.7717 </r>
       <r>     4.2096     2.5849   123.9870 </r>
       <r>     4.2928     0.1557   124.0000 </r>
       <r>     4.3761     0.0007   124.0000 </r>
       <r>     4.4594     0.0361   124.0030 </r>
       <r>     4.5427     0.0460   124.0069 </r>
       <r>     4.6260     0.0333   124.0097 </r>
       <r>     4.7093     0.0496   124.0138 </r>
       <r>     4.7926     0.0987   124.0220 </r>
       <r>     4.8759     0.5495   124.0678 </r>
       <r>     4.9592     0.3422   124.0963 </r>
       <r>     5.0425     0.0114   124.0972 </r>
       <r>     5.1258     0.0160   124.0986 </r>
       <r>     5.2091     0.1076   124.1075 </r>
       <r>     5.2924     0.6413   124.1609 </r>
       <r>     5.3757     0.9753   124.2422 </r>
       <r>     5.4590     2.2928   124.4332 </r>
       <r>     5.5423     0.9303   124.5106 </r>
       <r>     5.6256     2.2366   124.6969 </r>
       <r>     5.7089     3.7540   125.0096 </r>
       <r>     5.7921     5.8163   125.4941 </r>
       <r>     5.8754     4.2887   125.8513 </r>
       <r>     5.9587     4.5726   126.2322 </r>
       <r>     6.0420     4.6245   126.6174 </r>
       <r>     6.1253     5.7193   127.0938 </r>
       <r>     6.2086     5.1050   127.5190 </r>
       <r>     6.2919     8.2054   128.2025 </r>
       <r>     6.3752     8.1647   128.8825 </r>
       <r>     6.4585     6.9434   129.4609 </r>
       <r>     6.5418     8.3761   130.1586 </r>
       <r>     6.6251     7.0750   130.7479 </r>
       <r>     6.7084     4.2831   131.1046 </r>
       <r>     6.7917     3.6391   131.4077 </r>
       <r>     6.8750     6.1858   131.9230 </r>
       <r>     6.9583     4.3186   132.2827 </r>
       <r>     7.0416     3.3519   132.5619 </r>
       <r>     7.1249     2.5071   132.7707 </r>
       <r>     7.2082     2.5177   132.9804 </r>
       <r>     7.2914     3.7938   133.2964 </r>
       <r>     7.3747     1.7119   133.4390 </r>
       <r>     7.4580     2.4638   133.6442 </r>
       <r>     7.5413     5.0636   134.0660 </r>
       <r>     7.6246     6.0175   134.5672 </r>
       <r>     7.7079     6.0312   135.0696 </r>
       <r>     7.7912     6.5207   135.6127 </r>
       <r>     7.8745     2.9912   135.8619 </r>
       <r>     7.9578     4.7211   136.2551 </r>
       <r>     8.0411     5.9057   136.7470 </r>
       <r>     8.1244     2.0638   136.9189 </r>
       <r>     8.2077     2.5284   137.1295 </r>
       <r>     8.2910     4.0147   137.4639 </r>
       <r>     8.3743     2.4720   137.6698 </r>
       <r>     8.4576     3.9102   137.9955 </r>
       <r>     8.5409     4.9288   138.4061 </r>
       <r>     8.6242     6.9850   138.9879 </r>
       <r>     8.7074     7.9923   139.6536 </r>
       <r>     8.7907     7.2833   140.2603 </r>
       <r>     8.8740    13.4730   141.3825 </r>
       <r>     8.9573    13.3471   142.4942 </r>
       <r>     9.0406     9.4348   143.2801 </r>
       <r>     9.1239     7.0587   143.8680 </r>
       <r>     9.2072     8.6485   144.5884 </r>
       <r>     9.2905     5.9589   145.0848 </r>
       <r>     9.3738     9.7056   145.8932 </r>
       <r>     9.4571    13.3829   147.0079 </r>
       <r>     9.5404    10.8531   147.9119 </r>
       <r>     9.6237     8.4963   148.6196 </r>
       <r>     9.7070    10.2755   149.4755 </r>
       <r>     9.7903     8.0733   150.1480 </r>
       <r>     9.8736     6.8346   150.7172 </r>
       <r>     9.9569     7.2648   151.3224 </r>
       <r>    10.0402     8.4667   152.0276 </r>
       <r>    10.1235     7.8580   152.6821 </r>
       <r>    10.2067     7.8986   153.3400 </r>
       <r>    10.2900     9.1509   154.1022 </r>
       <r>    10.3733     5.2541   154.5399 </r>
       <r>    10.4566     6.6302   155.0921 </r>
       <r>    10.5399     8.1412   155.7703 </r>
       <r>    10.6232     8.4143   156.4711 </r>
       <r>    10.7065     5.7334   156.9487 </r>
       <r>    10.7898     7.7368   157.5931 </r>
       <r>    10.8731     8.0958   158.2674 </r>
       <r>    10.9564     7.1256   158.8610 </r>
       <r>    11.0397     6.9239   159.4377 </r>
       <r>    11.1230     5.6321   159.9068 </r>
       <r>    11.2063     0.4655   159.9456 </r>
       <r>    11.2896     0.3053   159.9710 </r>
       <r>    11.3729     0.3285   159.9984 </r>
       <r>    11.4562     0.0196   160.0000 </r>
       <r>    11.5395     0.0000   160.0000 </r>
       <r>    11.6228     0.0000   160.0000 </r>
       <r>    11.7060     0.0000   160.0000 </r>
       <r>    11.7893     0.0000   160.0000 </r>
       <r>    11.8726     0.0000   160.0000 </r>
       <r>    11.9559     0.0000   160.0000 </r>
       <r>    12.0392     0.0000   160.0000 </r>
       <r>    12.1225     0.0000   160.0000 </r>
       <r>    12.2058     0.0000   160.0000 </r>
       <r>    12.2891     0.0000   160.0000 </r>
       <r>    12.3724     0.0000   160.0000 </r>
       <r>    12.4557     0.0000   160.0000 </r>
      </set>
     </set>
    </array>
   </total>
  </dos>
 </calculation>
 <structure name="finalpos" >
  <crystal>
   <varray name="basis" >
    <v>       3.88964907       0.00000000      -0.00000000 </v>
    <v>      -1.94482453       3.36853491       0.00000000 </v>
    <v>      -0.00000000      -0.00000000      24.56059892 </v>
   </varray>
   <i name="volume">    321.80324972 </i>
   <varray name="rec_basis" >
    <v>       0.25709260       0.14843248       0.00000000 </v>
    <v>      -0.00000000       0.29686497       0.00000000 </v>
    <v>       0.00000000      -0.00000000       0.04071562 </v>
   </varray>
  </crystal>
  <varray name="positions" >
   <v>      -0.00000000       0.00000000       0.26953970 </v>
   <v>       0.00000000      -0.00000000       0.73046030 </v>
   <v>       0.33333334       0.66666669       0.10645982 </v>
   <v>       0.66666663       0.33333331       0.89354018 </v>
   <v>       0.33333334       0.66666669       0.20390956 </v>
   <v>       0.66666663       0.33333331       0.79609047 </v>
   <v>       0.33333334       0.66666669       0.94021881 </v>
   <v>       0.66666663       0.33333331       0.05978119 </v>
   <v>       0.33333334       0.66666669       0.68138550 </v>
   <v>       0.66666663       0.33333331       0.31861450 </v>
   <v>       0.33333334       0.66666669       0.43694477 </v>
   <v>       0.66666663       0.33333331       0.56305523 </v>
   <v>       0.33333334       0.66666669       0.54170330 </v>
   <v>       0.66666663       0.33333331       0.45829670 </v>
  </varray>
 </structure>
</modeling>
