ZnIn2S4 bulk PBE-D3BJ relaxation        
           1
     3.850000    0.000000    0.000000
    -1.925000    3.334198    0.000000
     0.000000    0.000000   24.680000
   In   S    Zn
   4   8   2
Direct configuration=     1
   0.00000000  0.00000000  0.25000000
   0.00000000  0.00000000  0.75000000
   0.33333334  0.66666669  0.09410000
   0.66666663  0.33333331  0.90590000
   0.33333334  0.66666669  0.19380000
   0.66666663  0.33333331  0.80620003
   0.33333334  0.66666669  0.93750000
   0.66666663  0.33333331  0.06250000
   0.33333334  0.66666669  0.69349998
   0.66666663  0.33333331  0.30650002
   0.33333334  0.66666669  0.43750000
   0.66666663  0.33333331  0.56250000
   0.33333334  0.66666669  0.59399998
   0.66666663  0.33333331  0.40600002
ZnIn2S4 bulk PBE-D3BJ relaxation        
           1
     3.972127    0.000000    0.000000
    -1.986063    3.439963   -0.000000
     0.000000    0.000000   24.946995
   In   S    Zn
   4   8   2
Direct configuration=     2
   0.00000000  0.00000000  0.25292406
   0.00000000  0.00000000  0.74707594
   0.33333334  0.66666669  0.09767571
   0.66666663  0.33333331  0.90232429
   0.33333334  0.66666669  0.19229705
   0.66666663  0.33333331  0.80770297
   0.33333334  0.66666669  0.94140865
   0.66666663  0.33333331  0.05859135
   0.33333334  0.66666669  0.69460593
   0.66666663  0.33333331  0.30539407
   0.33333334  0.66666669  0.43625615
   0.66666663  0.33333331  0.56374385
   0.33333334  0.66666669  0.59264093
   0.66666663  0.33333331  0.40735907
ZnIn2S4 bulk PBE-D3BJ relaxation        
           1
     3.958807    0.000000    0.000000
    -1.979404    3.428428   -0.000000
     0.000000    0.000000   24.917876
   In   S    Zn
   4   8   2
Direct configuration=     3
   0.00000000  0.00000000  0.25260857
   0.00000000  0.00000000  0.74739143
   0.33333334  0.66666669  0.09728991
   0.66666663  0.33333331  0.90271009
   0.33333334  0.66666669  0.19245922
   0.66666663  0.33333331  0.80754081
   0.33333334  0.66666669  0.94098693
   0.66666663  0.33333331  0.05901307
   0.33333334  0.66666669  0.69448660
   0.66666663  0.33333331  0.30551340
   0.33333334  0.66666669  0.43639035
   0.66666663  0.33333331  0.56360965
   0.33333334  0.66666669  0.59278757
   0.66666663  0.33333331  0.40721243
ZnIn2S4 bulk PBE-D3BJ relaxation        
           1
     3.922783    0.000000   -0.000000
    -1.961392    3.397230   -0.000000
    -0.000000    0.000000   25.060253
   In   S    Zn
   4   8   2
Direct configuration=     4
  -0.00000000  0.00000000  0.25483539
   0.00000000  0.00000000  0.74516461
   0.33333334  0.66666669  0.09815950
   0.66666663  0.33333331  0.90184050
   0.33333334  0.66666669  0.19311236
   0.66666663  0.33333331  0.80688766
   0.33333334  0.66666669  0.94324186
   0.66666663  0.33333331  0.05675814
   0.33333334  0.66666669  0.69560243
   0.66666663  0.33333331  0.30439757
   0.33333334  0.66666669  0.43447138
   0.66666663  0.33333331  0.56552862
   0.33333334  0.66666669  0.59095226
   0.66666663  0.33333331  0.40904774
ZnIn2S4 bulk PBE-D3BJ relaxation        
           1
     3.890077    0.000000   -0.000000
    -1.945039    3.368906   -0.000000
    -0.000000    0.000000   25.189514
   In   S    Zn
   4   8   2
Direct configuration=     5
   0.00000000  0.00000000  0.25684558
  -0.00000000  0.00000000  0.74315442
   0.33333334  0.66666669  0.09894449
   0.66666663  0.33333331  0.90105551
   0.33333334  0.66666669  0.19370197
   0.66666663  0.33333331  0.80629805
   0.33333334  0.66666669  0.94527742
   0.66666663  0.33333331  0.05472258
   0.33333334  0.66666669  0.69660972
   0.66666663  0.33333331  0.30339028
   0.33333334  0.66666669  0.43273909
   0.66666663  0.33333331  0.56726091
   0.33333334  0.66666669  0.58929549
   0.66666663  0.33333331  0.41070451
ZnIn2S4 bulk PBE-D3BJ relaxation        
           1
     3.884064    0.000000   -0.000000
    -1.942032    3.363698   -0.000000
    -0.000000    0.000000   25.213279
   In   S    Zn
   4   8   2
Direct configuration=     6
   0.00000000  0.00000000  0.25721327
  -0.00000000  0.00000000  0.74278673
   0.33333334  0.66666669  0.09908808
   0.66666663  0.33333331  0.90091192
   0.33333334  0.66666669  0.19380982
   0.66666663  0.33333331  0.80619021
   0.33333334  0.66666669  0.94564975
   0.66666663  0.33333331  0.05435025
   0.33333334  0.66666669  0.69679396
   0.66666663  0.33333331  0.30320604
   0.33333334  0.66666669  0.43242223
   0.66666663  0.33333331  0.56757777
   0.33333334  0.66666669  0.58899245
   0.66666663  0.33333331  0.41100755
ZnIn2S4 bulk PBE-D3BJ relaxation        
           1
     3.876701    0.000000   -0.000000
    -1.938351    3.357322   -0.000000
    -0.000000   -0.000000   25.339512
   In   S    Zn
   4   8   2
Direct configuration=     7
   0.00000000  0.00000000  0.25669370
  -0.00000000  0.00000000  0.74330630
   0.33333334  0.66666669  0.09900489
   0.66666663  0.33333331  0.90099511
   0.33333334  0.66666669  0.19431920
   0.66666663  0.33333331  0.80568083
   0.33333334  0.66666669  0.94602461
   0.66666663  0.33333331  0.05397539
   0.33333334  0.66666669  0.69560948
   0.66666663  0.33333331  0.30439052
   0.33333334  0.66666669  0.43118941
   0.66666663  0.33333331  0.56881059
   0.33333334  0.66666669  0.58782654
   0.66666663  0.33333331  0.41217346
ZnIn2S4 bulk PBE-D3BJ relaxation        
           1
     3.872550    0.000000   -0.000000
    -1.936275    3.353726   -0.000000
    -0.000000   -0.000000   25.410694
   In   S    Zn
   4   8   2
Direct configuration=     8
   0.00000000  0.00000000  0.25640217
  -0.00000000 -0.00000000  0.74359783
   0.33333334  0.66666669  0.09895822
   0.66666663  0.33333331  0.90104178
   0.33333334  0.66666669  0.19460500
   0.66666663  0.33333331  0.80539503
   0.33333334  0.66666669  0.94623494
   0.66666663  0.33333331  0.05376506
   0.33333334  0.66666669  0.69494489
   0.66666663  0.33333331  0.30505511
   0.33333334  0.66666669  0.43049769
   0.66666663  0.33333331  0.56950231
   0.33333334  0.66666669  0.58717236
   0.66666663  0.33333331  0.41282764
ZnIn2S4 bulk PBE-D3BJ relaxation        
           1
     3.875703    0.000000   -0.000000
    -1.937851    3.356457   -0.000000
    -0.000000   -0.000000   25.272032
   In   S    Zn
   4   8   2
Direct configuration=     9
   0.00000000  0.00000000  0.25649454
  -0.00000000 -0.00000000  0.74350546
   0.33333334  0.66666669  0.09943217
   0.66666663  0.33333331  0.90056783
   0.33333334  0.66666669  0.19405338
   0.66666663  0.33333331  0.80594665
   0.33333334  0.66666669  0.94608594
   0.66666663  0.33333331  0.05391406
   0.33333334  0.66666669  0.69419185
   0.66666663  0.33333331  0.30580815
   0.33333334  0.66666669  0.42973037
   0.66666663  0.33333331  0.57026963
   0.33333334  0.66666669  0.58637144
   0.66666663  0.33333331  0.41362856
ZnIn2S4 bulk PBE-D3BJ relaxation        
           1
     3.875752    0.000000   -0.000000
    -1.937876    3.356499   -0.000000
    -0.000000   -0.000000   25.269892
   In   S    Zn
   4   8   2
Direct configuration=    10
   0.00000000  0.00000000  0.25649597
  -0.00000000 -0.00000000  0.74350403
   0.33333334  0.66666669  0.09943952
   0.66666663  0.33333331  0.90056048
   0.33333334  0.66666669  0.19404481
   0.66666663  0.33333331  0.80595522
   0.33333334  0.66666669  0.94608363
   0.66666663  0.33333331  0.05391637
   0.33333334  0.66666669  0.69418016
   0.66666663  0.33333331  0.30581984
   0.33333334  0.66666669  0.42971846
   0.66666663  0.33333331  0.57028154
   0.33333334  0.66666669  0.58635900
   0.66666663  0.33333331  0.41364100
ZnIn2S4 bulk PBE-D3BJ relaxation        
           1
     3.879696    0.000000   -0.000000
    -1.939848    3.359915   -0.000000
    -0.000000   -0.000000   25.224005
   In   S    Zn
   4   8   2
Direct configuration=    11
   0.00000000  0.00000000  0.25704438
  -0.00000000  0.00000000  0.74295562
   0.33333334  0.66666669  0.09917565
   0.66666663  0.33333331  0.90082435
   0.33333334  0.66666669  0.19405729
   0.66666663  0.33333331  0.80594274
   0.33333334  0.66666669  0.94569353
   0.66666663  0.33333331  0.05430647
   0.33333334  0.66666669  0.69391752
   0.66666663  0.33333331  0.30608248
   0.33333334  0.66666669  0.42928026
   0.66666663  0.33333331  0.57071974
   0.33333334  0.66666669  0.58573067
   0.66666663  0.33333331  0.41426933
ZnIn2S4 bulk PBE-D3BJ relaxation        
           1
     3.884197    0.000000   -0.000000
    -1.942099    3.363813   -0.000000
    -0.000000   -0.000000   25.171630
   In   S    Zn
   4   8   2
Direct configuration=    12
   0.00000000  0.00000000  0.25767146
  -0.00000000 -0.00000000  0.74232854
   0.33333334  0.66666669  0.09887393
   0.66666663  0.33333331  0.90112607
   0.33333334  0.66666669  0.19407156
   0.66666663  0.33333331  0.80592847
   0.33333334  0.66666669  0.94524745
   0.66666663  0.33333331  0.05475255
   0.33333334  0.66666669  0.69361720
   0.66666663  0.33333331  0.30638280
   0.33333334  0.66666669  0.42877919
   0.66666663  0.33333331  0.57122081
   0.33333334  0.66666669  0.58501218
   0.66666663  0.33333331  0.41498782
ZnIn2S4 bulk PBE-D3BJ relaxation        
           1
     3.897374    0.000000   -0.000000
    -1.948687    3.375225   -0.000000
    -0.000000   -0.000000   25.149779
   In   S    Zn
   4   8   2
Direct configuration=    13
   0.00000000  0.00000000  0.25818440
  -0.00000000 -0.00000000  0.74181560
   0.33333334  0.66666669  0.09907297
   0.66666663  0.33333331  0.90092703
   0.33333334  0.66666669  0.19446413
   0.66666663  0.33333331  0.80553590
   0.33333334  0.66666669  0.94526895
   0.66666663  0.33333331  0.05473105
   0.33333334  0.66666669  0.69334084
   0.66666663  0.33333331  0.30665916
   0.33333334  0.66666669  0.42851298
   0.66666663  0.33333331  0.57148702
   0.33333334  0.66666669  0.58423602
   0.66666663  0.33333331  0.41576398
ZnIn2S4 bulk PBE-D3BJ relaxation        
           1
     3.899543    0.000000   -0.000000
    -1.949771    3.377103   -0.000000
    -0.000000   -0.000000   25.146183
   In   S    Zn
   4   8   2
Direct configuration=    14
   0.00000000  0.00000000  0.25826890
  -0.00000000 -0.00000000  0.74173110
   0.33333334  0.66666669  0.09910575
   0.66666663  0.33333331  0.90089425
   0.33333334  0.66666669  0.19452879
   0.66666663  0.33333331  0.80547124
   0.33333334  0.66666669  0.94527249
   0.66666663  0.33333331  0.05472751
   0.33333334  0.66666669  0.69329532
   0.66666663  0.33333331  0.30670468
   0.33333334  0.66666669  0.42846913
   0.66666663  0.33333331  0.57153087
   0.33333334  0.66666669  0.58410817
   0.66666663  0.33333331  0.41589183
ZnIn2S4 bulk PBE-D3BJ relaxation        
           1
     3.897810    0.000000   -0.000000
    -1.948905    3.375602   -0.000000
    -0.000000   -0.000000   25.093460
   In   S    Zn
   4   8   2
Direct configuration=    15
   0.00000000  0.00000000  0.25859381
  -0.00000000 -0.00000000  0.74140619
   0.33333334  0.66666669  0.09937889
   0.66666663  0.33333331  0.90062111
   0.33333334  0.66666669  0.19496638
   0.66666663  0.33333331  0.80503365
   0.33333334  0.66666669  0.94531904
   0.66666663  0.33333331  0.05468096
   0.33333334  0.66666669  0.69310505
   0.66666663  0.33333331  0.30689495
   0.33333334  0.66666669  0.42838092
   0.66666663  0.33333331  0.57161908
   0.33333334  0.66666669  0.58348537
   0.66666663  0.33333331  0.41651463
ZnIn2S4 bulk PBE-D3BJ relaxation        
           1
     3.894303    0.000000   -0.000000
    -1.947152    3.372565   -0.000000
    -0.000000   -0.000000   24.986769
   In   S    Zn
   4   8   2
Direct configuration=    16
   0.00000000  0.00000000  0.25925269
  -0.00000000 -0.00000000  0.74074731
   0.33333334  0.66666669  0.09993277
   0.66666663  0.33333331  0.90006723
   0.33333334  0.66666669  0.19585373
   0.66666663  0.33333331  0.80414630
   0.33333334  0.66666669  0.94541344
   0.66666663  0.33333331  0.05458656
   0.33333334  0.66666669  0.69271921
   0.66666663  0.33333331  0.30728079
   0.33333334  0.66666669  0.42820204
   0.66666663  0.33333331  0.57179796
   0.33333334  0.66666669  0.58222244
   0.66666663  0.33333331  0.41777756
ZnIn2S4 bulk PBE-D3BJ relaxation        
           1
     3.894520    0.000000   -0.000000
    -1.947260    3.372754   -0.000000
    -0.000000   -0.000000   24.990173
   In   S    Zn
   4   8   2
Direct configuration=    17
   0.00000000  0.00000000  0.25956820
  -0.00000000 -0.00000000  0.74043180
   0.33333334  0.66666669  0.10017329
   0.66666663  0.33333331  0.89982671
   0.33333334  0.66666669  0.19622084
   0.66666663  0.33333331  0.80377919
   0.33333334  0.66666669  0.94527302
   0.66666663  0.33333331  0.05472698
   0.33333334  0.66666669  0.69221243
   0.66666663  0.33333331  0.30778757
   0.33333334  0.66666669  0.42839591
   0.66666663  0.33333331  0.57160409
   0.33333334  0.66666669  0.58149172
   0.66666663  0.33333331  0.41850828
ZnIn2S4 bulk PBE-D3BJ relaxation        
           1
     3.895172    0.000000    0.000000
    -1.947586    3.373318   -0.000000
    -0.000000   -0.000000   25.000384
   In   S    Zn
   4   8   2
Direct configuration=    18
   0.00000000  0.00000000  0.26051461
  -0.00000000 -0.00000000  0.73948539
   0.33333334  0.66666669  0.10089475
   0.66666663  0.33333331  0.89910525
   0.33333334  0.66666669  0.19732201
   0.66666663  0.33333331  0.80267802
   0.33333334  0.66666669  0.94485181
   0.66666663  0.33333331  0.05514819
   0.33333334  0.66666669  0.69069231
   0.66666663  0.33333331  0.30930769
   0.33333334  0.66666669  0.42897744
   0.66666663  0.33333331  0.57102256
   0.33333334  0.66666669  0.57929986
   0.66666663  0.33333331  0.42070014
ZnIn2S4 bulk PBE-D3BJ relaxation        
           1
     3.896475    0.000000    0.000000
    -1.948237    3.374446   -0.000000
    -0.000000   -0.000000   25.020805
   In   S    Zn
   4   8   2
Direct configuration=    19
   0.00000000  0.00000000  0.26240664
  -0.00000000 -0.00000000  0.73759336
   0.33333334  0.66666669  0.10233708
   0.66666663  0.33333331  0.89766292
   0.33333334  0.66666669  0.19952346
   0.66666663  0.33333331  0.80047657
   0.33333334  0.66666669  0.94400974
   0.66666663  0.33333331  0.05599026
   0.33333334  0.66666669  0.68765331
   0.66666663  0.33333331  0.31234669
   0.33333334  0.66666669  0.43014004
   0.66666663  0.33333331  0.56985996
   0.33333334  0.66666669  0.57491793
   0.66666663  0.33333331  0.42508207
ZnIn2S4 bulk PBE-D3BJ relaxation        
           1
     3.895886    0.000000    0.000000
    -1.947943    3.373936   -0.000000
    -0.000000   -0.000000   25.011579
   In   S    Zn
   4   8   2
Direct configuration=    20
   0.00000000  0.00000000  0.26155251
  -0.00000000 -0.00000000  0.73844749
   0.33333334  0.66666669  0.10168597
   0.66666663  0.33333331  0.89831403
   0.33333334  0.66666669  0.19852965
   0.66666663  0.33333331  0.80147038
   0.33333334  0.66666669  0.94438988
   0.66666663  0.33333331  0.05561012
   0.33333334  0.66666669  0.68902522
   0.66666663  0.33333331  0.31097478
   0.33333334  0.66666669  0.42961520
   0.66666663  0.33333331  0.57038480
   0.33333334  0.66666669  0.57689608
   0.66666663  0.33333331  0.42310392
ZnIn2S4 bulk PBE-D3BJ relaxation        
           1
     3.895664    0.000000    0.000000
    -1.947832    3.373744   -0.000000
    -0.000000   -0.000000   25.005354
   In   S    Zn
   4   8   2
Direct configuration=    21
   0.00000000  0.00000000  0.26166111
  -0.00000000 -0.00000000  0.73833889
   0.33333334  0.66666669  0.10176227
   0.66666663  0.33333331  0.89823773
   0.33333334  0.66666669  0.19860822
   0.66666663  0.33333331  0.80139181
   0.33333334  0.66666669  0.94433651
   0.66666663  0.33333331  0.05566349
   0.33333334  0.66666669  0.68889714
   0.66666663  0.33333331  0.31110286
   0.33333334  0.66666669  0.42968536
   0.66666663  0.33333331  0.57031464
   0.33333334  0.66666669  0.57669161
   0.66666663  0.33333331  0.42330839
ZnIn2S4 bulk PBE-D3BJ relaxation        
           1
     3.894998    0.000000    0.000000
    -1.947499    3.373167   -0.000000
    -0.000000   -0.000000   24.986681
   In   S    Zn
   4   8   2
Direct configuration=    22
   0.00000000  0.00000000  0.26198700
  -0.00000000 -0.00000000  0.73801300
   0.33333334  0.66666669  0.10199125
   0.66666663  0.33333331  0.89800875
   0.33333334  0.66666669  0.19884398
   0.66666663  0.33333331  0.80115604
   0.33333334  0.66666669  0.94417634
   0.66666663  0.33333331  0.05582366
   0.33333334  0.66666669  0.68851280
   0.66666663  0.33333331  0.31148720
   0.33333334  0.66666669  0.42989589
   0.66666663  0.33333331  0.57010411
   0.33333334  0.66666669  0.57607804
   0.66666663  0.33333331  0.42392196
ZnIn2S4 bulk PBE-D3BJ relaxation        
           1
     3.893665    0.000000    0.000000
    -1.946832    3.372013   -0.000000
    -0.000000   -0.000000   24.949334
   In   S    Zn
   4   8   2
Direct configuration=    23
   0.00000000  0.00000000  0.26263926
  -0.00000000 -0.00000000  0.73736074
   0.33333334  0.66666669  0.10244956
   0.66666663  0.33333331  0.89755044
   0.33333334  0.66666669  0.19931587
   0.66666663  0.33333331  0.80068416
   0.33333334  0.66666669  0.94385578
   0.66666663  0.33333331  0.05614422
   0.33333334  0.66666669  0.68774354
   0.66666663  0.33333331  0.31225646
   0.33333334  0.66666669  0.43031726
   0.66666663  0.33333331  0.56968274
   0.33333334  0.66666669  0.57484999
   0.66666663  0.33333331  0.42515001
ZnIn2S4 bulk PBE-D3BJ relaxation        
           1
     3.890999    0.000000    0.000000
    -1.945500    3.369704   -0.000000
    -0.000000   -0.000000   24.874641
   In   S    Zn
   4   8   2
Direct configuration=    24
   0.00000000  0.00000000  0.26394573
  -0.00000000 -0.00000000  0.73605427
   0.33333334  0.66666669  0.10336753
   0.66666663  0.33333331  0.89663247
   0.33333334  0.66666669  0.20026105
   0.66666663  0.33333331  0.79973898
   0.33333334  0.66666669  0.94321369
   0.66666663  0.33333331  0.05678631
   0.33333334  0.66666669  0.68620273
   0.66666663  0.33333331  0.31379727
   0.33333334  0.66666669  0.43116128
   0.66666663  0.33333331  0.56883872
   0.33333334  0.66666669  0.57239021
   0.66666663  0.33333331  0.42760979
ZnIn2S4 bulk PBE-D3BJ relaxation        
           1
     3.885668    0.000000    0.000000
    -1.942834    3.365088   -0.000000
    -0.000000   -0.000000   24.725254
   In   S    Zn
   4   8   2
Direct configuration=    25
   0.00000000  0.00000000  0.26656652
  -0.00000000 -0.00000000  0.73343348
   0.33333334  0.66666669  0.10520900
   0.66666663  0.33333331  0.89479100
   0.33333334  0.66666669  0.20215708
   0.66666663  0.33333331  0.79784295
   0.33333334  0.66666669  0.94192565
   0.66666663  0.33333331  0.05807435
   0.33333334  0.66666669  0.68311186
   0.66666663  0.33333331  0.31688814
   0.33333334  0.66666669  0.43285437
   0.66666663  0.33333331  0.56714563
   0.33333334  0.66666669  0.56745588
   0.66666663  0.33333331  0.43254412
ZnIn2S4 bulk PBE-D3BJ relaxation        
           1
     3.875007    0.000000    0.000000
    -1.937503    3.355854   -0.000000
    -0.000000   -0.000000   24.426480
   In   S    Zn
   4   8   2
Direct configuration=    26
   0.00000000  0.00000000  0.27183977
  -0.00000000 -0.00000000  0.72816023
   0.33333334  0.66666669  0.10891419
   0.66666663  0.33333331  0.89108581
   0.33333334  0.66666669  0.20597206
   0.66666663  0.33333331  0.79402797
   0.33333334  0.66666669  0.93933401
   0.66666663  0.33333331  0.06066599
   0.33333334  0.66666669  0.67689276
   0.66666663  0.33333331  0.32310724
   0.33333334  0.66666669  0.43626101
   0.66666663  0.33333331  0.56373899
   0.33333334  0.66666669  0.55752759
   0.66666663  0.33333331  0.44247241
ZnIn2S4 bulk PBE-D3BJ relaxation        
           1
     3.853683    0.000000    0.000000
    -1.926841    3.337387    0.000000
    -0.000000   -0.000000   23.828933
   In   S    Zn
   4   8   2
Direct configuration=    27
   0.00000000  0.00000000  0.28251526
  -0.00000000 -0.00000000  0.71748474
   0.33333334  0.66666669  0.11641520
   0.66666663  0.33333331  0.88358480
   0.33333334  0.66666669  0.21369535
   0.66666663  0.33333331  0.78630468
   0.33333334  0.66666669  0.93408733
   0.66666663  0.33333331  0.06591267
   0.33333334  0.66666669  0.66430242
   0.66666663  0.33333331  0.33569758
   0.33333334  0.66666669  0.44315762
   0.66666663  0.33333331  0.55684238
   0.33333334  0.66666669  0.53742814
   0.66666663  0.33333331  0.46257186
ZnIn2S4 bulk PBE-D3BJ relaxation        
           1
     3.873943    0.000000    0.000000
    -1.936972    3.354933   -0.000000
    -0.000000   -0.000000   24.396682
   In   S    Zn
   4   8   2
Direct configuration=    28
  -0.00000000 -0.00000000  0.27211778
   0.00000000  0.00000000  0.72788222
   0.33333334  0.66666669  0.10910953
   0.66666663  0.33333331  0.89089047
   0.33333334  0.66666669  0.20617320
   0.66666663  0.33333331  0.79382683
   0.33333334  0.66666669  0.93919737
   0.66666663  0.33333331  0.06080263
   0.33333334  0.66666669  0.67656488
   0.66666663  0.33333331  0.32343512
   0.33333334  0.66666669  0.43644061
   0.66666663  0.33333331  0.56355939
   0.33333334  0.66666669  0.55700415
   0.66666663  0.33333331  0.44299585
ZnIn2S4 bulk PBE-D3BJ relaxation        
           1
     3.863813    0.000000    0.000000
    -1.931906    3.346160   -0.000000
    -0.000000   -0.000000   24.112807
   In   S    Zn
   4   8   2
Direct configuration=    29
   0.00000000  0.00000000  0.27719554
  -0.00000000 -0.00000000  0.72280446
   0.33333334  0.66666669  0.11267736
   0.66666663  0.33333331  0.88732264
   0.33333334  0.66666669  0.20984675
   0.66666663  0.33333331  0.79015328
   0.33333334  0.66666669  0.93670181
   0.66666663  0.33333331  0.06329819
   0.33333334  0.66666669  0.67057633
   0.66666663  0.33333331  0.32942367
   0.33333334  0.66666669  0.43972096
   0.66666663  0.33333331  0.56027904
   0.33333334  0.66666669  0.54744393
   0.66666663  0.33333331  0.45255607
ZnIn2S4 bulk PBE-D3BJ relaxation        
           1
     3.870348    0.000000    0.000000
    -1.935174    3.351820   -0.000000
    -0.000000   -0.000000   24.295939
   In   S    Zn
   4   8   2
Direct configuration=    30
  -0.00000000 -0.00000000  0.27388124
   0.00000000  0.00000000  0.72611876
   0.33333334  0.66666669  0.11034860
   0.66666663  0.33333331  0.88965140
   0.33333334  0.66666669  0.20744898
   0.66666663  0.33333331  0.79255105
   0.33333334  0.66666669  0.93833069
   0.66666663  0.33333331  0.06166931
   0.33333334  0.66666669  0.67448512
   0.66666663  0.33333331  0.32551488
   0.33333334  0.66666669  0.43757984
   0.66666663  0.33333331  0.56242016
   0.33333334  0.66666669  0.55368398
   0.66666663  0.33333331  0.44631602
ZnIn2S4 bulk PBE-D3BJ relaxation        
           1
     3.867080    0.000000    0.000000
    -1.933540    3.348990   -0.000000
    -0.000000   -0.000000   24.204373
   In   S    Zn
   4   8   2
Direct configuration=    31
   0.00000000  0.00000000  0.27552590
  -0.00000000 -0.00000000  0.72447410
   0.33333334  0.66666669  0.11150420
   0.66666663  0.33333331  0.88849580
   0.33333334  0.66666669  0.20863883
   0.66666663  0.33333331  0.79136120
   0.33333334  0.66666669  0.93752239
   0.66666663  0.33333331  0.06247761
   0.33333334  0.66666669  0.67254546
   0.66666663  0.33333331  0.32745454
   0.33333334  0.66666669  0.43864233
   0.66666663  0.33333331  0.56135767
   0.33333334  0.66666669  0.55058747
   0.66666663  0.33333331  0.44941253
ZnIn2S4 bulk PBE-D3BJ relaxation        
           1
     3.867252    0.000000    0.000000
    -1.933626    3.349138   -0.000000
    -0.000000   -0.000000   24.183608
   In   S    Zn
   4   8   2
Direct configuration=    32
   0.00000000  0.00000000  0.27605830
  -0.00000000 -0.00000000  0.72394170
   0.33333334  0.66666669  0.11181689
   0.66666663  0.33333331  0.88818311
   0.33333334  0.66666669  0.20905003
   0.66666663  0.33333331  0.79095000
   0.33333334  0.66666669  0.93725953
   0.66666663  0.33333331  0.06274047
   0.33333334  0.66666669  0.67197303
   0.66666663  0.33333331  0.32802697
   0.33333334  0.66666669  0.43897093
   0.66666663  0.33333331  0.56102907
   0.33333334  0.66666669  0.54959978
   0.66666663  0.33333331  0.45040022
ZnIn2S4 bulk PBE-D3BJ relaxation        
           1
     3.867462    0.000000    0.000000
    -1.933731    3.349320   -0.000000
    -0.000000   -0.000000   24.158151
   In   S    Zn
   4   8   2
Direct configuration=    33
   0.00000000  0.00000000  0.27671157
  -0.00000000 -0.00000000  0.72328843
   0.33333334  0.66666669  0.11220055
   0.66666663  0.33333331  0.88779945
   0.33333334  0.66666669  0.20955458
   0.66666663  0.33333331  0.79044545
   0.33333334  0.66666669  0.93693699
   0.66666663  0.33333331  0.06306301
   0.33333334  0.66666669  0.67127066
   0.66666663  0.33333331  0.32872934
   0.33333334  0.66666669  0.43937411
   0.66666663  0.33333331  0.56062589
   0.33333334  0.66666669  0.54838788
   0.66666663  0.33333331  0.45161212
ZnIn2S4 bulk PBE-D3BJ relaxation        
           1
     3.868988    0.000000    0.000000
    -1.934494    3.350642   -0.000000
    -0.000000   -0.000000   24.167325
   In   S    Zn
   4   8   2
Direct configuration=    34
   0.00000000  0.00000000  0.27675549
  -0.00000000 -0.00000000  0.72324451
   0.33333334  0.66666669  0.11215409
   0.66666663  0.33333331  0.88784591
   0.33333334  0.66666669  0.20962163
   0.66666663  0.33333331  0.79037840
   0.33333334  0.66666669  0.93691327
   0.66666663  0.33333331  0.06308673
   0.33333334  0.66666669  0.67129003
   0.66666663  0.33333331  0.32870997
   0.33333334  0.66666669  0.43937386
   0.66666663  0.33333331  0.56062614
   0.33333334  0.66666669  0.54832545
   0.66666663  0.33333331  0.45167455
ZnIn2S4 bulk PBE-D3BJ relaxation        
           1
     3.873565    0.000000    0.000000
    -1.936782    3.354605   -0.000000
    -0.000000   -0.000000   24.194847
   In   S    Zn
   4   8   2
Direct configuration=    35
   0.00000000  0.00000000  0.27688722
  -0.00000000 -0.00000000  0.72311278
   0.33333334  0.66666669  0.11201477
   0.66666663  0.33333331  0.88798523
   0.33333334  0.66666669  0.20982271
   0.66666663  0.33333331  0.79017732
   0.33333334  0.66666669  0.93684216
   0.66666663  0.33333331  0.06315784
   0.33333334  0.66666669  0.67134811
   0.66666663  0.33333331  0.32865189
   0.33333334  0.66666669  0.43937308
   0.66666663  0.33333331  0.56062692
   0.33333334  0.66666669  0.54813823
   0.66666663  0.33333331  0.45186177
ZnIn2S4 bulk PBE-D3BJ relaxation        
           1
     3.882719    0.000000    0.000000
    -1.941359    3.362533   -0.000000
    -0.000000   -0.000000   24.249891
   In   S    Zn
   4   8   2
Direct configuration=    36
   0.00000000  0.00000000  0.27715039
  -0.00000000 -0.00000000  0.72284961
   0.33333334  0.66666669  0.11173644
   0.66666663  0.33333331  0.88826356
   0.33333334  0.66666669  0.21022441
   0.66666663  0.33333331  0.78977562
   0.33333334  0.66666669  0.93670009
   0.66666663  0.33333331  0.06329991
   0.33333334  0.66666669  0.67146415
   0.66666663  0.33333331  0.32853585
   0.33333334  0.66666669  0.43937154
   0.66666663  0.33333331  0.56062846
   0.33333334  0.66666669  0.54776422
   0.66666663  0.33333331  0.45223578
ZnIn2S4 bulk PBE-D3BJ relaxation        
           1
     3.901027    0.000000    0.000000
    -1.950513    3.378388   -0.000000
    -0.000000   -0.000000   24.359980
   In   S    Zn
   4   8   2
Direct configuration=    37
   0.00000000  0.00000000  0.27767551
  -0.00000000 -0.00000000  0.72232449
   0.33333334  0.66666669  0.11118104
   0.66666663  0.33333331  0.88881896
   0.33333334  0.66666669  0.21102599
   0.66666663  0.33333331  0.78897404
   0.33333334  0.66666669  0.93641660
   0.66666663  0.33333331  0.06358340
   0.33333334  0.66666669  0.67169569
   0.66666663  0.33333331  0.32830431
   0.33333334  0.66666669  0.43936847
   0.66666663  0.33333331  0.56063153
   0.33333334  0.66666669  0.54701789
   0.66666663  0.33333331  0.45298211
ZnIn2S4 bulk PBE-D3BJ relaxation        
           1
     3.897364    0.000000    0.000000
    -1.948682    3.375216   -0.000000
    -0.000000   -0.000000   24.337955
   In   S    Zn
   4   8   2
Direct configuration=    38
   0.00000000  0.00000000  0.27757093
  -0.00000000 -0.00000000  0.72242907
   0.33333334  0.66666669  0.11129166
   0.66666663  0.33333331  0.88870834
   0.33333334  0.66666669  0.21086634
   0.66666663  0.33333331  0.78913368
   0.33333334  0.66666669  0.93647306
   0.66666663  0.33333331  0.06352694
   0.33333334  0.66666669  0.67164958
   0.66666663  0.33333331  0.32835042
   0.33333334  0.66666669  0.43936908
   0.66666663  0.33333331  0.56063092
   0.33333334  0.66666669  0.54716653
   0.66666663  0.33333331  0.45283347
ZnIn2S4 bulk PBE-D3BJ relaxation        
           1
     3.899225    0.000000    0.000000
    -1.949612    3.376828   -0.000000
    -0.000000   -0.000000   24.314687
   In   S    Zn
   4   8   2
Direct configuration=    39
   0.00000000  0.00000000  0.27763847
  -0.00000000 -0.00000000  0.72236153
   0.33333334  0.66666669  0.11130066
   0.66666663  0.33333331  0.88869934
   0.33333334  0.66666669  0.21087708
   0.66666663  0.33333331  0.78912295
   0.33333334  0.66666669  0.93641281
   0.66666663  0.33333331  0.06358719
   0.33333334  0.66666669  0.67182687
   0.66666663  0.33333331  0.32817313
   0.33333334  0.66666669  0.43933009
   0.66666663  0.33333331  0.56066991
   0.33333334  0.66666669  0.54704355
   0.66666663  0.33333331  0.45295645
ZnIn2S4 bulk PBE-D3BJ relaxation        
           1
     3.904809    0.000000    0.000000
    -1.952404    3.381664   -0.000000
    -0.000000   -0.000000   24.244884
   In   S    Zn
   4   8   2
Direct configuration=    40
   0.00000000  0.00000000  0.27784130
  -0.00000000 -0.00000000  0.72215870
   0.33333334  0.66666669  0.11132770
   0.66666663  0.33333331  0.88867230
   0.33333334  0.66666669  0.21090931
   0.66666663  0.33333331  0.78909072
   0.33333334  0.66666669  0.93623189
   0.66666663  0.33333331  0.06376811
   0.33333334  0.66666669  0.67235925
   0.66666663  0.33333331  0.32764075
   0.33333334  0.66666669  0.43921300
   0.66666663  0.33333331  0.56078700
   0.33333334  0.66666669  0.54667426
   0.66666663  0.33333331  0.45332574
ZnIn2S4 bulk PBE-D3BJ relaxation        
           1
     3.915976    0.000000    0.000000
    -1.957988    3.391335   -0.000000
    -0.000000   -0.000000   24.105279
   In   S    Zn
   4   8   2
Direct configuration=    41
   0.00000000  0.00000000  0.27824813
  -0.00000000 -0.00000000  0.72175187
   0.33333334  0.66666669  0.11138194
   0.66666663  0.33333331  0.88861806
   0.33333334  0.66666669  0.21097395
   0.66666663  0.33333331  0.78902607
   0.33333334  0.66666669  0.93586901
   0.66666663  0.33333331  0.06413099
   0.33333334  0.66666669  0.67342707
   0.66666663  0.33333331  0.32657293
   0.33333334  0.66666669  0.43897815
   0.66666663  0.33333331  0.56102185
   0.33333334  0.66666669  0.54593356
   0.66666663  0.33333331  0.45406644
ZnIn2S4 bulk PBE-D3BJ relaxation        
           1
     3.912965    0.000000    0.000000
    -1.956482    3.388727   -0.000000
    -0.000000   -0.000000   24.142925
   In   S    Zn
   4   8   2
Direct configuration=    42
   0.00000000  0.00000000  0.27813779
  -0.00000000 -0.00000000  0.72186221
   0.33333334  0.66666669  0.11136723
   0.66666663  0.33333331  0.88863277
   0.33333334  0.66666669  0.21095642
   0.66666663  0.33333331  0.78904361
   0.33333334  0.66666669  0.93596743
   0.66666663  0.33333331  0.06403257
   0.33333334  0.66666669  0.67313746
   0.66666663  0.33333331  0.32686254
   0.33333334  0.66666669  0.43904184
   0.66666663  0.33333331  0.56095816
   0.33333334  0.66666669  0.54613445
   0.66666663  0.33333331  0.45386555
ZnIn2S4 bulk PBE-D3BJ relaxation        
           1
     3.912993    0.000000    0.000000
    -1.956497    3.388751   -0.000000
    -0.000000   -0.000000   24.147506
   In   S    Zn
   4   8   2
Direct configuration=    43
   0.00000000  0.00000000  0.27795745
  -0.00000000 -0.00000000  0.72204255
   0.33333334  0.66666669  0.11138510
   0.66666663  0.33333331  0.88861490
   0.33333334  0.66666669  0.21096452
   0.66666663  0.33333331  0.78903550
   0.33333334  0.66666669  0.93590945
   0.66666663  0.33333331  0.06409055
   0.33333334  0.66666669  0.67326700
   0.66666663  0.33333331  0.32673300
   0.33333334  0.66666669  0.43890270
   0.66666663  0.33333331  0.56109730
   0.33333334  0.66666669  0.54595404
   0.66666663  0.33333331  0.45404596
ZnIn2S4 bulk PBE-D3BJ relaxation        
           1
     3.913078    0.000000    0.000000
    -1.956539    3.388825   -0.000000
    -0.000000   -0.000000   24.161249
   In   S    Zn
   4   8   2
Direct configuration=    44
   0.00000000  0.00000000  0.27741652
  -0.00000000 -0.00000000  0.72258348
   0.33333334  0.66666669  0.11143871
   0.66666663  0.33333331  0.88856129
   0.33333334  0.66666669  0.21098883
   0.66666663  0.33333331  0.78901120
   0.33333334  0.66666669  0.93573554
   0.66666663  0.33333331  0.06426446
   0.33333334  0.66666669  0.67365556
   0.66666663  0.33333331  0.32634444
   0.33333334  0.66666669  0.43848533
   0.66666663  0.33333331  0.56151467
   0.33333334  0.66666669  0.54541289
   0.66666663  0.33333331  0.45458711
ZnIn2S4 bulk PBE-D3BJ relaxation        
           1
     3.913248    0.000000    0.000000
    -1.956624    3.388972   -0.000000
    -0.000000   -0.000000   24.188734
   In   S    Zn
   4   8   2
Direct configuration=    45
   0.00000000  0.00000000  0.27633529
  -0.00000000 -0.00000000  0.72366471
   0.33333334  0.66666669  0.11154586
   0.66666663  0.33333331  0.88845414
   0.33333334  0.66666669  0.21103742
   0.66666663  0.33333331  0.78896261
   0.33333334  0.66666669  0.93538792
   0.66666663  0.33333331  0.06461208
   0.33333334  0.66666669  0.67443223
   0.66666663  0.33333331  0.32556777
   0.33333334  0.66666669  0.43765108
   0.66666663  0.33333331  0.56234892
   0.33333334  0.66666669  0.54433122
   0.66666663  0.33333331  0.45566878
ZnIn2S4 bulk PBE-D3BJ relaxation        
           1
     3.908855    0.000000    0.000000
    -1.954428    3.385168   -0.000000
    -0.000000   -0.000000   24.233573
   In   S    Zn
   4   8   2
Direct configuration=    46
   0.00000000  0.00000000  0.27617050
  -0.00000000 -0.00000000  0.72382950
   0.33333334  0.66666669  0.11163153
   0.66666663  0.33333331  0.88836847
   0.33333334  0.66666669  0.21078458
   0.66666663  0.33333331  0.78921545
   0.33333334  0.66666669  0.93535512
   0.66666663  0.33333331  0.06464488
   0.33333334  0.66666669  0.67468853
   0.66666663  0.33333331  0.32531147
   0.33333334  0.66666669  0.43748314
   0.66666663  0.33333331  0.56251686
   0.33333334  0.66666669  0.54400503
   0.66666663  0.33333331  0.45599497
ZnIn2S4 bulk PBE-D3BJ relaxation        
           1
     3.895678    0.000000    0.000000
    -1.947839    3.373756   -0.000000
    -0.000000   -0.000000   24.368090
   In   S    Zn
   4   8   2
Direct configuration=    47
   0.00000000  0.00000000  0.27567703
  -0.00000000 -0.00000000  0.72432297
   0.33333334  0.66666669  0.11188808
   0.66666663  0.33333331  0.88811192
   0.33333334  0.66666669  0.21002748
   0.66666663  0.33333331  0.78997255
   0.33333334  0.66666669  0.93525690
   0.66666663  0.33333331  0.06474310
   0.33333334  0.66666669  0.67545602
   0.66666663  0.33333331  0.32454398
   0.33333334  0.66666669  0.43698023
   0.66666663  0.33333331  0.56301977
   0.33333334  0.66666669  0.54302825
   0.66666663  0.33333331  0.45697175
ZnIn2S4 bulk PBE-D3BJ relaxation        
           1
     3.869322    0.000000    0.000000
    -1.934661    3.350931    0.000000
    -0.000000   -0.000000   24.637124
   In   S    Zn
   4   8   2
Direct configuration=    48
   0.00000000  0.00000000  0.27469554
  -0.00000000 -0.00000000  0.72530446
   0.33333334  0.66666669  0.11239835
   0.66666663  0.33333331  0.88760165
   0.33333334  0.66666669  0.20852163
   0.66666663  0.33333331  0.79147840
   0.33333334  0.66666669  0.93506156
   0.66666663  0.33333331  0.06493844
   0.33333334  0.66666669  0.67698250
   0.66666663  0.33333331  0.32301750
   0.33333334  0.66666669  0.43597997
   0.66666663  0.33333331  0.56402003
   0.33333334  0.66666669  0.54108548
   0.66666663  0.33333331  0.45891452
ZnIn2S4 bulk PBE-D3BJ relaxation        
           1
     3.889542    0.000000    0.000000
    -1.944771    3.368442   -0.000000
    -0.000000   -0.000000   24.430719
   In   S    Zn
   4   8   2
Direct configuration=    49
   0.00000000  0.00000000  0.27544032
  -0.00000000 -0.00000000  0.72455968
   0.33333334  0.66666669  0.11201114
   0.66666663  0.33333331  0.88798886
   0.33333334  0.66666669  0.20966431
   0.66666663  0.33333331  0.79033572
   0.33333334  0.66666669  0.93520979
   0.66666663  0.33333331  0.06479021
   0.33333334  0.66666669  0.67582416
   0.66666663  0.33333331  0.32417584
   0.33333334  0.66666669  0.43673900
   0.66666663  0.33333331  0.56326100
   0.33333334  0.66666669  0.54255971
   0.66666663  0.33333331  0.45744029
ZnIn2S4 bulk PBE-D3BJ relaxation        
           1
     3.888543    0.000000    0.000000
    -1.944271    3.367577   -0.000000
    -0.000000   -0.000000   24.554523
   In   S    Zn
   4   8   2
Direct configuration=    50
   0.00000000  0.00000000  0.27513408
  -0.00000000 -0.00000000  0.72486592
   0.33333334  0.66666669  0.11189849
   0.66666663  0.33333331  0.88810151
   0.33333334  0.66666669  0.20942696
   0.66666663  0.33333331  0.79057307
   0.33333334  0.66666669  0.93520489
   0.66666663  0.33333331  0.06479511
   0.33333334  0.66666669  0.67612029
   0.66666663  0.33333331  0.32387971
   0.33333334  0.66666669  0.43665610
   0.66666663  0.33333331  0.56334390
   0.33333334  0.66666669  0.54209316
   0.66666663  0.33333331  0.45790684
ZnIn2S4 bulk PBE-D3BJ relaxation        
           1
     3.888187    0.000000    0.000000
    -1.944094    3.367269    0.000000
    -0.000000   -0.000000   24.598541
   In   S    Zn
   4   8   2
Direct configuration=    51
   0.00000000  0.00000000  0.27502574
  -0.00000000 -0.00000000  0.72497426
   0.33333334  0.66666669  0.11185863
   0.66666663  0.33333331  0.88814137
   0.33333334  0.66666669  0.20934300
   0.66666663  0.33333331  0.79065703
   0.33333334  0.66666669  0.93520315
   0.66666663  0.33333331  0.06479685
   0.33333334  0.66666669  0.67622505
   0.66666663  0.33333331  0.32377495
   0.33333334  0.66666669  0.43662677
   0.66666663  0.33333331  0.56337323
   0.33333334  0.66666669  0.54192812
   0.66666663  0.33333331  0.45807188
ZnIn2S4 bulk PBE-D3BJ relaxation        
           1
     3.888287    0.000000    0.000000
    -1.944143    3.367355    0.000000
    -0.000000   -0.000000   24.604892
   In   S    Zn
   4   8   2
Direct configuration=    52
   0.00000000  0.00000000  0.27484733
  -0.00000000 -0.00000000  0.72515267
   0.33333334  0.66666669  0.11178156
   0.66666663  0.33333331  0.88821844
   0.33333334  0.66666669  0.20924878
   0.66666663  0.33333331  0.79075125
   0.33333334  0.66666669  0.93520919
   0.66666663  0.33333331  0.06479081
   0.33333334  0.66666669  0.67633799
   0.66666663  0.33333331  0.32366201
   0.33333334  0.66666669  0.43681119
   0.66666663  0.33333331  0.56318881
   0.33333334  0.66666669  0.54177447
   0.66666663  0.33333331  0.45822553
ZnIn2S4 bulk PBE-D3BJ relaxation        
           1
     3.888546    0.000000    0.000000
    -1.944273    3.367580    0.000000
    -0.000000   -0.000000   24.621483
   In   S    Zn
   4   8   2
Direct configuration=    53
   0.00000000  0.00000000  0.27438136
  -0.00000000 -0.00000000  0.72561864
   0.33333334  0.66666669  0.11158025
   0.66666663  0.33333331  0.88841975
   0.33333334  0.66666669  0.20900270
   0.66666663  0.33333331  0.79099733
   0.33333334  0.66666669  0.93522496
   0.66666663  0.33333331  0.06477504
   0.33333334  0.66666669  0.67663295
   0.66666663  0.33333331  0.32336705
   0.33333334  0.66666669  0.43729286
   0.66666663  0.33333331  0.56270714
   0.33333334  0.66666669  0.54137318
   0.66666663  0.33333331  0.45862682
ZnIn2S4 bulk PBE-D3BJ relaxation        
           1
     3.888668    0.000000    0.000000
    -1.944334    3.367685    0.000000
    -0.000000   -0.000000   24.629287
   In   S    Zn
   4   8   2
Direct configuration=    54
   0.00000000  0.00000000  0.27416235
  -0.00000000 -0.00000000  0.72583765
   0.33333334  0.66666669  0.11148563
   0.66666663  0.33333331  0.88851437
   0.33333334  0.66666669  0.20888703
   0.66666663  0.33333331  0.79111300
   0.33333334  0.66666669  0.93523237
   0.66666663  0.33333331  0.06476763
   0.33333334  0.66666669  0.67677158
   0.66666663  0.33333331  0.32322842
   0.33333334  0.66666669  0.43751926
   0.66666663  0.33333331  0.56248074
   0.33333334  0.66666669  0.54118456
   0.66666663  0.33333331  0.45881544
ZnIn2S4 bulk PBE-D3BJ relaxation        
           1
     3.891298    0.000000    0.000000
    -1.945649    3.369963    0.000000
    -0.000000   -0.000000   24.635170
   In   S    Zn
   4   8   2
Direct configuration=    55
   0.00000000  0.00000000  0.27408697
  -0.00000000 -0.00000000  0.72591303
   0.33333334  0.66666669  0.11145772
   0.66666663  0.33333331  0.88854228
   0.33333334  0.66666669  0.20864569
   0.66666663  0.33333331  0.79135434
   0.33333334  0.66666669  0.93537670
   0.66666663  0.33333331  0.06462330
   0.33333334  0.66666669  0.67703658
   0.66666663  0.33333331  0.32296342
   0.33333334  0.66666669  0.43763848
   0.66666663  0.33333331  0.56236152
   0.33333334  0.66666669  0.54112598
   0.66666663  0.33333331  0.45887402
ZnIn2S4 bulk PBE-D3BJ relaxation        
           1
     3.891793    0.000000    0.000000
    -1.945897    3.370392    0.000000
    -0.000000   -0.000000   24.636278
   In   S    Zn
   4   8   2
Direct configuration=    56
   0.00000000  0.00000000  0.27407277
  -0.00000000 -0.00000000  0.72592723
   0.33333334  0.66666669  0.11145247
   0.66666663  0.33333331  0.88854753
   0.33333334  0.66666669  0.20860024
   0.66666663  0.33333331  0.79139979
   0.33333334  0.66666669  0.93540388
   0.66666663  0.33333331  0.06459612
   0.33333334  0.66666669  0.67708649
   0.66666663  0.33333331  0.32291351
   0.33333334  0.66666669  0.43766093
   0.66666663  0.33333331  0.56233907
   0.33333334  0.66666669  0.54111495
   0.66666663  0.33333331  0.45888505
ZnIn2S4 bulk PBE-D3BJ relaxation        
           1
     3.891622    0.000000    0.000000
    -1.945811    3.370244    0.000000
    -0.000000   -0.000000   24.652886
   In   S    Zn
   4   8   2
Direct configuration=    57
   0.00000000  0.00000000  0.27399118
  -0.00000000 -0.00000000  0.72600882
   0.33333334  0.66666669  0.11128398
   0.66666663  0.33333331  0.88871602
   0.33333334  0.66666669  0.20847593
   0.66666663  0.33333331  0.79152410
   0.33333334  0.66666669  0.93552632
   0.66666663  0.33333331  0.06447368
   0.33333334  0.66666669  0.67733794
   0.66666663  0.33333331  0.32266206
   0.33333334  0.66666669  0.43768467
   0.66666663  0.33333331  0.56231533
   0.33333334  0.66666669  0.54114407
   0.66666663  0.33333331  0.45885593
ZnIn2S4 bulk PBE-D3BJ relaxation        
           1
     3.891394    0.000000    0.000000
    -1.945697    3.370046    0.000000
    -0.000000   -0.000000   24.675097
   In   S    Zn
   4   8   2
Direct configuration=    58
   0.00000000  0.00000000  0.27388214
  -0.00000000 -0.00000000  0.72611786
   0.33333334  0.66666669  0.11105880
   0.66666663  0.33333331  0.88894120
   0.33333334  0.66666669  0.20830979
   0.66666663  0.33333331  0.79169024
   0.33333334  0.66666669  0.93568996
   0.66666663  0.33333331  0.06431004
   0.33333334  0.66666669  0.67767398
   0.66666663  0.33333331  0.32232602
   0.33333334  0.66666669  0.43771639
   0.66666663  0.33333331  0.56228361
   0.33333334  0.66666669  0.54118298
   0.66666663  0.33333331  0.45881702
ZnIn2S4 bulk PBE-D3BJ relaxation        
           1
     3.890616    0.000000    0.000000
    -1.945308    3.369373    0.000000
    -0.000000   -0.000000   24.673006
   In   S    Zn
   4   8   2
Direct configuration=    59
   0.00000000  0.00000000  0.27366768
  -0.00000000 -0.00000000  0.72633232
   0.33333334  0.66666669  0.11091813
   0.66666663  0.33333331  0.88908187
   0.33333334  0.66666669  0.20815451
   0.66666663  0.33333331  0.79184552
   0.33333334  0.66666669  0.93582001
   0.66666663  0.33333331  0.06417999
   0.33333334  0.66666669  0.67784344
   0.66666663  0.33333331  0.32215656
   0.33333334  0.66666669  0.43768348
   0.66666663  0.33333331  0.56231652
   0.33333334  0.66666669  0.54125107
   0.66666663  0.33333331  0.45874893
ZnIn2S4 bulk PBE-D3BJ relaxation        
           1
     3.888283    0.000000    0.000000
    -1.944142    3.367352    0.000000
    -0.000000   -0.000000   24.666734
   In   S    Zn
   4   8   2
Direct configuration=    60
   0.00000000  0.00000000  0.27302424
  -0.00000000 -0.00000000  0.72697576
   0.33333334  0.66666669  0.11049609
   0.66666663  0.33333331  0.88950391
   0.33333334  0.66666669  0.20768861
   0.66666663  0.33333331  0.79231142
   0.33333334  0.66666669  0.93621018
   0.66666663  0.33333331  0.06378982
   0.33333334  0.66666669  0.67835184
   0.66666663  0.33333331  0.32164816
   0.33333334  0.66666669  0.43758473
   0.66666663  0.33333331  0.56241527
   0.33333334  0.66666669  0.54145534
   0.66666663  0.33333331  0.45854466
ZnIn2S4 bulk PBE-D3BJ relaxation        
           1
     3.883616    0.000000   -0.000000
    -1.941808    3.363310    0.000000
    -0.000000   -0.000000   24.654190
   In   S    Zn
   4   8   2
Direct configuration=    61
   0.00000000  0.00000000  0.27173705
  -0.00000000 -0.00000000  0.72826295
   0.33333334  0.66666669  0.10965178
   0.66666663  0.33333331  0.89034822
   0.33333334  0.66666669  0.20675659
   0.66666663  0.33333331  0.79324344
   0.33333334  0.66666669  0.93699073
   0.66666663  0.33333331  0.06300927
   0.33333334  0.66666669  0.67936891
   0.66666663  0.33333331  0.32063109
   0.33333334  0.66666669  0.43738717
   0.66666663  0.33333331  0.56261283
   0.33333334  0.66666669  0.54186400
   0.66666663  0.33333331  0.45813600
ZnIn2S4 bulk PBE-D3BJ relaxation        
           1
     3.884722    0.000000   -0.000000
    -1.942361    3.364268    0.000000
    -0.000000   -0.000000   24.657058
   In   S    Zn
   4   8   2
Direct configuration=    62
   0.00000000  0.00000000  0.27157933
  -0.00000000 -0.00000000  0.72842067
   0.33333334  0.66666669  0.10953339
   0.66666663  0.33333331  0.89046661
   0.33333334  0.66666669  0.20660744
   0.66666663  0.33333331  0.79339259
   0.33333334  0.66666669  0.93711916
   0.66666663  0.33333331  0.06288084
   0.33333334  0.66666669  0.67949820
   0.66666663  0.33333331  0.32050180
   0.33333334  0.66666669  0.43735064
   0.66666663  0.33333331  0.56264936
   0.33333334  0.66666669  0.54190976
   0.66666663  0.33333331  0.45809024
ZnIn2S4 bulk PBE-D3BJ relaxation        
           1
     3.886873    0.000000   -0.000000
    -1.943437    3.366131    0.000000
    -0.000000   -0.000000   24.662638
   In   S    Zn
   4   8   2
Direct configuration=    63
   0.00000000  0.00000000  0.27127259
  -0.00000000 -0.00000000  0.72872741
   0.33333334  0.66666669  0.10930312
   0.66666663  0.33333331  0.89069688
   0.33333334  0.66666669  0.20631737
   0.66666663  0.33333331  0.79368266
   0.33333334  0.66666669  0.93736895
   0.66666663  0.33333331  0.06263105
   0.33333334  0.66666669  0.67974965
   0.66666663  0.33333331  0.32025035
   0.33333334  0.66666669  0.43727959
   0.66666663  0.33333331  0.56272041
   0.33333334  0.66666669  0.54199875
   0.66666663  0.33333331  0.45800125
ZnIn2S4 bulk PBE-D3BJ relaxation        
           1
     3.891175    0.000000   -0.000000
    -1.945588    3.369856    0.000000
    -0.000000   -0.000000   24.673796
   In   S    Zn
   4   8   2
Direct configuration=    64
   0.00000000  0.00000000  0.27065924
  -0.00000000 -0.00000000  0.72934076
   0.33333334  0.66666669  0.10884269
   0.66666663  0.33333331  0.89115731
   0.33333334  0.66666669  0.20573735
   0.66666663  0.33333331  0.79426267
   0.33333334  0.66666669  0.93786840
   0.66666663  0.33333331  0.06213160
   0.33333334  0.66666669  0.68025242
   0.66666663  0.33333331  0.31974758
   0.33333334  0.66666669  0.43713753
   0.66666663  0.33333331  0.56286247
   0.33333334  0.66666669  0.54217669
   0.66666663  0.33333331  0.45782331
ZnIn2S4 bulk PBE-D3BJ relaxation        
           1
     3.889773    0.000000   -0.000000
    -1.944887    3.368642    0.000000
    -0.000000   -0.000000   24.670159
   In   S    Zn
   4   8   2
Direct configuration=    65
   0.00000000  0.00000000  0.27085904
  -0.00000000 -0.00000000  0.72914096
   0.33333334  0.66666669  0.10899268
   0.66666663  0.33333331  0.89100732
   0.33333334  0.66666669  0.20592630
   0.66666663  0.33333331  0.79407373
   0.33333334  0.66666669  0.93770570
   0.66666663  0.33333331  0.06229430
   0.33333334  0.66666669  0.68008864
   0.66666663  0.33333331  0.31991136
   0.33333334  0.66666669  0.43718381
   0.66666663  0.33333331  0.56281619
   0.33333334  0.66666669  0.54211873
   0.66666663  0.33333331  0.45788127
ZnIn2S4 bulk PBE-D3BJ relaxation        
           1
     3.890143    0.000000   -0.000000
    -1.945072    3.368963    0.000000
    -0.000000   -0.000000   24.669250
   In   S    Zn
   4   8   2
Direct configuration=    66
   0.00000000  0.00000000  0.27078686
  -0.00000000 -0.00000000  0.72921314
   0.33333334  0.66666669  0.10882885
   0.66666663  0.33333331  0.89117115
   0.33333334  0.66666669  0.20579124
   0.66666663  0.33333331  0.79420879
   0.33333334  0.66666669  0.93782282
   0.66666663  0.33333331  0.06217718
   0.33333334  0.66666669  0.68022161
   0.66666663  0.33333331  0.31977839
   0.33333334  0.66666669  0.43716985
   0.66666663  0.33333331  0.56283015
   0.33333334  0.66666669  0.54213010
   0.66666663  0.33333331  0.45786990
ZnIn2S4 bulk PBE-D3BJ relaxation        
           1
     3.891254    0.000000   -0.000000
    -1.945627    3.369925    0.000000
    -0.000000   -0.000000   24.666523
   In   S    Zn
   4   8   2
Direct configuration=    67
   0.00000000  0.00000000  0.27057029
  -0.00000000 -0.00000000  0.72942971
   0.33333334  0.66666669  0.10833736
   0.66666663  0.33333331  0.89166264
   0.33333334  0.66666669  0.20538604
   0.66666663  0.33333331  0.79461399
   0.33333334  0.66666669  0.93817421
   0.66666663  0.33333331  0.06182579
   0.33333334  0.66666669  0.68062054
   0.66666663  0.33333331  0.31937946
   0.33333334  0.66666669  0.43712796
   0.66666663  0.33333331  0.56287204
   0.33333334  0.66666669  0.54216423
   0.66666663  0.33333331  0.45783577
ZnIn2S4 bulk PBE-D3BJ relaxation        
           1
     3.893475    0.000000   -0.000000
    -1.946738    3.371848    0.000000
    -0.000000   -0.000000   24.661068
   In   S    Zn
   4   8   2
Direct configuration=    68
   0.00000000  0.00000000  0.27013711
  -0.00000000 -0.00000000  0.72986289
   0.33333334  0.66666669  0.10735428
   0.66666663  0.33333331  0.89264572
   0.33333334  0.66666669  0.20457556
   0.66666663  0.33333331  0.79542447
   0.33333334  0.66666669  0.93887706
   0.66666663  0.33333331  0.06112294
   0.33333334  0.66666669  0.68141848
   0.66666663  0.33333331  0.31858152
   0.33333334  0.66666669  0.43704417
   0.66666663  0.33333331  0.56295583
   0.33333334  0.66666669  0.54223248
   0.66666663  0.33333331  0.45776752
ZnIn2S4 bulk PBE-D3BJ relaxation        
           1
     3.892310    0.000000   -0.000000
    -1.946155    3.370840    0.000000
    -0.000000   -0.000000   24.663928
   In   S    Zn
   4   8   2
Direct configuration=    69
   0.00000000  0.00000000  0.27036429
  -0.00000000 -0.00000000  0.72963571
   0.33333334  0.66666669  0.10786986
   0.66666663  0.33333331  0.89213014
   0.33333334  0.66666669  0.20500062
   0.66666663  0.33333331  0.79499941
   0.33333334  0.66666669  0.93850845
   0.66666663  0.33333331  0.06149155
   0.33333334  0.66666669  0.68100000
   0.66666663  0.33333331  0.31900000
   0.33333334  0.66666669  0.43708812
   0.66666663  0.33333331  0.56291188
   0.33333334  0.66666669  0.54219668
   0.66666663  0.33333331  0.45780332
ZnIn2S4 bulk PBE-D3BJ relaxation        
           1
     3.891019    0.000000   -0.000000
    -1.945509    3.369721    0.000000
    -0.000000   -0.000000   24.634613
   In   S    Zn
   4   8   2
Direct configuration=    70
   0.00000000  0.00000000  0.27020181
  -0.00000000 -0.00000000  0.72979819
   0.33333334  0.66666669  0.10763210
   0.66666663  0.33333331  0.89236790
   0.33333334  0.66666669  0.20476226
   0.66666663  0.33333331  0.79523777
   0.33333334  0.66666669  0.93876572
   0.66666663  0.33333331  0.06123428
   0.33333334  0.66666669  0.68115826
   0.66666663  0.33333331  0.31884174
   0.33333334  0.66666669  0.43711901
   0.66666663  0.33333331  0.56288099
   0.33333334  0.66666669  0.54215290
   0.66666663  0.33333331  0.45784710
ZnIn2S4 bulk PBE-D3BJ relaxation        
           1
     3.889828    0.000000   -0.000000
    -1.944914    3.368690    0.000000
    -0.000000   -0.000000   24.607585
   In   S    Zn
   4   8   2
Direct configuration=    71
   0.00000000  0.00000000  0.27005183
  -0.00000000 -0.00000000  0.72994817
   0.33333334  0.66666669  0.10741263
   0.66666663  0.33333331  0.89258737
   0.33333334  0.66666669  0.20454224
   0.66666663  0.33333331  0.79545779
   0.33333334  0.66666669  0.93900321
   0.66666663  0.33333331  0.06099679
   0.33333334  0.66666669  0.68130436
   0.66666663  0.33333331  0.31869564
   0.33333334  0.66666669  0.43714753
   0.66666663  0.33333331  0.56285247
   0.33333334  0.66666669  0.54211248
   0.66666663  0.33333331  0.45788752
ZnIn2S4 bulk PBE-D3BJ relaxation        
           1
     3.890465    0.000000   -0.000000
    -1.945233    3.369242    0.000000
    -0.000000   -0.000000   24.594089
   In   S    Zn
   4   8   2
Direct configuration=    72
   0.00000000  0.00000000  0.26982701
  -0.00000000 -0.00000000  0.73017299
   0.33333334  0.66666669  0.10714757
   0.66666663  0.33333331  0.89285243
   0.33333334  0.66666669  0.20435928
   0.66666663  0.33333331  0.79564074
   0.33333334  0.66666669  0.93933972
   0.66666663  0.33333331  0.06066028
   0.33333334  0.66666669  0.68136325
   0.66666663  0.33333331  0.31863675
   0.33333334  0.66666669  0.43716963
   0.66666663  0.33333331  0.56283037
   0.33333334  0.66666669  0.54202573
   0.66666663  0.33333331  0.45797427
ZnIn2S4 bulk PBE-D3BJ relaxation        
           1
     3.891313    0.000000   -0.000000
    -1.945656    3.369976    0.000000
    -0.000000   -0.000000   24.576159
   In   S    Zn
   4   8   2
Direct configuration=    73
  -0.00000000  0.00000000  0.26952814
   0.00000000 -0.00000000  0.73047186
   0.33333334  0.66666669  0.10679521
   0.66666663  0.33333331  0.89320479
   0.33333334  0.66666669  0.20411607
   0.66666663  0.33333331  0.79588396
   0.33333334  0.66666669  0.93978706
   0.66666663  0.33333331  0.06021294
   0.33333334  0.66666669  0.68144155
   0.66666663  0.33333331  0.31855845
   0.33333334  0.66666669  0.43719900
   0.66666663  0.33333331  0.56280100
   0.33333334  0.66666669  0.54191042
   0.66666663  0.33333331  0.45808958
ZnIn2S4 bulk PBE-D3BJ relaxation        
           1
     3.891447    0.000000   -0.000000
    -1.945723    3.370092    0.000000
    -0.000000   -0.000000   24.573328
   In   S    Zn
   4   8   2
Direct configuration=    74
  -0.00000000  0.00000000  0.26948092
   0.00000000 -0.00000000  0.73051908
   0.33333334  0.66666669  0.10673954
   0.66666663  0.33333331  0.89326046
   0.33333334  0.66666669  0.20407765
   0.66666663  0.33333331  0.79592238
   0.33333334  0.66666669  0.93985773
   0.66666663  0.33333331  0.06014227
   0.33333334  0.66666669  0.68145392
   0.66666663  0.33333331  0.31854608
   0.33333334  0.66666669  0.43720364
   0.66666663  0.33333331  0.56279636
   0.33333334  0.66666669  0.54189220
   0.66666663  0.33333331  0.45810780
ZnIn2S4 bulk PBE-D3BJ relaxation        
           1
     3.890831    0.000000   -0.000000
    -1.945415    3.369558    0.000000
    -0.000000   -0.000000   24.582068
   In   S    Zn
   4   8   2
Direct configuration=    75
  -0.00000000  0.00000000  0.26948942
   0.00000000 -0.00000000  0.73051058
   0.33333334  0.66666669  0.10660450
   0.66666663  0.33333331  0.89339550
   0.33333334  0.66666669  0.20404086
   0.66666663  0.33333331  0.79595917
   0.33333334  0.66666669  0.93997355
   0.66666663  0.33333331  0.06002645
   0.33333334  0.66666669  0.68147069
   0.66666663  0.33333331  0.31852931
   0.33333334  0.66666669  0.43715991
   0.66666663  0.33333331  0.56284009
   0.33333334  0.66666669  0.54185001
   0.66666663  0.33333331  0.45814999
ZnIn2S4 bulk PBE-D3BJ relaxation        
           1
     3.890703    0.000000   -0.000000
    -1.945351    3.369447    0.000000
    -0.000000   -0.000000   24.583882
   In   S    Zn
   4   8   2
Direct configuration=    76
  -0.00000000  0.00000000  0.26949119
   0.00000000 -0.00000000  0.73050881
   0.33333334  0.66666669  0.10657649
   0.66666663  0.33333331  0.89342351
   0.33333334  0.66666669  0.20403323
   0.66666663  0.33333331  0.79596680
   0.33333334  0.66666669  0.93999757
   0.66666663  0.33333331  0.06000243
   0.33333334  0.66666669  0.68147417
   0.66666663  0.33333331  0.31852583
   0.33333334  0.66666669  0.43715084
   0.66666663  0.33333331  0.56284916
   0.33333334  0.66666669  0.54184125
   0.66666663  0.33333331  0.45815875
ZnIn2S4 bulk PBE-D3BJ relaxation        
           1
     3.889672    0.000000   -0.000000
    -1.944836    3.368555    0.000000
    -0.000000   -0.000000   24.579607
   In   S    Zn
   4   8   2
Direct configuration=    77
  -0.00000000  0.00000000  0.26953504
   0.00000000 -0.00000000  0.73046496
   0.33333334  0.66666669  0.10654225
   0.66666663  0.33333331  0.89345775
   0.33333334  0.66666669  0.20396127
   0.66666663  0.33333331  0.79603876
   0.33333334  0.66666669  0.94008231
   0.66666663  0.33333331  0.05991769
   0.33333334  0.66666669  0.68147766
   0.66666663  0.33333331  0.31852234
   0.33333334  0.66666669  0.43709152
   0.66666663  0.33333331  0.56290848
   0.33333334  0.66666669  0.54180054
   0.66666663  0.33333331  0.45819946
ZnIn2S4 bulk PBE-D3BJ relaxation        
           1
     3.889247    0.000000   -0.000000
    -1.944624    3.368187    0.000000
    -0.000000   -0.000000   24.577844
   In   S    Zn
   4   8   2
Direct configuration=    78
  -0.00000000  0.00000000  0.26955314
   0.00000000 -0.00000000  0.73044686
   0.33333334  0.66666669  0.10652813
   0.66666663  0.33333331  0.89347187
   0.33333334  0.66666669  0.20393157
   0.66666663  0.33333331  0.79606845
   0.33333334  0.66666669  0.94011728
   0.66666663  0.33333331  0.05988272
   0.33333334  0.66666669  0.68147910
   0.66666663  0.33333331  0.31852090
   0.33333334  0.66666669  0.43706705
   0.66666663  0.33333331  0.56293295
   0.33333334  0.66666669  0.54178374
   0.66666663  0.33333331  0.45821626
ZnIn2S4 bulk PBE-D3BJ relaxation        
           1
     3.889597    0.000000   -0.000000
    -1.944799    3.368490    0.000000
    -0.000000   -0.000000   24.571614
   In   S    Zn
   4   8   2
Direct configuration=    79
  -0.00000000  0.00000000  0.26954768
   0.00000000 -0.00000000  0.73045232
   0.33333334  0.66666669  0.10651037
   0.66666663  0.33333331  0.89348963
   0.33333334  0.66666669  0.20391240
   0.66666663  0.33333331  0.79608763
   0.33333334  0.66666669  0.94016219
   0.66666663  0.33333331  0.05983781
   0.33333334  0.66666669  0.68144194
   0.66666663  0.33333331  0.31855806
   0.33333334  0.66666669  0.43701593
   0.66666663  0.33333331  0.56298407
   0.33333334  0.66666669  0.54175154
   0.66666663  0.33333331  0.45824846
ZnIn2S4 bulk PBE-D3BJ relaxation        
           1
     3.889858    0.000000   -0.000000
    -1.944929    3.368716    0.000000
    -0.000000   -0.000000   24.566970
   In   S    Zn
   4   8   2
Direct configuration=    80
  -0.00000000  0.00000000  0.26954360
   0.00000000 -0.00000000  0.73045640
   0.33333334  0.66666669  0.10649713
   0.66666663  0.33333331  0.89350287
   0.33333334  0.66666669  0.20389810
   0.66666663  0.33333331  0.79610193
   0.33333334  0.66666669  0.94019567
   0.66666663  0.33333331  0.05980433
   0.33333334  0.66666669  0.68141422
   0.66666663  0.33333331  0.31858578
   0.33333334  0.66666669  0.43697780
   0.66666663  0.33333331  0.56302220
   0.33333334  0.66666669  0.54172754
   0.66666663  0.33333331  0.45827246
ZnIn2S4 bulk PBE-D3BJ relaxation        
           1
     3.889649    0.000000   -0.000000
    -1.944825    3.368535    0.000000
    -0.000000   -0.000000   24.560599
   In   S    Zn
   4   8   2
Direct configuration=    81
  -0.00000000  0.00000000  0.26953970
   0.00000000 -0.00000000  0.73046030
   0.33333334  0.66666669  0.10645982
   0.66666663  0.33333331  0.89354018
   0.33333334  0.66666669  0.20390956
   0.66666663  0.33333331  0.79609047
   0.33333334  0.66666669  0.94021881
   0.66666663  0.33333331  0.05978119
   0.33333334  0.66666669  0.68138550
   0.66666663  0.33333331  0.31861450
   0.33333334  0.66666669  0.43694477
   0.66666663  0.33333331  0.56305523
   0.33333334  0.66666669  0.54170330
   0.66666663  0.33333331  0.45829670
