WP2-P02-beta001-thickness-4L-relax-500-k
   1.0000000000000000     
     3.8782842923155867    0.0000000000000000    0.0000000000000000
    -1.9391421461577933    3.3586927202930394    0.0000000000000000
     0.0000000000000000    0.0000000000000000   65.8651576100203897
   S    In   Zn   S    In   Zn   S    In   Zn   S    In   Zn
     4     2     1     4     2     1     4     2     1     4     2     1
Direct
     0.0000004716355000    0.9999995752462633    0.1510509410125902
     0.6666670952468796    0.3333327759079876    0.2052948809831607
     0.0000003347677435    0.9999997008136792    0.2478393421921027
     0.3333324798660232    0.6666675418509050    0.2944840807313228
     0.6666671244382075    0.3333329152607239    0.1682822103389288
     0.3333338135416774    0.6666662428936949    0.2289028845627232
     0.9999986239031171    0.0000013931890280    0.2868780844435859
     0.0000007028318323    0.9999993294023617    0.3363702080399550
     0.6666670656489093    0.3333328790973483    0.3899656101418372
     0.0000002411627192    0.9999998093468297    0.4322958671179810
     0.3333324346693655    0.6666675625632659    0.4789032543120936
     0.6666673540898024    0.3333326923598011    0.3529364641916944
     0.3333336386805369    0.6666663936770879    0.4132784644001416
     0.9999985606806969    0.0000014406842153    0.4710860891345951
     0.0000004006394518    0.9999995603677626    0.5207701539814061
     0.6666670782984498    0.3333327852461029    0.5743836568018300
     0.0000003465338486    0.9999996477952523    0.6167154788055457
     0.3333325165889848    0.6666674546404435    0.6633382556191043
     0.6666670498837106    0.3333329154414111    0.5373373071160936
     0.3333337661691154    0.6666662287271283    0.5976846960522488
     0.9999985481577193    0.0000014208843451    0.6554856861467077
     0.0000006824716903    0.9999992925974378    0.7051248418188373
     0.6666670466404381    0.3333328544633506    0.7587556862659194
     0.0000002297252065    0.9999997602202857    0.8011694894363565
     0.3333326223097920    0.6666672590758548    0.8483169621527142
     0.6666673420424980    0.3333326567479792    0.7217057025687179
     0.3333336278818978    0.6666663571093484    0.7820942235285646
     0.9999985614941665    0.0000013143900854    0.8404135643542744

  0.00000000E+00  0.00000000E+00  0.00000000E+00
  0.00000000E+00  0.00000000E+00  0.00000000E+00
  0.00000000E+00  0.00000000E+00  0.00000000E+00
  0.00000000E+00  0.00000000E+00  0.00000000E+00
  0.00000000E+00  0.00000000E+00  0.00000000E+00
  0.00000000E+00  0.00000000E+00  0.00000000E+00
  0.00000000E+00  0.00000000E+00  0.00000000E+00
  0.00000000E+00  0.00000000E+00  0.00000000E+00
  0.00000000E+00  0.00000000E+00  0.00000000E+00
  0.00000000E+00  0.00000000E+00  0.00000000E+00
  0.00000000E+00  0.00000000E+00  0.00000000E+00
  0.00000000E+00  0.00000000E+00  0.00000000E+00
  0.00000000E+00  0.00000000E+00  0.00000000E+00
  0.00000000E+00  0.00000000E+00  0.00000000E+00
  0.00000000E+00  0.00000000E+00  0.00000000E+00
  0.00000000E+00  0.00000000E+00  0.00000000E+00
  0.00000000E+00  0.00000000E+00  0.00000000E+00
  0.00000000E+00  0.00000000E+00  0.00000000E+00
  0.00000000E+00  0.00000000E+00  0.00000000E+00
  0.00000000E+00  0.00000000E+00  0.00000000E+00
  0.00000000E+00  0.00000000E+00  0.00000000E+00
  0.00000000E+00  0.00000000E+00  0.00000000E+00
  0.00000000E+00  0.00000000E+00  0.00000000E+00
  0.00000000E+00  0.00000000E+00  0.00000000E+00
  0.00000000E+00  0.00000000E+00  0.00000000E+00
  0.00000000E+00  0.00000000E+00  0.00000000E+00
  0.00000000E+00  0.00000000E+00  0.00000000E+00
  0.00000000E+00  0.00000000E+00  0.00000000E+00
